*SPEF "ieee 1481-1999"
*DESIGN "top"
*DATE "r3"
*VENDOR "r3_prog_spef"
*PROGRAM "r3_prog_spef.py"
*VERSION "1"
*DESIGN_FLOW "NAME_SCOPE LOCAL" "PIN_CAP NONE"
*DIVIDER /
*DELIMITER :
*BUS_DELIMITER []
*T_UNIT 1 NS
*C_UNIT 1 PF
*R_UNIT 1 OHM
*L_UNIT 1 HENRY

*D_NET pgm_ln0 1.186116e-01
*CONN
*I lt_ln0:Z O
*I vs_62_0:A I
*I vs_59_0:A I
*I vs_56_0:A I
*I vs_55_0:A I
*I vs_54_0:A I
*I vs_50_0:A I
*I vs_49_0:A I
*I vs_47_0:A I
*I vs_43_0:A I
*I vs_42_0:A I
*I vs_41_0:A I
*I vs_38_0:A I
*I vs_37_0:A I
*I vs_36_0:A I
*I vs_35_0:A I
*I vs_34_0:A I
*I vs_33_0:A I
*I vs_29_0:A I
*I vs_27_0:A I
*I vs_26_0:A I
*I vs_23_0:A I
*I vs_19_0:A I
*I vs_18_0:A I
*I vs_14_0:A I
*I vs_13_0:A I
*I vs_11_0:A I
*I vs_2_0:A I
*I vs_0_0:A I
*CAP
1 pgm_ln0:1 1.186116e-01
*RES
1 lt_ln0:Z pgm_ln0:1 1.316212e+02
2 pgm_ln0:1 vs_62_0:A 1.000000e-03
3 pgm_ln0:1 vs_59_0:A 1.000000e-03
4 pgm_ln0:1 vs_56_0:A 1.000000e-03
5 pgm_ln0:1 vs_55_0:A 1.000000e-03
6 pgm_ln0:1 vs_54_0:A 1.000000e-03
7 pgm_ln0:1 vs_50_0:A 1.000000e-03
8 pgm_ln0:1 vs_49_0:A 1.000000e-03
9 pgm_ln0:1 vs_47_0:A 1.000000e-03
10 pgm_ln0:1 vs_43_0:A 1.000000e-03
11 pgm_ln0:1 vs_42_0:A 1.000000e-03
12 pgm_ln0:1 vs_41_0:A 1.000000e-03
13 pgm_ln0:1 vs_38_0:A 1.000000e-03
14 pgm_ln0:1 vs_37_0:A 1.000000e-03
15 pgm_ln0:1 vs_36_0:A 1.000000e-03
16 pgm_ln0:1 vs_35_0:A 1.000000e-03
17 pgm_ln0:1 vs_34_0:A 1.000000e-03
18 pgm_ln0:1 vs_33_0:A 1.000000e-03
19 pgm_ln0:1 vs_29_0:A 1.000000e-03
20 pgm_ln0:1 vs_27_0:A 1.000000e-03
21 pgm_ln0:1 vs_26_0:A 1.000000e-03
22 pgm_ln0:1 vs_23_0:A 1.000000e-03
23 pgm_ln0:1 vs_19_0:A 1.000000e-03
24 pgm_ln0:1 vs_18_0:A 1.000000e-03
25 pgm_ln0:1 vs_14_0:A 1.000000e-03
26 pgm_ln0:1 vs_13_0:A 1.000000e-03
27 pgm_ln0:1 vs_11_0:A 1.000000e-03
28 pgm_ln0:1 vs_2_0:A 1.000000e-03
29 pgm_ln0:1 vs_0_0:A 1.000000e-03
*END

*D_NET pgm_ln1 1.081198e-01
*CONN
*I lt_ln1:Z O
*I vs_61_1:A I
*I vs_57_1:A I
*I vs_54_1:A I
*I vs_52_1:A I
*I vs_50_1:A I
*I vs_48_1:A I
*I vs_42_1:A I
*I vs_41_1:A I
*I vs_38_1:A I
*I vs_35_1:A I
*I vs_32_1:A I
*I vs_30_1:A I
*I vs_29_1:A I
*I vs_27_1:A I
*I vs_26_1:A I
*I vs_24_1:A I
*I vs_19_1:A I
*I vs_18_1:A I
*I vs_15_1:A I
*I vs_14_1:A I
*I vs_13_1:A I
*I vs_7_1:A I
*I vs_4_1:A I
*I vs_3_1:A I
*I vs_0_1:A I
*CAP
1 pgm_ln1:1 1.081198e-01
*RES
1 lt_ln1:Z pgm_ln1:1 1.221281e+02
2 pgm_ln1:1 vs_61_1:A 1.000000e-03
3 pgm_ln1:1 vs_57_1:A 1.000000e-03
4 pgm_ln1:1 vs_54_1:A 1.000000e-03
5 pgm_ln1:1 vs_52_1:A 1.000000e-03
6 pgm_ln1:1 vs_50_1:A 1.000000e-03
7 pgm_ln1:1 vs_48_1:A 1.000000e-03
8 pgm_ln1:1 vs_42_1:A 1.000000e-03
9 pgm_ln1:1 vs_41_1:A 1.000000e-03
10 pgm_ln1:1 vs_38_1:A 1.000000e-03
11 pgm_ln1:1 vs_35_1:A 1.000000e-03
12 pgm_ln1:1 vs_32_1:A 1.000000e-03
13 pgm_ln1:1 vs_30_1:A 1.000000e-03
14 pgm_ln1:1 vs_29_1:A 1.000000e-03
15 pgm_ln1:1 vs_27_1:A 1.000000e-03
16 pgm_ln1:1 vs_26_1:A 1.000000e-03
17 pgm_ln1:1 vs_24_1:A 1.000000e-03
18 pgm_ln1:1 vs_19_1:A 1.000000e-03
19 pgm_ln1:1 vs_18_1:A 1.000000e-03
20 pgm_ln1:1 vs_15_1:A 1.000000e-03
21 pgm_ln1:1 vs_14_1:A 1.000000e-03
22 pgm_ln1:1 vs_13_1:A 1.000000e-03
23 pgm_ln1:1 vs_7_1:A 1.000000e-03
24 pgm_ln1:1 vs_4_1:A 1.000000e-03
25 pgm_ln1:1 vs_3_1:A 1.000000e-03
26 pgm_ln1:1 vs_0_1:A 1.000000e-03
*END

*D_NET pgm_ln10 1.044682e-01
*CONN
*I lt_ln10:Z O
*I vs_63_10:A I
*I vs_62_10:A I
*I vs_60_10:A I
*I vs_58_10:A I
*I vs_57_10:A I
*I vs_50_10:A I
*I vs_46_10:A I
*I vs_39_10:A I
*I vs_38_10:A I
*I vs_33_10:A I
*I vs_31_10:A I
*I vs_27_10:A I
*I vs_26_10:A I
*I vs_25_10:A I
*I vs_24_10:A I
*I vs_22_10:A I
*I vs_20_10:A I
*I vs_19_10:A I
*I vs_18_10:A I
*I vs_17_10:A I
*I vs_11_10:A I
*I vs_8_10:A I
*I vs_5_10:A I
*CAP
1 pgm_ln10:1 1.044682e-01
*RES
1 lt_ln10:Z pgm_ln10:1 1.174084e+02
2 pgm_ln10:1 vs_63_10:A 1.000000e-03
3 pgm_ln10:1 vs_62_10:A 1.000000e-03
4 pgm_ln10:1 vs_60_10:A 1.000000e-03
5 pgm_ln10:1 vs_58_10:A 1.000000e-03
6 pgm_ln10:1 vs_57_10:A 1.000000e-03
7 pgm_ln10:1 vs_50_10:A 1.000000e-03
8 pgm_ln10:1 vs_46_10:A 1.000000e-03
9 pgm_ln10:1 vs_39_10:A 1.000000e-03
10 pgm_ln10:1 vs_38_10:A 1.000000e-03
11 pgm_ln10:1 vs_33_10:A 1.000000e-03
12 pgm_ln10:1 vs_31_10:A 1.000000e-03
13 pgm_ln10:1 vs_27_10:A 1.000000e-03
14 pgm_ln10:1 vs_26_10:A 1.000000e-03
15 pgm_ln10:1 vs_25_10:A 1.000000e-03
16 pgm_ln10:1 vs_24_10:A 1.000000e-03
17 pgm_ln10:1 vs_22_10:A 1.000000e-03
18 pgm_ln10:1 vs_20_10:A 1.000000e-03
19 pgm_ln10:1 vs_19_10:A 1.000000e-03
20 pgm_ln10:1 vs_18_10:A 1.000000e-03
21 pgm_ln10:1 vs_17_10:A 1.000000e-03
22 pgm_ln10:1 vs_11_10:A 1.000000e-03
23 pgm_ln10:1 vs_8_10:A 1.000000e-03
24 pgm_ln10:1 vs_5_10:A 1.000000e-03
*END

*D_NET pgm_ln11 1.130934e-01
*CONN
*I lt_ln11:Z O
*I vs_63_11:A I
*I vs_59_11:A I
*I vs_58_11:A I
*I vs_56_11:A I
*I vs_55_11:A I
*I vs_52_11:A I
*I vs_51_11:A I
*I vs_46_11:A I
*I vs_38_11:A I
*I vs_36_11:A I
*I vs_35_11:A I
*I vs_33_11:A I
*I vs_32_11:A I
*I vs_31_11:A I
*I vs_28_11:A I
*I vs_27_11:A I
*I vs_24_11:A I
*I vs_23_11:A I
*I vs_22_11:A I
*I vs_20_11:A I
*I vs_18_11:A I
*I vs_14_11:A I
*I vs_11_11:A I
*I vs_10_11:A I
*I vs_7_11:A I
*I vs_5_11:A I
*I vs_4_11:A I
*I vs_2_11:A I
*I vs_0_11:A I
*CAP
1 pgm_ln11:1 1.130934e-01
*RES
1 lt_ln11:Z pgm_ln11:1 1.268519e+02
2 pgm_ln11:1 vs_63_11:A 1.000000e-03
3 pgm_ln11:1 vs_59_11:A 1.000000e-03
4 pgm_ln11:1 vs_58_11:A 1.000000e-03
5 pgm_ln11:1 vs_56_11:A 1.000000e-03
6 pgm_ln11:1 vs_55_11:A 1.000000e-03
7 pgm_ln11:1 vs_52_11:A 1.000000e-03
8 pgm_ln11:1 vs_51_11:A 1.000000e-03
9 pgm_ln11:1 vs_46_11:A 1.000000e-03
10 pgm_ln11:1 vs_38_11:A 1.000000e-03
11 pgm_ln11:1 vs_36_11:A 1.000000e-03
12 pgm_ln11:1 vs_35_11:A 1.000000e-03
13 pgm_ln11:1 vs_33_11:A 1.000000e-03
14 pgm_ln11:1 vs_32_11:A 1.000000e-03
15 pgm_ln11:1 vs_31_11:A 1.000000e-03
16 pgm_ln11:1 vs_28_11:A 1.000000e-03
17 pgm_ln11:1 vs_27_11:A 1.000000e-03
18 pgm_ln11:1 vs_24_11:A 1.000000e-03
19 pgm_ln11:1 vs_23_11:A 1.000000e-03
20 pgm_ln11:1 vs_22_11:A 1.000000e-03
21 pgm_ln11:1 vs_20_11:A 1.000000e-03
22 pgm_ln11:1 vs_18_11:A 1.000000e-03
23 pgm_ln11:1 vs_14_11:A 1.000000e-03
24 pgm_ln11:1 vs_11_11:A 1.000000e-03
25 pgm_ln11:1 vs_10_11:A 1.000000e-03
26 pgm_ln11:1 vs_7_11:A 1.000000e-03
27 pgm_ln11:1 vs_5_11:A 1.000000e-03
28 pgm_ln11:1 vs_4_11:A 1.000000e-03
29 pgm_ln11:1 vs_2_11:A 1.000000e-03
30 pgm_ln11:1 vs_0_11:A 1.000000e-03
*END

*D_NET pgm_ln12 1.151778e-01
*CONN
*I lt_ln12:Z O
*I vs_59_12:A I
*I vs_56_12:A I
*I vs_55_12:A I
*I vs_53_12:A I
*I vs_51_12:A I
*I vs_49_12:A I
*I vs_48_12:A I
*I vs_47_12:A I
*I vs_44_12:A I
*I vs_42_12:A I
*I vs_40_12:A I
*I vs_35_12:A I
*I vs_34_12:A I
*I vs_27_12:A I
*I vs_26_12:A I
*I vs_25_12:A I
*I vs_24_12:A I
*I vs_19_12:A I
*I vs_17_12:A I
*I vs_16_12:A I
*I vs_15_12:A I
*I vs_12_12:A I
*I vs_10_12:A I
*I vs_9_12:A I
*I vs_8_12:A I
*I vs_5_12:A I
*I vs_4_12:A I
*I vs_3_12:A I
*I vs_0_12:A I
*CAP
1 pgm_ln12:1 1.151778e-01
*RES
1 lt_ln12:Z pgm_ln12:1 1.295615e+02
2 pgm_ln12:1 vs_59_12:A 1.000000e-03
3 pgm_ln12:1 vs_56_12:A 1.000000e-03
4 pgm_ln12:1 vs_55_12:A 1.000000e-03
5 pgm_ln12:1 vs_53_12:A 1.000000e-03
6 pgm_ln12:1 vs_51_12:A 1.000000e-03
7 pgm_ln12:1 vs_49_12:A 1.000000e-03
8 pgm_ln12:1 vs_48_12:A 1.000000e-03
9 pgm_ln12:1 vs_47_12:A 1.000000e-03
10 pgm_ln12:1 vs_44_12:A 1.000000e-03
11 pgm_ln12:1 vs_42_12:A 1.000000e-03
12 pgm_ln12:1 vs_40_12:A 1.000000e-03
13 pgm_ln12:1 vs_35_12:A 1.000000e-03
14 pgm_ln12:1 vs_34_12:A 1.000000e-03
15 pgm_ln12:1 vs_27_12:A 1.000000e-03
16 pgm_ln12:1 vs_26_12:A 1.000000e-03
17 pgm_ln12:1 vs_25_12:A 1.000000e-03
18 pgm_ln12:1 vs_24_12:A 1.000000e-03
19 pgm_ln12:1 vs_19_12:A 1.000000e-03
20 pgm_ln12:1 vs_17_12:A 1.000000e-03
21 pgm_ln12:1 vs_16_12:A 1.000000e-03
22 pgm_ln12:1 vs_15_12:A 1.000000e-03
23 pgm_ln12:1 vs_12_12:A 1.000000e-03
24 pgm_ln12:1 vs_10_12:A 1.000000e-03
25 pgm_ln12:1 vs_9_12:A 1.000000e-03
26 pgm_ln12:1 vs_8_12:A 1.000000e-03
27 pgm_ln12:1 vs_5_12:A 1.000000e-03
28 pgm_ln12:1 vs_4_12:A 1.000000e-03
29 pgm_ln12:1 vs_3_12:A 1.000000e-03
30 pgm_ln12:1 vs_0_12:A 1.000000e-03
*END

*D_NET pgm_ln13 1.068951e-01
*CONN
*I lt_ln13:Z O
*I vs_63_13:A I
*I vs_60_13:A I
*I vs_58_13:A I
*I vs_57_13:A I
*I vs_55_13:A I
*I vs_49_13:A I
*I vs_47_13:A I
*I vs_44_13:A I
*I vs_39_13:A I
*I vs_37_13:A I
*I vs_36_13:A I
*I vs_33_13:A I
*I vs_29_13:A I
*I vs_28_13:A I
*I vs_27_13:A I
*I vs_23_13:A I
*I vs_22_13:A I
*I vs_17_13:A I
*I vs_14_13:A I
*I vs_10_13:A I
*I vs_9_13:A I
*I vs_7_13:A I
*I vs_5_13:A I
*I vs_3_13:A I
*I vs_2_13:A I
*CAP
1 pgm_ln13:1 1.068951e-01
*RES
1 lt_ln13:Z pgm_ln13:1 1.213026e+02
2 pgm_ln13:1 vs_63_13:A 1.000000e-03
3 pgm_ln13:1 vs_60_13:A 1.000000e-03
4 pgm_ln13:1 vs_58_13:A 1.000000e-03
5 pgm_ln13:1 vs_57_13:A 1.000000e-03
6 pgm_ln13:1 vs_55_13:A 1.000000e-03
7 pgm_ln13:1 vs_49_13:A 1.000000e-03
8 pgm_ln13:1 vs_47_13:A 1.000000e-03
9 pgm_ln13:1 vs_44_13:A 1.000000e-03
10 pgm_ln13:1 vs_39_13:A 1.000000e-03
11 pgm_ln13:1 vs_37_13:A 1.000000e-03
12 pgm_ln13:1 vs_36_13:A 1.000000e-03
13 pgm_ln13:1 vs_33_13:A 1.000000e-03
14 pgm_ln13:1 vs_29_13:A 1.000000e-03
15 pgm_ln13:1 vs_28_13:A 1.000000e-03
16 pgm_ln13:1 vs_27_13:A 1.000000e-03
17 pgm_ln13:1 vs_23_13:A 1.000000e-03
18 pgm_ln13:1 vs_22_13:A 1.000000e-03
19 pgm_ln13:1 vs_17_13:A 1.000000e-03
20 pgm_ln13:1 vs_14_13:A 1.000000e-03
21 pgm_ln13:1 vs_10_13:A 1.000000e-03
22 pgm_ln13:1 vs_9_13:A 1.000000e-03
23 pgm_ln13:1 vs_7_13:A 1.000000e-03
24 pgm_ln13:1 vs_5_13:A 1.000000e-03
25 pgm_ln13:1 vs_3_13:A 1.000000e-03
26 pgm_ln13:1 vs_2_13:A 1.000000e-03
*END

*D_NET pgm_ln14 1.040718e-01
*CONN
*I lt_ln14:Z O
*I vs_59_14:A I
*I vs_54_14:A I
*I vs_52_14:A I
*I vs_49_14:A I
*I vs_45_14:A I
*I vs_35_14:A I
*I vs_33_14:A I
*I vs_29_14:A I
*I vs_28_14:A I
*I vs_26_14:A I
*I vs_23_14:A I
*I vs_22_14:A I
*I vs_17_14:A I
*I vs_15_14:A I
*I vs_14_14:A I
*I vs_13_14:A I
*I vs_11_14:A I
*I vs_9_14:A I
*I vs_8_14:A I
*I vs_6_14:A I
*I vs_5_14:A I
*I vs_3_14:A I
*I vs_1_14:A I
*I vs_0_14:A I
*CAP
1 pgm_ln14:1 1.040718e-01
*RES
1 lt_ln14:Z pgm_ln14:1 1.180988e+02
2 pgm_ln14:1 vs_59_14:A 1.000000e-03
3 pgm_ln14:1 vs_54_14:A 1.000000e-03
4 pgm_ln14:1 vs_52_14:A 1.000000e-03
5 pgm_ln14:1 vs_49_14:A 1.000000e-03
6 pgm_ln14:1 vs_45_14:A 1.000000e-03
7 pgm_ln14:1 vs_35_14:A 1.000000e-03
8 pgm_ln14:1 vs_33_14:A 1.000000e-03
9 pgm_ln14:1 vs_29_14:A 1.000000e-03
10 pgm_ln14:1 vs_28_14:A 1.000000e-03
11 pgm_ln14:1 vs_26_14:A 1.000000e-03
12 pgm_ln14:1 vs_23_14:A 1.000000e-03
13 pgm_ln14:1 vs_22_14:A 1.000000e-03
14 pgm_ln14:1 vs_17_14:A 1.000000e-03
15 pgm_ln14:1 vs_15_14:A 1.000000e-03
16 pgm_ln14:1 vs_14_14:A 1.000000e-03
17 pgm_ln14:1 vs_13_14:A 1.000000e-03
18 pgm_ln14:1 vs_11_14:A 1.000000e-03
19 pgm_ln14:1 vs_9_14:A 1.000000e-03
20 pgm_ln14:1 vs_8_14:A 1.000000e-03
21 pgm_ln14:1 vs_6_14:A 1.000000e-03
22 pgm_ln14:1 vs_5_14:A 1.000000e-03
23 pgm_ln14:1 vs_3_14:A 1.000000e-03
24 pgm_ln14:1 vs_1_14:A 1.000000e-03
25 pgm_ln14:1 vs_0_14:A 1.000000e-03
*END

*D_NET pgm_ln15 1.047602e-01
*CONN
*I lt_ln15:Z O
*I vs_63_15:A I
*I vs_59_15:A I
*I vs_58_15:A I
*I vs_54_15:A I
*I vs_49_15:A I
*I vs_47_15:A I
*I vs_46_15:A I
*I vs_39_15:A I
*I vs_38_15:A I
*I vs_37_15:A I
*I vs_36_15:A I
*I vs_35_15:A I
*I vs_34_15:A I
*I vs_32_15:A I
*I vs_29_15:A I
*I vs_25_15:A I
*I vs_24_15:A I
*I vs_23_15:A I
*I vs_22_15:A I
*I vs_20_15:A I
*I vs_18_15:A I
*I vs_15_15:A I
*I vs_12_15:A I
*I vs_10_15:A I
*I vs_6_15:A I
*I vs_4_15:A I
*I vs_2_15:A I
*I vs_1_15:A I
*CAP
1 pgm_ln15:1 1.047602e-01
*RES
1 lt_ln15:Z pgm_ln15:1 1.175395e+02
2 pgm_ln15:1 vs_63_15:A 1.000000e-03
3 pgm_ln15:1 vs_59_15:A 1.000000e-03
4 pgm_ln15:1 vs_58_15:A 1.000000e-03
5 pgm_ln15:1 vs_54_15:A 1.000000e-03
6 pgm_ln15:1 vs_49_15:A 1.000000e-03
7 pgm_ln15:1 vs_47_15:A 1.000000e-03
8 pgm_ln15:1 vs_46_15:A 1.000000e-03
9 pgm_ln15:1 vs_39_15:A 1.000000e-03
10 pgm_ln15:1 vs_38_15:A 1.000000e-03
11 pgm_ln15:1 vs_37_15:A 1.000000e-03
12 pgm_ln15:1 vs_36_15:A 1.000000e-03
13 pgm_ln15:1 vs_35_15:A 1.000000e-03
14 pgm_ln15:1 vs_34_15:A 1.000000e-03
15 pgm_ln15:1 vs_32_15:A 1.000000e-03
16 pgm_ln15:1 vs_29_15:A 1.000000e-03
17 pgm_ln15:1 vs_25_15:A 1.000000e-03
18 pgm_ln15:1 vs_24_15:A 1.000000e-03
19 pgm_ln15:1 vs_23_15:A 1.000000e-03
20 pgm_ln15:1 vs_22_15:A 1.000000e-03
21 pgm_ln15:1 vs_20_15:A 1.000000e-03
22 pgm_ln15:1 vs_18_15:A 1.000000e-03
23 pgm_ln15:1 vs_15_15:A 1.000000e-03
24 pgm_ln15:1 vs_12_15:A 1.000000e-03
25 pgm_ln15:1 vs_10_15:A 1.000000e-03
26 pgm_ln15:1 vs_6_15:A 1.000000e-03
27 pgm_ln15:1 vs_4_15:A 1.000000e-03
28 pgm_ln15:1 vs_2_15:A 1.000000e-03
29 pgm_ln15:1 vs_1_15:A 1.000000e-03
*END

*D_NET pgm_ln16 1.105078e-01
*CONN
*I lt_ln16:Z O
*I vs_61_16:A I
*I vs_58_16:A I
*I vs_56_16:A I
*I vs_55_16:A I
*I vs_53_16:A I
*I vs_50_16:A I
*I vs_49_16:A I
*I vs_46_16:A I
*I vs_45_16:A I
*I vs_43_16:A I
*I vs_41_16:A I
*I vs_40_16:A I
*I vs_36_16:A I
*I vs_35_16:A I
*I vs_32_16:A I
*I vs_29_16:A I
*I vs_26_16:A I
*I vs_25_16:A I
*I vs_20_16:A I
*I vs_19_16:A I
*I vs_13_16:A I
*I vs_11_16:A I
*I vs_10_16:A I
*I vs_7_16:A I
*I vs_6_16:A I
*I vs_5_16:A I
*I vs_1_16:A I
*CAP
1 pgm_ln16:1 1.105078e-01
*RES
1 lt_ln16:Z pgm_ln16:1 1.229894e+02
2 pgm_ln16:1 vs_61_16:A 1.000000e-03
3 pgm_ln16:1 vs_58_16:A 1.000000e-03
4 pgm_ln16:1 vs_56_16:A 1.000000e-03
5 pgm_ln16:1 vs_55_16:A 1.000000e-03
6 pgm_ln16:1 vs_53_16:A 1.000000e-03
7 pgm_ln16:1 vs_50_16:A 1.000000e-03
8 pgm_ln16:1 vs_49_16:A 1.000000e-03
9 pgm_ln16:1 vs_46_16:A 1.000000e-03
10 pgm_ln16:1 vs_45_16:A 1.000000e-03
11 pgm_ln16:1 vs_43_16:A 1.000000e-03
12 pgm_ln16:1 vs_41_16:A 1.000000e-03
13 pgm_ln16:1 vs_40_16:A 1.000000e-03
14 pgm_ln16:1 vs_36_16:A 1.000000e-03
15 pgm_ln16:1 vs_35_16:A 1.000000e-03
16 pgm_ln16:1 vs_32_16:A 1.000000e-03
17 pgm_ln16:1 vs_29_16:A 1.000000e-03
18 pgm_ln16:1 vs_26_16:A 1.000000e-03
19 pgm_ln16:1 vs_25_16:A 1.000000e-03
20 pgm_ln16:1 vs_20_16:A 1.000000e-03
21 pgm_ln16:1 vs_19_16:A 1.000000e-03
22 pgm_ln16:1 vs_13_16:A 1.000000e-03
23 pgm_ln16:1 vs_11_16:A 1.000000e-03
24 pgm_ln16:1 vs_10_16:A 1.000000e-03
25 pgm_ln16:1 vs_7_16:A 1.000000e-03
26 pgm_ln16:1 vs_6_16:A 1.000000e-03
27 pgm_ln16:1 vs_5_16:A 1.000000e-03
28 pgm_ln16:1 vs_1_16:A 1.000000e-03
*END

*D_NET pgm_ln17 1.087182e-01
*CONN
*I lt_ln17:Z O
*I vs_63_17:A I
*I vs_62_17:A I
*I vs_60_17:A I
*I vs_53_17:A I
*I vs_51_17:A I
*I vs_50_17:A I
*I vs_48_17:A I
*I vs_42_17:A I
*I vs_41_17:A I
*I vs_40_17:A I
*I vs_39_17:A I
*I vs_38_17:A I
*I vs_36_17:A I
*I vs_33_17:A I
*I vs_29_17:A I
*I vs_28_17:A I
*I vs_27_17:A I
*I vs_26_17:A I
*I vs_24_17:A I
*I vs_19_17:A I
*I vs_18_17:A I
*I vs_8_17:A I
*I vs_5_17:A I
*I vs_3_17:A I
*I vs_2_17:A I
*CAP
1 pgm_ln17:1 1.087182e-01
*RES
1 lt_ln17:Z pgm_ln17:1 1.224191e+02
2 pgm_ln17:1 vs_63_17:A 1.000000e-03
3 pgm_ln17:1 vs_62_17:A 1.000000e-03
4 pgm_ln17:1 vs_60_17:A 1.000000e-03
5 pgm_ln17:1 vs_53_17:A 1.000000e-03
6 pgm_ln17:1 vs_51_17:A 1.000000e-03
7 pgm_ln17:1 vs_50_17:A 1.000000e-03
8 pgm_ln17:1 vs_48_17:A 1.000000e-03
9 pgm_ln17:1 vs_42_17:A 1.000000e-03
10 pgm_ln17:1 vs_41_17:A 1.000000e-03
11 pgm_ln17:1 vs_40_17:A 1.000000e-03
12 pgm_ln17:1 vs_39_17:A 1.000000e-03
13 pgm_ln17:1 vs_38_17:A 1.000000e-03
14 pgm_ln17:1 vs_36_17:A 1.000000e-03
15 pgm_ln17:1 vs_33_17:A 1.000000e-03
16 pgm_ln17:1 vs_29_17:A 1.000000e-03
17 pgm_ln17:1 vs_28_17:A 1.000000e-03
18 pgm_ln17:1 vs_27_17:A 1.000000e-03
19 pgm_ln17:1 vs_26_17:A 1.000000e-03
20 pgm_ln17:1 vs_24_17:A 1.000000e-03
21 pgm_ln17:1 vs_19_17:A 1.000000e-03
22 pgm_ln17:1 vs_18_17:A 1.000000e-03
23 pgm_ln17:1 vs_8_17:A 1.000000e-03
24 pgm_ln17:1 vs_5_17:A 1.000000e-03
25 pgm_ln17:1 vs_3_17:A 1.000000e-03
26 pgm_ln17:1 vs_2_17:A 1.000000e-03
*END

*D_NET pgm_ln18 1.030971e-01
*CONN
*I lt_ln18:Z O
*I vs_63_18:A I
*I vs_61_18:A I
*I vs_59_18:A I
*I vs_45_18:A I
*I vs_43_18:A I
*I vs_37_18:A I
*I vs_35_18:A I
*I vs_32_18:A I
*I vs_31_18:A I
*I vs_29_18:A I
*I vs_25_18:A I
*I vs_24_18:A I
*I vs_23_18:A I
*I vs_19_18:A I
*I vs_18_18:A I
*I vs_16_18:A I
*I vs_15_18:A I
*I vs_12_18:A I
*I vs_9_18:A I
*I vs_8_18:A I
*I vs_3_18:A I
*I vs_2_18:A I
*CAP
1 pgm_ln18:1 1.030971e-01
*RES
1 lt_ln18:Z pgm_ln18:1 1.169927e+02
2 pgm_ln18:1 vs_63_18:A 1.000000e-03
3 pgm_ln18:1 vs_61_18:A 1.000000e-03
4 pgm_ln18:1 vs_59_18:A 1.000000e-03
5 pgm_ln18:1 vs_45_18:A 1.000000e-03
6 pgm_ln18:1 vs_43_18:A 1.000000e-03
7 pgm_ln18:1 vs_37_18:A 1.000000e-03
8 pgm_ln18:1 vs_35_18:A 1.000000e-03
9 pgm_ln18:1 vs_32_18:A 1.000000e-03
10 pgm_ln18:1 vs_31_18:A 1.000000e-03
11 pgm_ln18:1 vs_29_18:A 1.000000e-03
12 pgm_ln18:1 vs_25_18:A 1.000000e-03
13 pgm_ln18:1 vs_24_18:A 1.000000e-03
14 pgm_ln18:1 vs_23_18:A 1.000000e-03
15 pgm_ln18:1 vs_19_18:A 1.000000e-03
16 pgm_ln18:1 vs_18_18:A 1.000000e-03
17 pgm_ln18:1 vs_16_18:A 1.000000e-03
18 pgm_ln18:1 vs_15_18:A 1.000000e-03
19 pgm_ln18:1 vs_12_18:A 1.000000e-03
20 pgm_ln18:1 vs_9_18:A 1.000000e-03
21 pgm_ln18:1 vs_8_18:A 1.000000e-03
22 pgm_ln18:1 vs_3_18:A 1.000000e-03
23 pgm_ln18:1 vs_2_18:A 1.000000e-03
*END

*D_NET pgm_ln19 1.115032e-01
*CONN
*I lt_ln19:Z O
*I vs_62_19:A I
*I vs_61_19:A I
*I vs_55_19:A I
*I vs_52_19:A I
*I vs_51_19:A I
*I vs_48_19:A I
*I vs_46_19:A I
*I vs_45_19:A I
*I vs_44_19:A I
*I vs_43_19:A I
*I vs_42_19:A I
*I vs_41_19:A I
*I vs_40_19:A I
*I vs_39_19:A I
*I vs_37_19:A I
*I vs_34_19:A I
*I vs_33_19:A I
*I vs_32_19:A I
*I vs_28_19:A I
*I vs_27_19:A I
*I vs_26_19:A I
*I vs_19_19:A I
*I vs_18_19:A I
*I vs_16_19:A I
*I vs_10_19:A I
*I vs_8_19:A I
*I vs_6_19:A I
*I vs_3_19:A I
*I vs_2_19:A I
*CAP
1 pgm_ln19:1 1.115032e-01
*RES
1 lt_ln19:Z pgm_ln19:1 1.231630e+02
2 pgm_ln19:1 vs_62_19:A 1.000000e-03
3 pgm_ln19:1 vs_61_19:A 1.000000e-03
4 pgm_ln19:1 vs_55_19:A 1.000000e-03
5 pgm_ln19:1 vs_52_19:A 1.000000e-03
6 pgm_ln19:1 vs_51_19:A 1.000000e-03
7 pgm_ln19:1 vs_48_19:A 1.000000e-03
8 pgm_ln19:1 vs_46_19:A 1.000000e-03
9 pgm_ln19:1 vs_45_19:A 1.000000e-03
10 pgm_ln19:1 vs_44_19:A 1.000000e-03
11 pgm_ln19:1 vs_43_19:A 1.000000e-03
12 pgm_ln19:1 vs_42_19:A 1.000000e-03
13 pgm_ln19:1 vs_41_19:A 1.000000e-03
14 pgm_ln19:1 vs_40_19:A 1.000000e-03
15 pgm_ln19:1 vs_39_19:A 1.000000e-03
16 pgm_ln19:1 vs_37_19:A 1.000000e-03
17 pgm_ln19:1 vs_34_19:A 1.000000e-03
18 pgm_ln19:1 vs_33_19:A 1.000000e-03
19 pgm_ln19:1 vs_32_19:A 1.000000e-03
20 pgm_ln19:1 vs_28_19:A 1.000000e-03
21 pgm_ln19:1 vs_27_19:A 1.000000e-03
22 pgm_ln19:1 vs_26_19:A 1.000000e-03
23 pgm_ln19:1 vs_19_19:A 1.000000e-03
24 pgm_ln19:1 vs_18_19:A 1.000000e-03
25 pgm_ln19:1 vs_16_19:A 1.000000e-03
26 pgm_ln19:1 vs_10_19:A 1.000000e-03
27 pgm_ln19:1 vs_8_19:A 1.000000e-03
28 pgm_ln19:1 vs_6_19:A 1.000000e-03
29 pgm_ln19:1 vs_3_19:A 1.000000e-03
30 pgm_ln19:1 vs_2_19:A 1.000000e-03
*END

*D_NET pgm_ln2 1.175550e-01
*CONN
*I lt_ln2:Z O
*I vs_63_2:A I
*I vs_60_2:A I
*I vs_55_2:A I
*I vs_54_2:A I
*I vs_49_2:A I
*I vs_43_2:A I
*I vs_39_2:A I
*I vs_37_2:A I
*I vs_36_2:A I
*I vs_33_2:A I
*I vs_32_2:A I
*I vs_31_2:A I
*I vs_24_2:A I
*I vs_23_2:A I
*I vs_22_2:A I
*I vs_21_2:A I
*I vs_20_2:A I
*I vs_18_2:A I
*I vs_13_2:A I
*I vs_12_2:A I
*I vs_11_2:A I
*I vs_9_2:A I
*I vs_8_2:A I
*I vs_5_2:A I
*I vs_3_2:A I
*I vs_2_2:A I
*I vs_1_2:A I
*I vs_0_2:A I
*CAP
1 pgm_ln2:1 1.175550e-01
*RES
1 lt_ln2:Z pgm_ln2:1 1.316947e+02
2 pgm_ln2:1 vs_63_2:A 1.000000e-03
3 pgm_ln2:1 vs_60_2:A 1.000000e-03
4 pgm_ln2:1 vs_55_2:A 1.000000e-03
5 pgm_ln2:1 vs_54_2:A 1.000000e-03
6 pgm_ln2:1 vs_49_2:A 1.000000e-03
7 pgm_ln2:1 vs_43_2:A 1.000000e-03
8 pgm_ln2:1 vs_39_2:A 1.000000e-03
9 pgm_ln2:1 vs_37_2:A 1.000000e-03
10 pgm_ln2:1 vs_36_2:A 1.000000e-03
11 pgm_ln2:1 vs_33_2:A 1.000000e-03
12 pgm_ln2:1 vs_32_2:A 1.000000e-03
13 pgm_ln2:1 vs_31_2:A 1.000000e-03
14 pgm_ln2:1 vs_24_2:A 1.000000e-03
15 pgm_ln2:1 vs_23_2:A 1.000000e-03
16 pgm_ln2:1 vs_22_2:A 1.000000e-03
17 pgm_ln2:1 vs_21_2:A 1.000000e-03
18 pgm_ln2:1 vs_20_2:A 1.000000e-03
19 pgm_ln2:1 vs_18_2:A 1.000000e-03
20 pgm_ln2:1 vs_13_2:A 1.000000e-03
21 pgm_ln2:1 vs_12_2:A 1.000000e-03
22 pgm_ln2:1 vs_11_2:A 1.000000e-03
23 pgm_ln2:1 vs_9_2:A 1.000000e-03
24 pgm_ln2:1 vs_8_2:A 1.000000e-03
25 pgm_ln2:1 vs_5_2:A 1.000000e-03
26 pgm_ln2:1 vs_3_2:A 1.000000e-03
27 pgm_ln2:1 vs_2_2:A 1.000000e-03
28 pgm_ln2:1 vs_1_2:A 1.000000e-03
29 pgm_ln2:1 vs_0_2:A 1.000000e-03
*END

*D_NET pgm_ln20 1.005681e-01
*CONN
*I lt_ln20:Z O
*I vs_56_20:A I
*I vs_53_20:A I
*I vs_52_20:A I
*I vs_50_20:A I
*I vs_48_20:A I
*I vs_46_20:A I
*I vs_45_20:A I
*I vs_43_20:A I
*I vs_40_20:A I
*I vs_39_20:A I
*I vs_38_20:A I
*I vs_36_20:A I
*I vs_31_20:A I
*I vs_28_20:A I
*I vs_23_20:A I
*I vs_21_20:A I
*I vs_19_20:A I
*I vs_18_20:A I
*I vs_14_20:A I
*I vs_12_20:A I
*I vs_10_20:A I
*I vs_8_20:A I
*I vs_7_20:A I
*I vs_4_20:A I
*I vs_1_20:A I
*CAP
1 pgm_ln20:1 1.005681e-01
*RES
1 lt_ln20:Z pgm_ln20:1 1.125623e+02
2 pgm_ln20:1 vs_56_20:A 1.000000e-03
3 pgm_ln20:1 vs_53_20:A 1.000000e-03
4 pgm_ln20:1 vs_52_20:A 1.000000e-03
5 pgm_ln20:1 vs_50_20:A 1.000000e-03
6 pgm_ln20:1 vs_48_20:A 1.000000e-03
7 pgm_ln20:1 vs_46_20:A 1.000000e-03
8 pgm_ln20:1 vs_45_20:A 1.000000e-03
9 pgm_ln20:1 vs_43_20:A 1.000000e-03
10 pgm_ln20:1 vs_40_20:A 1.000000e-03
11 pgm_ln20:1 vs_39_20:A 1.000000e-03
12 pgm_ln20:1 vs_38_20:A 1.000000e-03
13 pgm_ln20:1 vs_36_20:A 1.000000e-03
14 pgm_ln20:1 vs_31_20:A 1.000000e-03
15 pgm_ln20:1 vs_28_20:A 1.000000e-03
16 pgm_ln20:1 vs_23_20:A 1.000000e-03
17 pgm_ln20:1 vs_21_20:A 1.000000e-03
18 pgm_ln20:1 vs_19_20:A 1.000000e-03
19 pgm_ln20:1 vs_18_20:A 1.000000e-03
20 pgm_ln20:1 vs_14_20:A 1.000000e-03
21 pgm_ln20:1 vs_12_20:A 1.000000e-03
22 pgm_ln20:1 vs_10_20:A 1.000000e-03
23 pgm_ln20:1 vs_8_20:A 1.000000e-03
24 pgm_ln20:1 vs_7_20:A 1.000000e-03
25 pgm_ln20:1 vs_4_20:A 1.000000e-03
26 pgm_ln20:1 vs_1_20:A 1.000000e-03
*END

*D_NET pgm_ln21 1.073859e-01
*CONN
*I lt_ln21:Z O
*I vs_60_21:A I
*I vs_57_21:A I
*I vs_53_21:A I
*I vs_51_21:A I
*I vs_49_21:A I
*I vs_45_21:A I
*I vs_43_21:A I
*I vs_40_21:A I
*I vs_39_21:A I
*I vs_38_21:A I
*I vs_35_21:A I
*I vs_31_21:A I
*I vs_28_21:A I
*I vs_26_21:A I
*I vs_24_21:A I
*I vs_22_21:A I
*I vs_21_21:A I
*I vs_18_21:A I
*I vs_17_21:A I
*I vs_10_21:A I
*I vs_9_21:A I
*I vs_8_21:A I
*I vs_6_21:A I
*I vs_4_21:A I
*I vs_2_21:A I
*CAP
1 pgm_ln21:1 1.073859e-01
*RES
1 lt_ln21:Z pgm_ln21:1 1.205869e+02
2 pgm_ln21:1 vs_60_21:A 1.000000e-03
3 pgm_ln21:1 vs_57_21:A 1.000000e-03
4 pgm_ln21:1 vs_53_21:A 1.000000e-03
5 pgm_ln21:1 vs_51_21:A 1.000000e-03
6 pgm_ln21:1 vs_49_21:A 1.000000e-03
7 pgm_ln21:1 vs_45_21:A 1.000000e-03
8 pgm_ln21:1 vs_43_21:A 1.000000e-03
9 pgm_ln21:1 vs_40_21:A 1.000000e-03
10 pgm_ln21:1 vs_39_21:A 1.000000e-03
11 pgm_ln21:1 vs_38_21:A 1.000000e-03
12 pgm_ln21:1 vs_35_21:A 1.000000e-03
13 pgm_ln21:1 vs_31_21:A 1.000000e-03
14 pgm_ln21:1 vs_28_21:A 1.000000e-03
15 pgm_ln21:1 vs_26_21:A 1.000000e-03
16 pgm_ln21:1 vs_24_21:A 1.000000e-03
17 pgm_ln21:1 vs_22_21:A 1.000000e-03
18 pgm_ln21:1 vs_21_21:A 1.000000e-03
19 pgm_ln21:1 vs_18_21:A 1.000000e-03
20 pgm_ln21:1 vs_17_21:A 1.000000e-03
21 pgm_ln21:1 vs_10_21:A 1.000000e-03
22 pgm_ln21:1 vs_9_21:A 1.000000e-03
23 pgm_ln21:1 vs_8_21:A 1.000000e-03
24 pgm_ln21:1 vs_6_21:A 1.000000e-03
25 pgm_ln21:1 vs_4_21:A 1.000000e-03
26 pgm_ln21:1 vs_2_21:A 1.000000e-03
*END

*D_NET pgm_ln22 1.163797e-01
*CONN
*I lt_ln22:Z O
*I vs_62_22:A I
*I vs_59_22:A I
*I vs_58_22:A I
*I vs_56_22:A I
*I vs_53_22:A I
*I vs_51_22:A I
*I vs_48_22:A I
*I vs_41_22:A I
*I vs_40_22:A I
*I vs_39_22:A I
*I vs_37_22:A I
*I vs_36_22:A I
*I vs_35_22:A I
*I vs_34_22:A I
*I vs_32_22:A I
*I vs_31_22:A I
*I vs_30_22:A I
*I vs_29_22:A I
*I vs_26_22:A I
*I vs_22_22:A I
*I vs_18_22:A I
*I vs_17_22:A I
*I vs_15_22:A I
*I vs_14_22:A I
*I vs_13_22:A I
*I vs_12_22:A I
*I vs_11_22:A I
*I vs_7_22:A I
*I vs_6_22:A I
*I vs_3_22:A I
*I vs_2_22:A I
*I vs_0_22:A I
*CAP
1 pgm_ln22:1 1.163797e-01
*RES
1 lt_ln22:Z pgm_ln22:1 1.306491e+02
2 pgm_ln22:1 vs_62_22:A 1.000000e-03
3 pgm_ln22:1 vs_59_22:A 1.000000e-03
4 pgm_ln22:1 vs_58_22:A 1.000000e-03
5 pgm_ln22:1 vs_56_22:A 1.000000e-03
6 pgm_ln22:1 vs_53_22:A 1.000000e-03
7 pgm_ln22:1 vs_51_22:A 1.000000e-03
8 pgm_ln22:1 vs_48_22:A 1.000000e-03
9 pgm_ln22:1 vs_41_22:A 1.000000e-03
10 pgm_ln22:1 vs_40_22:A 1.000000e-03
11 pgm_ln22:1 vs_39_22:A 1.000000e-03
12 pgm_ln22:1 vs_37_22:A 1.000000e-03
13 pgm_ln22:1 vs_36_22:A 1.000000e-03
14 pgm_ln22:1 vs_35_22:A 1.000000e-03
15 pgm_ln22:1 vs_34_22:A 1.000000e-03
16 pgm_ln22:1 vs_32_22:A 1.000000e-03
17 pgm_ln22:1 vs_31_22:A 1.000000e-03
18 pgm_ln22:1 vs_30_22:A 1.000000e-03
19 pgm_ln22:1 vs_29_22:A 1.000000e-03
20 pgm_ln22:1 vs_26_22:A 1.000000e-03
21 pgm_ln22:1 vs_22_22:A 1.000000e-03
22 pgm_ln22:1 vs_18_22:A 1.000000e-03
23 pgm_ln22:1 vs_17_22:A 1.000000e-03
24 pgm_ln22:1 vs_15_22:A 1.000000e-03
25 pgm_ln22:1 vs_14_22:A 1.000000e-03
26 pgm_ln22:1 vs_13_22:A 1.000000e-03
27 pgm_ln22:1 vs_12_22:A 1.000000e-03
28 pgm_ln22:1 vs_11_22:A 1.000000e-03
29 pgm_ln22:1 vs_7_22:A 1.000000e-03
30 pgm_ln22:1 vs_6_22:A 1.000000e-03
31 pgm_ln22:1 vs_3_22:A 1.000000e-03
32 pgm_ln22:1 vs_2_22:A 1.000000e-03
33 pgm_ln22:1 vs_0_22:A 1.000000e-03
*END

*D_NET pgm_ln23 1.206387e-01
*CONN
*I lt_ln23:Z O
*I vs_63_23:A I
*I vs_62_23:A I
*I vs_59_23:A I
*I vs_57_23:A I
*I vs_56_23:A I
*I vs_55_23:A I
*I vs_53_23:A I
*I vs_52_23:A I
*I vs_48_23:A I
*I vs_46_23:A I
*I vs_45_23:A I
*I vs_43_23:A I
*I vs_40_23:A I
*I vs_39_23:A I
*I vs_38_23:A I
*I vs_37_23:A I
*I vs_36_23:A I
*I vs_33_23:A I
*I vs_32_23:A I
*I vs_30_23:A I
*I vs_26_23:A I
*I vs_25_23:A I
*I vs_22_23:A I
*I vs_20_23:A I
*I vs_19_23:A I
*I vs_8_23:A I
*I vs_6_23:A I
*I vs_5_23:A I
*I vs_4_23:A I
*I vs_3_23:A I
*I vs_1_23:A I
*I vs_0_23:A I
*CAP
1 pgm_ln23:1 1.206387e-01
*RES
1 lt_ln23:Z pgm_ln23:1 1.360464e+02
2 pgm_ln23:1 vs_63_23:A 1.000000e-03
3 pgm_ln23:1 vs_62_23:A 1.000000e-03
4 pgm_ln23:1 vs_59_23:A 1.000000e-03
5 pgm_ln23:1 vs_57_23:A 1.000000e-03
6 pgm_ln23:1 vs_56_23:A 1.000000e-03
7 pgm_ln23:1 vs_55_23:A 1.000000e-03
8 pgm_ln23:1 vs_53_23:A 1.000000e-03
9 pgm_ln23:1 vs_52_23:A 1.000000e-03
10 pgm_ln23:1 vs_48_23:A 1.000000e-03
11 pgm_ln23:1 vs_46_23:A 1.000000e-03
12 pgm_ln23:1 vs_45_23:A 1.000000e-03
13 pgm_ln23:1 vs_43_23:A 1.000000e-03
14 pgm_ln23:1 vs_40_23:A 1.000000e-03
15 pgm_ln23:1 vs_39_23:A 1.000000e-03
16 pgm_ln23:1 vs_38_23:A 1.000000e-03
17 pgm_ln23:1 vs_37_23:A 1.000000e-03
18 pgm_ln23:1 vs_36_23:A 1.000000e-03
19 pgm_ln23:1 vs_33_23:A 1.000000e-03
20 pgm_ln23:1 vs_32_23:A 1.000000e-03
21 pgm_ln23:1 vs_30_23:A 1.000000e-03
22 pgm_ln23:1 vs_26_23:A 1.000000e-03
23 pgm_ln23:1 vs_25_23:A 1.000000e-03
24 pgm_ln23:1 vs_22_23:A 1.000000e-03
25 pgm_ln23:1 vs_20_23:A 1.000000e-03
26 pgm_ln23:1 vs_19_23:A 1.000000e-03
27 pgm_ln23:1 vs_8_23:A 1.000000e-03
28 pgm_ln23:1 vs_6_23:A 1.000000e-03
29 pgm_ln23:1 vs_5_23:A 1.000000e-03
30 pgm_ln23:1 vs_4_23:A 1.000000e-03
31 pgm_ln23:1 vs_3_23:A 1.000000e-03
32 pgm_ln23:1 vs_1_23:A 1.000000e-03
33 pgm_ln23:1 vs_0_23:A 1.000000e-03
*END

*D_NET pgm_ln24 1.140984e-01
*CONN
*I lt_ln24:Z O
*I vs_63_24:A I
*I vs_60_24:A I
*I vs_56_24:A I
*I vs_55_24:A I
*I vs_46_24:A I
*I vs_45_24:A I
*I vs_43_24:A I
*I vs_42_24:A I
*I vs_39_24:A I
*I vs_37_24:A I
*I vs_31_24:A I
*I vs_29_24:A I
*I vs_22_24:A I
*I vs_21_24:A I
*I vs_20_24:A I
*I vs_19_24:A I
*I vs_17_24:A I
*I vs_16_24:A I
*I vs_13_24:A I
*I vs_10_24:A I
*I vs_6_24:A I
*I vs_5_24:A I
*I vs_2_24:A I
*I vs_1_24:A I
*I vs_0_24:A I
*CAP
1 pgm_ln24:1 1.140984e-01
*RES
1 lt_ln24:Z pgm_ln24:1 1.266874e+02
2 pgm_ln24:1 vs_63_24:A 1.000000e-03
3 pgm_ln24:1 vs_60_24:A 1.000000e-03
4 pgm_ln24:1 vs_56_24:A 1.000000e-03
5 pgm_ln24:1 vs_55_24:A 1.000000e-03
6 pgm_ln24:1 vs_46_24:A 1.000000e-03
7 pgm_ln24:1 vs_45_24:A 1.000000e-03
8 pgm_ln24:1 vs_43_24:A 1.000000e-03
9 pgm_ln24:1 vs_42_24:A 1.000000e-03
10 pgm_ln24:1 vs_39_24:A 1.000000e-03
11 pgm_ln24:1 vs_37_24:A 1.000000e-03
12 pgm_ln24:1 vs_31_24:A 1.000000e-03
13 pgm_ln24:1 vs_29_24:A 1.000000e-03
14 pgm_ln24:1 vs_22_24:A 1.000000e-03
15 pgm_ln24:1 vs_21_24:A 1.000000e-03
16 pgm_ln24:1 vs_20_24:A 1.000000e-03
17 pgm_ln24:1 vs_19_24:A 1.000000e-03
18 pgm_ln24:1 vs_17_24:A 1.000000e-03
19 pgm_ln24:1 vs_16_24:A 1.000000e-03
20 pgm_ln24:1 vs_13_24:A 1.000000e-03
21 pgm_ln24:1 vs_10_24:A 1.000000e-03
22 pgm_ln24:1 vs_6_24:A 1.000000e-03
23 pgm_ln24:1 vs_5_24:A 1.000000e-03
24 pgm_ln24:1 vs_2_24:A 1.000000e-03
25 pgm_ln24:1 vs_1_24:A 1.000000e-03
26 pgm_ln24:1 vs_0_24:A 1.000000e-03
*END

*D_NET pgm_ln25 1.159768e-01
*CONN
*I lt_ln25:Z O
*I vs_63_25:A I
*I vs_62_25:A I
*I vs_61_25:A I
*I vs_59_25:A I
*I vs_58_25:A I
*I vs_54_25:A I
*I vs_49_25:A I
*I vs_48_25:A I
*I vs_45_25:A I
*I vs_43_25:A I
*I vs_42_25:A I
*I vs_40_25:A I
*I vs_39_25:A I
*I vs_35_25:A I
*I vs_33_25:A I
*I vs_30_25:A I
*I vs_28_25:A I
*I vs_27_25:A I
*I vs_25_25:A I
*I vs_21_25:A I
*I vs_20_25:A I
*I vs_18_25:A I
*I vs_16_25:A I
*I vs_14_25:A I
*I vs_10_25:A I
*I vs_7_25:A I
*I vs_5_25:A I
*I vs_1_25:A I
*CAP
1 pgm_ln25:1 1.159768e-01
*RES
1 lt_ln25:Z pgm_ln25:1 1.301918e+02
2 pgm_ln25:1 vs_63_25:A 1.000000e-03
3 pgm_ln25:1 vs_62_25:A 1.000000e-03
4 pgm_ln25:1 vs_61_25:A 1.000000e-03
5 pgm_ln25:1 vs_59_25:A 1.000000e-03
6 pgm_ln25:1 vs_58_25:A 1.000000e-03
7 pgm_ln25:1 vs_54_25:A 1.000000e-03
8 pgm_ln25:1 vs_49_25:A 1.000000e-03
9 pgm_ln25:1 vs_48_25:A 1.000000e-03
10 pgm_ln25:1 vs_45_25:A 1.000000e-03
11 pgm_ln25:1 vs_43_25:A 1.000000e-03
12 pgm_ln25:1 vs_42_25:A 1.000000e-03
13 pgm_ln25:1 vs_40_25:A 1.000000e-03
14 pgm_ln25:1 vs_39_25:A 1.000000e-03
15 pgm_ln25:1 vs_35_25:A 1.000000e-03
16 pgm_ln25:1 vs_33_25:A 1.000000e-03
17 pgm_ln25:1 vs_30_25:A 1.000000e-03
18 pgm_ln25:1 vs_28_25:A 1.000000e-03
19 pgm_ln25:1 vs_27_25:A 1.000000e-03
20 pgm_ln25:1 vs_25_25:A 1.000000e-03
21 pgm_ln25:1 vs_21_25:A 1.000000e-03
22 pgm_ln25:1 vs_20_25:A 1.000000e-03
23 pgm_ln25:1 vs_18_25:A 1.000000e-03
24 pgm_ln25:1 vs_16_25:A 1.000000e-03
25 pgm_ln25:1 vs_14_25:A 1.000000e-03
26 pgm_ln25:1 vs_10_25:A 1.000000e-03
27 pgm_ln25:1 vs_7_25:A 1.000000e-03
28 pgm_ln25:1 vs_5_25:A 1.000000e-03
29 pgm_ln25:1 vs_1_25:A 1.000000e-03
*END

*D_NET pgm_ln26 1.083072e-01
*CONN
*I lt_ln26:Z O
*I vs_63_26:A I
*I vs_58_26:A I
*I vs_57_26:A I
*I vs_52_26:A I
*I vs_50_26:A I
*I vs_49_26:A I
*I vs_46_26:A I
*I vs_45_26:A I
*I vs_42_26:A I
*I vs_38_26:A I
*I vs_36_26:A I
*I vs_33_26:A I
*I vs_32_26:A I
*I vs_31_26:A I
*I vs_30_26:A I
*I vs_29_26:A I
*I vs_27_26:A I
*I vs_24_26:A I
*I vs_23_26:A I
*I vs_22_26:A I
*I vs_19_26:A I
*I vs_17_26:A I
*I vs_13_26:A I
*I vs_11_26:A I
*I vs_10_26:A I
*I vs_7_26:A I
*I vs_4_26:A I
*CAP
1 pgm_ln26:1 1.083072e-01
*RES
1 lt_ln26:Z pgm_ln26:1 1.216325e+02
2 pgm_ln26:1 vs_63_26:A 1.000000e-03
3 pgm_ln26:1 vs_58_26:A 1.000000e-03
4 pgm_ln26:1 vs_57_26:A 1.000000e-03
5 pgm_ln26:1 vs_52_26:A 1.000000e-03
6 pgm_ln26:1 vs_50_26:A 1.000000e-03
7 pgm_ln26:1 vs_49_26:A 1.000000e-03
8 pgm_ln26:1 vs_46_26:A 1.000000e-03
9 pgm_ln26:1 vs_45_26:A 1.000000e-03
10 pgm_ln26:1 vs_42_26:A 1.000000e-03
11 pgm_ln26:1 vs_38_26:A 1.000000e-03
12 pgm_ln26:1 vs_36_26:A 1.000000e-03
13 pgm_ln26:1 vs_33_26:A 1.000000e-03
14 pgm_ln26:1 vs_32_26:A 1.000000e-03
15 pgm_ln26:1 vs_31_26:A 1.000000e-03
16 pgm_ln26:1 vs_30_26:A 1.000000e-03
17 pgm_ln26:1 vs_29_26:A 1.000000e-03
18 pgm_ln26:1 vs_27_26:A 1.000000e-03
19 pgm_ln26:1 vs_24_26:A 1.000000e-03
20 pgm_ln26:1 vs_23_26:A 1.000000e-03
21 pgm_ln26:1 vs_22_26:A 1.000000e-03
22 pgm_ln26:1 vs_19_26:A 1.000000e-03
23 pgm_ln26:1 vs_17_26:A 1.000000e-03
24 pgm_ln26:1 vs_13_26:A 1.000000e-03
25 pgm_ln26:1 vs_11_26:A 1.000000e-03
26 pgm_ln26:1 vs_10_26:A 1.000000e-03
27 pgm_ln26:1 vs_7_26:A 1.000000e-03
28 pgm_ln26:1 vs_4_26:A 1.000000e-03
*END

*D_NET pgm_ln27 1.190350e-01
*CONN
*I lt_ln27:Z O
*I vs_63_27:A I
*I vs_62_27:A I
*I vs_61_27:A I
*I vs_58_27:A I
*I vs_56_27:A I
*I vs_55_27:A I
*I vs_48_27:A I
*I vs_47_27:A I
*I vs_46_27:A I
*I vs_42_27:A I
*I vs_40_27:A I
*I vs_38_27:A I
*I vs_37_27:A I
*I vs_32_27:A I
*I vs_31_27:A I
*I vs_29_27:A I
*I vs_28_27:A I
*I vs_25_27:A I
*I vs_24_27:A I
*I vs_22_27:A I
*I vs_20_27:A I
*I vs_19_27:A I
*I vs_18_27:A I
*I vs_17_27:A I
*I vs_15_27:A I
*I vs_13_27:A I
*I vs_11_27:A I
*I vs_9_27:A I
*I vs_7_27:A I
*I vs_0_27:A I
*CAP
1 pgm_ln27:1 1.190350e-01
*RES
1 lt_ln27:Z pgm_ln27:1 1.295645e+02
2 pgm_ln27:1 vs_63_27:A 1.000000e-03
3 pgm_ln27:1 vs_62_27:A 1.000000e-03
4 pgm_ln27:1 vs_61_27:A 1.000000e-03
5 pgm_ln27:1 vs_58_27:A 1.000000e-03
6 pgm_ln27:1 vs_56_27:A 1.000000e-03
7 pgm_ln27:1 vs_55_27:A 1.000000e-03
8 pgm_ln27:1 vs_48_27:A 1.000000e-03
9 pgm_ln27:1 vs_47_27:A 1.000000e-03
10 pgm_ln27:1 vs_46_27:A 1.000000e-03
11 pgm_ln27:1 vs_42_27:A 1.000000e-03
12 pgm_ln27:1 vs_40_27:A 1.000000e-03
13 pgm_ln27:1 vs_38_27:A 1.000000e-03
14 pgm_ln27:1 vs_37_27:A 1.000000e-03
15 pgm_ln27:1 vs_32_27:A 1.000000e-03
16 pgm_ln27:1 vs_31_27:A 1.000000e-03
17 pgm_ln27:1 vs_29_27:A 1.000000e-03
18 pgm_ln27:1 vs_28_27:A 1.000000e-03
19 pgm_ln27:1 vs_25_27:A 1.000000e-03
20 pgm_ln27:1 vs_24_27:A 1.000000e-03
21 pgm_ln27:1 vs_22_27:A 1.000000e-03
22 pgm_ln27:1 vs_20_27:A 1.000000e-03
23 pgm_ln27:1 vs_19_27:A 1.000000e-03
24 pgm_ln27:1 vs_18_27:A 1.000000e-03
25 pgm_ln27:1 vs_17_27:A 1.000000e-03
26 pgm_ln27:1 vs_15_27:A 1.000000e-03
27 pgm_ln27:1 vs_13_27:A 1.000000e-03
28 pgm_ln27:1 vs_11_27:A 1.000000e-03
29 pgm_ln27:1 vs_9_27:A 1.000000e-03
30 pgm_ln27:1 vs_7_27:A 1.000000e-03
31 pgm_ln27:1 vs_0_27:A 1.000000e-03
*END

*D_NET pgm_ln28 1.095410e-01
*CONN
*I lt_ln28:Z O
*I vs_63_28:A I
*I vs_62_28:A I
*I vs_60_28:A I
*I vs_58_28:A I
*I vs_56_28:A I
*I vs_54_28:A I
*I vs_51_28:A I
*I vs_48_28:A I
*I vs_47_28:A I
*I vs_46_28:A I
*I vs_45_28:A I
*I vs_44_28:A I
*I vs_40_28:A I
*I vs_37_28:A I
*I vs_36_28:A I
*I vs_32_28:A I
*I vs_31_28:A I
*I vs_30_28:A I
*I vs_28_28:A I
*I vs_26_28:A I
*I vs_25_28:A I
*I vs_18_28:A I
*I vs_17_28:A I
*I vs_16_28:A I
*I vs_14_28:A I
*I vs_13_28:A I
*I vs_11_28:A I
*I vs_9_28:A I
*I vs_5_28:A I
*I vs_1_28:A I
*I vs_0_28:A I
*CAP
1 pgm_ln28:1 1.095410e-01
*RES
1 lt_ln28:Z pgm_ln28:1 1.234528e+02
2 pgm_ln28:1 vs_63_28:A 1.000000e-03
3 pgm_ln28:1 vs_62_28:A 1.000000e-03
4 pgm_ln28:1 vs_60_28:A 1.000000e-03
5 pgm_ln28:1 vs_58_28:A 1.000000e-03
6 pgm_ln28:1 vs_56_28:A 1.000000e-03
7 pgm_ln28:1 vs_54_28:A 1.000000e-03
8 pgm_ln28:1 vs_51_28:A 1.000000e-03
9 pgm_ln28:1 vs_48_28:A 1.000000e-03
10 pgm_ln28:1 vs_47_28:A 1.000000e-03
11 pgm_ln28:1 vs_46_28:A 1.000000e-03
12 pgm_ln28:1 vs_45_28:A 1.000000e-03
13 pgm_ln28:1 vs_44_28:A 1.000000e-03
14 pgm_ln28:1 vs_40_28:A 1.000000e-03
15 pgm_ln28:1 vs_37_28:A 1.000000e-03
16 pgm_ln28:1 vs_36_28:A 1.000000e-03
17 pgm_ln28:1 vs_32_28:A 1.000000e-03
18 pgm_ln28:1 vs_31_28:A 1.000000e-03
19 pgm_ln28:1 vs_30_28:A 1.000000e-03
20 pgm_ln28:1 vs_28_28:A 1.000000e-03
21 pgm_ln28:1 vs_26_28:A 1.000000e-03
22 pgm_ln28:1 vs_25_28:A 1.000000e-03
23 pgm_ln28:1 vs_18_28:A 1.000000e-03
24 pgm_ln28:1 vs_17_28:A 1.000000e-03
25 pgm_ln28:1 vs_16_28:A 1.000000e-03
26 pgm_ln28:1 vs_14_28:A 1.000000e-03
27 pgm_ln28:1 vs_13_28:A 1.000000e-03
28 pgm_ln28:1 vs_11_28:A 1.000000e-03
29 pgm_ln28:1 vs_9_28:A 1.000000e-03
30 pgm_ln28:1 vs_5_28:A 1.000000e-03
31 pgm_ln28:1 vs_1_28:A 1.000000e-03
32 pgm_ln28:1 vs_0_28:A 1.000000e-03
*END

*D_NET pgm_ln29 1.169964e-01
*CONN
*I lt_ln29:Z O
*I vs_63_29:A I
*I vs_59_29:A I
*I vs_58_29:A I
*I vs_57_29:A I
*I vs_55_29:A I
*I vs_52_29:A I
*I vs_50_29:A I
*I vs_49_29:A I
*I vs_47_29:A I
*I vs_46_29:A I
*I vs_44_29:A I
*I vs_42_29:A I
*I vs_36_29:A I
*I vs_34_29:A I
*I vs_33_29:A I
*I vs_31_29:A I
*I vs_30_29:A I
*I vs_28_29:A I
*I vs_27_29:A I
*I vs_26_29:A I
*I vs_25_29:A I
*I vs_24_29:A I
*I vs_22_29:A I
*I vs_20_29:A I
*I vs_16_29:A I
*I vs_4_29:A I
*I vs_2_29:A I
*CAP
1 pgm_ln29:1 1.169964e-01
*RES
1 lt_ln29:Z pgm_ln29:1 1.314928e+02
2 pgm_ln29:1 vs_63_29:A 1.000000e-03
3 pgm_ln29:1 vs_59_29:A 1.000000e-03
4 pgm_ln29:1 vs_58_29:A 1.000000e-03
5 pgm_ln29:1 vs_57_29:A 1.000000e-03
6 pgm_ln29:1 vs_55_29:A 1.000000e-03
7 pgm_ln29:1 vs_52_29:A 1.000000e-03
8 pgm_ln29:1 vs_50_29:A 1.000000e-03
9 pgm_ln29:1 vs_49_29:A 1.000000e-03
10 pgm_ln29:1 vs_47_29:A 1.000000e-03
11 pgm_ln29:1 vs_46_29:A 1.000000e-03
12 pgm_ln29:1 vs_44_29:A 1.000000e-03
13 pgm_ln29:1 vs_42_29:A 1.000000e-03
14 pgm_ln29:1 vs_36_29:A 1.000000e-03
15 pgm_ln29:1 vs_34_29:A 1.000000e-03
16 pgm_ln29:1 vs_33_29:A 1.000000e-03
17 pgm_ln29:1 vs_31_29:A 1.000000e-03
18 pgm_ln29:1 vs_30_29:A 1.000000e-03
19 pgm_ln29:1 vs_28_29:A 1.000000e-03
20 pgm_ln29:1 vs_27_29:A 1.000000e-03
21 pgm_ln29:1 vs_26_29:A 1.000000e-03
22 pgm_ln29:1 vs_25_29:A 1.000000e-03
23 pgm_ln29:1 vs_24_29:A 1.000000e-03
24 pgm_ln29:1 vs_22_29:A 1.000000e-03
25 pgm_ln29:1 vs_20_29:A 1.000000e-03
26 pgm_ln29:1 vs_16_29:A 1.000000e-03
27 pgm_ln29:1 vs_4_29:A 1.000000e-03
28 pgm_ln29:1 vs_2_29:A 1.000000e-03
*END

*D_NET pgm_ln3 1.157423e-01
*CONN
*I lt_ln3:Z O
*I vs_62_3:A I
*I vs_59_3:A I
*I vs_58_3:A I
*I vs_57_3:A I
*I vs_55_3:A I
*I vs_50_3:A I
*I vs_48_3:A I
*I vs_46_3:A I
*I vs_45_3:A I
*I vs_44_3:A I
*I vs_43_3:A I
*I vs_40_3:A I
*I vs_38_3:A I
*I vs_36_3:A I
*I vs_34_3:A I
*I vs_31_3:A I
*I vs_29_3:A I
*I vs_27_3:A I
*I vs_26_3:A I
*I vs_25_3:A I
*I vs_23_3:A I
*I vs_16_3:A I
*I vs_14_3:A I
*I vs_13_3:A I
*I vs_12_3:A I
*I vs_10_3:A I
*I vs_8_3:A I
*I vs_6_3:A I
*I vs_5_3:A I
*I vs_0_3:A I
*CAP
1 pgm_ln3:1 1.157423e-01
*RES
1 lt_ln3:Z pgm_ln3:1 1.297760e+02
2 pgm_ln3:1 vs_62_3:A 1.000000e-03
3 pgm_ln3:1 vs_59_3:A 1.000000e-03
4 pgm_ln3:1 vs_58_3:A 1.000000e-03
5 pgm_ln3:1 vs_57_3:A 1.000000e-03
6 pgm_ln3:1 vs_55_3:A 1.000000e-03
7 pgm_ln3:1 vs_50_3:A 1.000000e-03
8 pgm_ln3:1 vs_48_3:A 1.000000e-03
9 pgm_ln3:1 vs_46_3:A 1.000000e-03
10 pgm_ln3:1 vs_45_3:A 1.000000e-03
11 pgm_ln3:1 vs_44_3:A 1.000000e-03
12 pgm_ln3:1 vs_43_3:A 1.000000e-03
13 pgm_ln3:1 vs_40_3:A 1.000000e-03
14 pgm_ln3:1 vs_38_3:A 1.000000e-03
15 pgm_ln3:1 vs_36_3:A 1.000000e-03
16 pgm_ln3:1 vs_34_3:A 1.000000e-03
17 pgm_ln3:1 vs_31_3:A 1.000000e-03
18 pgm_ln3:1 vs_29_3:A 1.000000e-03
19 pgm_ln3:1 vs_27_3:A 1.000000e-03
20 pgm_ln3:1 vs_26_3:A 1.000000e-03
21 pgm_ln3:1 vs_25_3:A 1.000000e-03
22 pgm_ln3:1 vs_23_3:A 1.000000e-03
23 pgm_ln3:1 vs_16_3:A 1.000000e-03
24 pgm_ln3:1 vs_14_3:A 1.000000e-03
25 pgm_ln3:1 vs_13_3:A 1.000000e-03
26 pgm_ln3:1 vs_12_3:A 1.000000e-03
27 pgm_ln3:1 vs_10_3:A 1.000000e-03
28 pgm_ln3:1 vs_8_3:A 1.000000e-03
29 pgm_ln3:1 vs_6_3:A 1.000000e-03
30 pgm_ln3:1 vs_5_3:A 1.000000e-03
31 pgm_ln3:1 vs_0_3:A 1.000000e-03
*END

*D_NET pgm_ln30 1.148355e-01
*CONN
*I lt_ln30:Z O
*I vs_63_30:A I
*I vs_60_30:A I
*I vs_58_30:A I
*I vs_54_30:A I
*I vs_51_30:A I
*I vs_46_30:A I
*I vs_45_30:A I
*I vs_41_30:A I
*I vs_39_30:A I
*I vs_35_30:A I
*I vs_32_30:A I
*I vs_31_30:A I
*I vs_25_30:A I
*I vs_23_30:A I
*I vs_17_30:A I
*I vs_12_30:A I
*I vs_6_30:A I
*I vs_5_30:A I
*I vs_1_30:A I
*I vs_0_30:A I
*CAP
1 pgm_ln30:1 1.148355e-01
*RES
1 lt_ln30:Z pgm_ln30:1 1.296050e+02
2 pgm_ln30:1 vs_63_30:A 1.000000e-03
3 pgm_ln30:1 vs_60_30:A 1.000000e-03
4 pgm_ln30:1 vs_58_30:A 1.000000e-03
5 pgm_ln30:1 vs_54_30:A 1.000000e-03
6 pgm_ln30:1 vs_51_30:A 1.000000e-03
7 pgm_ln30:1 vs_46_30:A 1.000000e-03
8 pgm_ln30:1 vs_45_30:A 1.000000e-03
9 pgm_ln30:1 vs_41_30:A 1.000000e-03
10 pgm_ln30:1 vs_39_30:A 1.000000e-03
11 pgm_ln30:1 vs_35_30:A 1.000000e-03
12 pgm_ln30:1 vs_32_30:A 1.000000e-03
13 pgm_ln30:1 vs_31_30:A 1.000000e-03
14 pgm_ln30:1 vs_25_30:A 1.000000e-03
15 pgm_ln30:1 vs_23_30:A 1.000000e-03
16 pgm_ln30:1 vs_17_30:A 1.000000e-03
17 pgm_ln30:1 vs_12_30:A 1.000000e-03
18 pgm_ln30:1 vs_6_30:A 1.000000e-03
19 pgm_ln30:1 vs_5_30:A 1.000000e-03
20 pgm_ln30:1 vs_1_30:A 1.000000e-03
21 pgm_ln30:1 vs_0_30:A 1.000000e-03
*END

*D_NET pgm_ln31 9.489199e-02
*CONN
*I lt_ln31:Z O
*I vs_56_31:A I
*I vs_54_31:A I
*I vs_50_31:A I
*I vs_49_31:A I
*I vs_47_31:A I
*I vs_46_31:A I
*I vs_44_31:A I
*I vs_41_31:A I
*I vs_40_31:A I
*I vs_38_31:A I
*I vs_35_31:A I
*I vs_34_31:A I
*I vs_32_31:A I
*I vs_30_31:A I
*I vs_29_31:A I
*I vs_27_31:A I
*I vs_24_31:A I
*I vs_20_31:A I
*I vs_18_31:A I
*I vs_17_31:A I
*I vs_16_31:A I
*I vs_15_31:A I
*I vs_14_31:A I
*I vs_13_31:A I
*I vs_10_31:A I
*I vs_6_31:A I
*I vs_5_31:A I
*I vs_3_31:A I
*I vs_2_31:A I
*CAP
1 pgm_ln31:1 9.489199e-02
*RES
1 lt_ln31:Z pgm_ln31:1 1.071174e+02
2 pgm_ln31:1 vs_56_31:A 1.000000e-03
3 pgm_ln31:1 vs_54_31:A 1.000000e-03
4 pgm_ln31:1 vs_50_31:A 1.000000e-03
5 pgm_ln31:1 vs_49_31:A 1.000000e-03
6 pgm_ln31:1 vs_47_31:A 1.000000e-03
7 pgm_ln31:1 vs_46_31:A 1.000000e-03
8 pgm_ln31:1 vs_44_31:A 1.000000e-03
9 pgm_ln31:1 vs_41_31:A 1.000000e-03
10 pgm_ln31:1 vs_40_31:A 1.000000e-03
11 pgm_ln31:1 vs_38_31:A 1.000000e-03
12 pgm_ln31:1 vs_35_31:A 1.000000e-03
13 pgm_ln31:1 vs_34_31:A 1.000000e-03
14 pgm_ln31:1 vs_32_31:A 1.000000e-03
15 pgm_ln31:1 vs_30_31:A 1.000000e-03
16 pgm_ln31:1 vs_29_31:A 1.000000e-03
17 pgm_ln31:1 vs_27_31:A 1.000000e-03
18 pgm_ln31:1 vs_24_31:A 1.000000e-03
19 pgm_ln31:1 vs_20_31:A 1.000000e-03
20 pgm_ln31:1 vs_18_31:A 1.000000e-03
21 pgm_ln31:1 vs_17_31:A 1.000000e-03
22 pgm_ln31:1 vs_16_31:A 1.000000e-03
23 pgm_ln31:1 vs_15_31:A 1.000000e-03
24 pgm_ln31:1 vs_14_31:A 1.000000e-03
25 pgm_ln31:1 vs_13_31:A 1.000000e-03
26 pgm_ln31:1 vs_10_31:A 1.000000e-03
27 pgm_ln31:1 vs_6_31:A 1.000000e-03
28 pgm_ln31:1 vs_5_31:A 1.000000e-03
29 pgm_ln31:1 vs_3_31:A 1.000000e-03
30 pgm_ln31:1 vs_2_31:A 1.000000e-03
*END

*D_NET pgm_ln32 1.173891e-01
*CONN
*I lt_ln32:Z O
*I vs_63_32:A I
*I vs_62_32:A I
*I vs_61_32:A I
*I vs_58_32:A I
*I vs_56_32:A I
*I vs_54_32:A I
*I vs_53_32:A I
*I vs_46_32:A I
*I vs_43_32:A I
*I vs_42_32:A I
*I vs_40_32:A I
*I vs_37_32:A I
*I vs_34_32:A I
*I vs_32_32:A I
*I vs_31_32:A I
*I vs_30_32:A I
*I vs_29_32:A I
*I vs_28_32:A I
*I vs_25_32:A I
*I vs_24_32:A I
*I vs_21_32:A I
*I vs_20_32:A I
*I vs_18_32:A I
*I vs_17_32:A I
*I vs_16_32:A I
*I vs_15_32:A I
*I vs_14_32:A I
*I vs_12_32:A I
*I vs_9_32:A I
*I vs_7_32:A I
*I vs_6_32:A I
*I vs_5_32:A I
*I vs_4_32:A I
*I vs_3_32:A I
*I vs_2_32:A I
*I vs_1_32:A I
*CAP
1 pgm_ln32:1 1.173891e-01
*RES
1 lt_ln32:Z pgm_ln32:1 1.315065e+02
2 pgm_ln32:1 vs_63_32:A 1.000000e-03
3 pgm_ln32:1 vs_62_32:A 1.000000e-03
4 pgm_ln32:1 vs_61_32:A 1.000000e-03
5 pgm_ln32:1 vs_58_32:A 1.000000e-03
6 pgm_ln32:1 vs_56_32:A 1.000000e-03
7 pgm_ln32:1 vs_54_32:A 1.000000e-03
8 pgm_ln32:1 vs_53_32:A 1.000000e-03
9 pgm_ln32:1 vs_46_32:A 1.000000e-03
10 pgm_ln32:1 vs_43_32:A 1.000000e-03
11 pgm_ln32:1 vs_42_32:A 1.000000e-03
12 pgm_ln32:1 vs_40_32:A 1.000000e-03
13 pgm_ln32:1 vs_37_32:A 1.000000e-03
14 pgm_ln32:1 vs_34_32:A 1.000000e-03
15 pgm_ln32:1 vs_32_32:A 1.000000e-03
16 pgm_ln32:1 vs_31_32:A 1.000000e-03
17 pgm_ln32:1 vs_30_32:A 1.000000e-03
18 pgm_ln32:1 vs_29_32:A 1.000000e-03
19 pgm_ln32:1 vs_28_32:A 1.000000e-03
20 pgm_ln32:1 vs_25_32:A 1.000000e-03
21 pgm_ln32:1 vs_24_32:A 1.000000e-03
22 pgm_ln32:1 vs_21_32:A 1.000000e-03
23 pgm_ln32:1 vs_20_32:A 1.000000e-03
24 pgm_ln32:1 vs_18_32:A 1.000000e-03
25 pgm_ln32:1 vs_17_32:A 1.000000e-03
26 pgm_ln32:1 vs_16_32:A 1.000000e-03
27 pgm_ln32:1 vs_15_32:A 1.000000e-03
28 pgm_ln32:1 vs_14_32:A 1.000000e-03
29 pgm_ln32:1 vs_12_32:A 1.000000e-03
30 pgm_ln32:1 vs_9_32:A 1.000000e-03
31 pgm_ln32:1 vs_7_32:A 1.000000e-03
32 pgm_ln32:1 vs_6_32:A 1.000000e-03
33 pgm_ln32:1 vs_5_32:A 1.000000e-03
34 pgm_ln32:1 vs_4_32:A 1.000000e-03
35 pgm_ln32:1 vs_3_32:A 1.000000e-03
36 pgm_ln32:1 vs_2_32:A 1.000000e-03
37 pgm_ln32:1 vs_1_32:A 1.000000e-03
*END

*D_NET pgm_ln33 9.932650e-02
*CONN
*I lt_ln33:Z O
*I vs_59_33:A I
*I vs_56_33:A I
*I vs_53_33:A I
*I vs_46_33:A I
*I vs_44_33:A I
*I vs_43_33:A I
*I vs_40_33:A I
*I vs_39_33:A I
*I vs_38_33:A I
*I vs_36_33:A I
*I vs_34_33:A I
*I vs_30_33:A I
*I vs_29_33:A I
*I vs_28_33:A I
*I vs_25_33:A I
*I vs_23_33:A I
*I vs_22_33:A I
*I vs_21_33:A I
*I vs_18_33:A I
*I vs_8_33:A I
*I vs_6_33:A I
*I vs_5_33:A I
*CAP
1 pgm_ln33:1 9.932650e-02
*RES
1 lt_ln33:Z pgm_ln33:1 1.120056e+02
2 pgm_ln33:1 vs_59_33:A 1.000000e-03
3 pgm_ln33:1 vs_56_33:A 1.000000e-03
4 pgm_ln33:1 vs_53_33:A 1.000000e-03
5 pgm_ln33:1 vs_46_33:A 1.000000e-03
6 pgm_ln33:1 vs_44_33:A 1.000000e-03
7 pgm_ln33:1 vs_43_33:A 1.000000e-03
8 pgm_ln33:1 vs_40_33:A 1.000000e-03
9 pgm_ln33:1 vs_39_33:A 1.000000e-03
10 pgm_ln33:1 vs_38_33:A 1.000000e-03
11 pgm_ln33:1 vs_36_33:A 1.000000e-03
12 pgm_ln33:1 vs_34_33:A 1.000000e-03
13 pgm_ln33:1 vs_30_33:A 1.000000e-03
14 pgm_ln33:1 vs_29_33:A 1.000000e-03
15 pgm_ln33:1 vs_28_33:A 1.000000e-03
16 pgm_ln33:1 vs_25_33:A 1.000000e-03
17 pgm_ln33:1 vs_23_33:A 1.000000e-03
18 pgm_ln33:1 vs_22_33:A 1.000000e-03
19 pgm_ln33:1 vs_21_33:A 1.000000e-03
20 pgm_ln33:1 vs_18_33:A 1.000000e-03
21 pgm_ln33:1 vs_8_33:A 1.000000e-03
22 pgm_ln33:1 vs_6_33:A 1.000000e-03
23 pgm_ln33:1 vs_5_33:A 1.000000e-03
*END

*D_NET pgm_ln34 1.163026e-01
*CONN
*I lt_ln34:Z O
*I vs_63_34:A I
*I vs_61_34:A I
*I vs_60_34:A I
*I vs_52_34:A I
*I vs_51_34:A I
*I vs_48_34:A I
*I vs_42_34:A I
*I vs_41_34:A I
*I vs_39_34:A I
*I vs_38_34:A I
*I vs_37_34:A I
*I vs_36_34:A I
*I vs_31_34:A I
*I vs_30_34:A I
*I vs_29_34:A I
*I vs_26_34:A I
*I vs_24_34:A I
*I vs_23_34:A I
*I vs_22_34:A I
*I vs_16_34:A I
*I vs_15_34:A I
*I vs_12_34:A I
*I vs_11_34:A I
*I vs_9_34:A I
*I vs_6_34:A I
*I vs_2_34:A I
*I vs_0_34:A I
*CAP
1 pgm_ln34:1 1.163026e-01
*RES
1 lt_ln34:Z pgm_ln34:1 1.295768e+02
2 pgm_ln34:1 vs_63_34:A 1.000000e-03
3 pgm_ln34:1 vs_61_34:A 1.000000e-03
4 pgm_ln34:1 vs_60_34:A 1.000000e-03
5 pgm_ln34:1 vs_52_34:A 1.000000e-03
6 pgm_ln34:1 vs_51_34:A 1.000000e-03
7 pgm_ln34:1 vs_48_34:A 1.000000e-03
8 pgm_ln34:1 vs_42_34:A 1.000000e-03
9 pgm_ln34:1 vs_41_34:A 1.000000e-03
10 pgm_ln34:1 vs_39_34:A 1.000000e-03
11 pgm_ln34:1 vs_38_34:A 1.000000e-03
12 pgm_ln34:1 vs_37_34:A 1.000000e-03
13 pgm_ln34:1 vs_36_34:A 1.000000e-03
14 pgm_ln34:1 vs_31_34:A 1.000000e-03
15 pgm_ln34:1 vs_30_34:A 1.000000e-03
16 pgm_ln34:1 vs_29_34:A 1.000000e-03
17 pgm_ln34:1 vs_26_34:A 1.000000e-03
18 pgm_ln34:1 vs_24_34:A 1.000000e-03
19 pgm_ln34:1 vs_23_34:A 1.000000e-03
20 pgm_ln34:1 vs_22_34:A 1.000000e-03
21 pgm_ln34:1 vs_16_34:A 1.000000e-03
22 pgm_ln34:1 vs_15_34:A 1.000000e-03
23 pgm_ln34:1 vs_12_34:A 1.000000e-03
24 pgm_ln34:1 vs_11_34:A 1.000000e-03
25 pgm_ln34:1 vs_9_34:A 1.000000e-03
26 pgm_ln34:1 vs_6_34:A 1.000000e-03
27 pgm_ln34:1 vs_2_34:A 1.000000e-03
28 pgm_ln34:1 vs_0_34:A 1.000000e-03
*END

*D_NET pgm_ln35 1.114616e-01
*CONN
*I lt_ln35:Z O
*I vs_63_35:A I
*I vs_59_35:A I
*I vs_58_35:A I
*I vs_55_35:A I
*I vs_54_35:A I
*I vs_52_35:A I
*I vs_50_35:A I
*I vs_49_35:A I
*I vs_45_35:A I
*I vs_43_35:A I
*I vs_40_35:A I
*I vs_36_35:A I
*I vs_33_35:A I
*I vs_25_35:A I
*I vs_20_35:A I
*I vs_19_35:A I
*I vs_17_35:A I
*I vs_15_35:A I
*I vs_14_35:A I
*I vs_12_35:A I
*I vs_11_35:A I
*I vs_9_35:A I
*I vs_5_35:A I
*I vs_4_35:A I
*I vs_1_35:A I
*I vs_0_35:A I
*CAP
1 pgm_ln35:1 1.114616e-01
*RES
1 lt_ln35:Z pgm_ln35:1 1.259203e+02
2 pgm_ln35:1 vs_63_35:A 1.000000e-03
3 pgm_ln35:1 vs_59_35:A 1.000000e-03
4 pgm_ln35:1 vs_58_35:A 1.000000e-03
5 pgm_ln35:1 vs_55_35:A 1.000000e-03
6 pgm_ln35:1 vs_54_35:A 1.000000e-03
7 pgm_ln35:1 vs_52_35:A 1.000000e-03
8 pgm_ln35:1 vs_50_35:A 1.000000e-03
9 pgm_ln35:1 vs_49_35:A 1.000000e-03
10 pgm_ln35:1 vs_45_35:A 1.000000e-03
11 pgm_ln35:1 vs_43_35:A 1.000000e-03
12 pgm_ln35:1 vs_40_35:A 1.000000e-03
13 pgm_ln35:1 vs_36_35:A 1.000000e-03
14 pgm_ln35:1 vs_33_35:A 1.000000e-03
15 pgm_ln35:1 vs_25_35:A 1.000000e-03
16 pgm_ln35:1 vs_20_35:A 1.000000e-03
17 pgm_ln35:1 vs_19_35:A 1.000000e-03
18 pgm_ln35:1 vs_17_35:A 1.000000e-03
19 pgm_ln35:1 vs_15_35:A 1.000000e-03
20 pgm_ln35:1 vs_14_35:A 1.000000e-03
21 pgm_ln35:1 vs_12_35:A 1.000000e-03
22 pgm_ln35:1 vs_11_35:A 1.000000e-03
23 pgm_ln35:1 vs_9_35:A 1.000000e-03
24 pgm_ln35:1 vs_5_35:A 1.000000e-03
25 pgm_ln35:1 vs_4_35:A 1.000000e-03
26 pgm_ln35:1 vs_1_35:A 1.000000e-03
27 pgm_ln35:1 vs_0_35:A 1.000000e-03
*END

*D_NET pgm_ln36 1.128125e-01
*CONN
*I lt_ln36:Z O
*I vs_60_36:A I
*I vs_59_36:A I
*I vs_57_36:A I
*I vs_54_36:A I
*I vs_53_36:A I
*I vs_52_36:A I
*I vs_49_36:A I
*I vs_47_36:A I
*I vs_43_36:A I
*I vs_42_36:A I
*I vs_40_36:A I
*I vs_35_36:A I
*I vs_32_36:A I
*I vs_30_36:A I
*I vs_29_36:A I
*I vs_25_36:A I
*I vs_24_36:A I
*I vs_23_36:A I
*I vs_20_36:A I
*I vs_17_36:A I
*I vs_15_36:A I
*I vs_14_36:A I
*I vs_13_36:A I
*I vs_12_36:A I
*I vs_10_36:A I
*I vs_9_36:A I
*I vs_8_36:A I
*I vs_7_36:A I
*I vs_4_36:A I
*I vs_2_36:A I
*I vs_1_36:A I
*I vs_0_36:A I
*CAP
1 pgm_ln36:1 1.128125e-01
*RES
1 lt_ln36:Z pgm_ln36:1 1.274533e+02
2 pgm_ln36:1 vs_60_36:A 1.000000e-03
3 pgm_ln36:1 vs_59_36:A 1.000000e-03
4 pgm_ln36:1 vs_57_36:A 1.000000e-03
5 pgm_ln36:1 vs_54_36:A 1.000000e-03
6 pgm_ln36:1 vs_53_36:A 1.000000e-03
7 pgm_ln36:1 vs_52_36:A 1.000000e-03
8 pgm_ln36:1 vs_49_36:A 1.000000e-03
9 pgm_ln36:1 vs_47_36:A 1.000000e-03
10 pgm_ln36:1 vs_43_36:A 1.000000e-03
11 pgm_ln36:1 vs_42_36:A 1.000000e-03
12 pgm_ln36:1 vs_40_36:A 1.000000e-03
13 pgm_ln36:1 vs_35_36:A 1.000000e-03
14 pgm_ln36:1 vs_32_36:A 1.000000e-03
15 pgm_ln36:1 vs_30_36:A 1.000000e-03
16 pgm_ln36:1 vs_29_36:A 1.000000e-03
17 pgm_ln36:1 vs_25_36:A 1.000000e-03
18 pgm_ln36:1 vs_24_36:A 1.000000e-03
19 pgm_ln36:1 vs_23_36:A 1.000000e-03
20 pgm_ln36:1 vs_20_36:A 1.000000e-03
21 pgm_ln36:1 vs_17_36:A 1.000000e-03
22 pgm_ln36:1 vs_15_36:A 1.000000e-03
23 pgm_ln36:1 vs_14_36:A 1.000000e-03
24 pgm_ln36:1 vs_13_36:A 1.000000e-03
25 pgm_ln36:1 vs_12_36:A 1.000000e-03
26 pgm_ln36:1 vs_10_36:A 1.000000e-03
27 pgm_ln36:1 vs_9_36:A 1.000000e-03
28 pgm_ln36:1 vs_8_36:A 1.000000e-03
29 pgm_ln36:1 vs_7_36:A 1.000000e-03
30 pgm_ln36:1 vs_4_36:A 1.000000e-03
31 pgm_ln36:1 vs_2_36:A 1.000000e-03
32 pgm_ln36:1 vs_1_36:A 1.000000e-03
33 pgm_ln36:1 vs_0_36:A 1.000000e-03
*END

*D_NET pgm_ln37 9.450345e-02
*CONN
*I lt_ln37:Z O
*I vs_62_37:A I
*I vs_61_37:A I
*I vs_60_37:A I
*I vs_59_37:A I
*I vs_58_37:A I
*I vs_57_37:A I
*I vs_44_37:A I
*I vs_43_37:A I
*I vs_42_37:A I
*I vs_36_37:A I
*I vs_35_37:A I
*I vs_34_37:A I
*I vs_32_37:A I
*I vs_30_37:A I
*I vs_24_37:A I
*I vs_23_37:A I
*I vs_20_37:A I
*I vs_19_37:A I
*I vs_18_37:A I
*I vs_15_37:A I
*I vs_13_37:A I
*I vs_9_37:A I
*I vs_7_37:A I
*CAP
1 pgm_ln37:1 9.450345e-02
*RES
1 lt_ln37:Z pgm_ln37:1 1.065325e+02
2 pgm_ln37:1 vs_62_37:A 1.000000e-03
3 pgm_ln37:1 vs_61_37:A 1.000000e-03
4 pgm_ln37:1 vs_60_37:A 1.000000e-03
5 pgm_ln37:1 vs_59_37:A 1.000000e-03
6 pgm_ln37:1 vs_58_37:A 1.000000e-03
7 pgm_ln37:1 vs_57_37:A 1.000000e-03
8 pgm_ln37:1 vs_44_37:A 1.000000e-03
9 pgm_ln37:1 vs_43_37:A 1.000000e-03
10 pgm_ln37:1 vs_42_37:A 1.000000e-03
11 pgm_ln37:1 vs_36_37:A 1.000000e-03
12 pgm_ln37:1 vs_35_37:A 1.000000e-03
13 pgm_ln37:1 vs_34_37:A 1.000000e-03
14 pgm_ln37:1 vs_32_37:A 1.000000e-03
15 pgm_ln37:1 vs_30_37:A 1.000000e-03
16 pgm_ln37:1 vs_24_37:A 1.000000e-03
17 pgm_ln37:1 vs_23_37:A 1.000000e-03
18 pgm_ln37:1 vs_20_37:A 1.000000e-03
19 pgm_ln37:1 vs_19_37:A 1.000000e-03
20 pgm_ln37:1 vs_18_37:A 1.000000e-03
21 pgm_ln37:1 vs_15_37:A 1.000000e-03
22 pgm_ln37:1 vs_13_37:A 1.000000e-03
23 pgm_ln37:1 vs_9_37:A 1.000000e-03
24 pgm_ln37:1 vs_7_37:A 1.000000e-03
*END

*D_NET pgm_ln38 1.119285e-01
*CONN
*I lt_ln38:Z O
*I vs_63_38:A I
*I vs_60_38:A I
*I vs_58_38:A I
*I vs_57_38:A I
*I vs_56_38:A I
*I vs_52_38:A I
*I vs_50_38:A I
*I vs_47_38:A I
*I vs_42_38:A I
*I vs_39_38:A I
*I vs_38_38:A I
*I vs_37_38:A I
*I vs_33_38:A I
*I vs_32_38:A I
*I vs_30_38:A I
*I vs_28_38:A I
*I vs_24_38:A I
*I vs_22_38:A I
*I vs_21_38:A I
*I vs_19_38:A I
*I vs_17_38:A I
*I vs_15_38:A I
*I vs_9_38:A I
*I vs_8_38:A I
*I vs_7_38:A I
*I vs_3_38:A I
*I vs_1_38:A I
*CAP
1 pgm_ln38:1 1.119285e-01
*RES
1 lt_ln38:Z pgm_ln38:1 1.270144e+02
2 pgm_ln38:1 vs_63_38:A 1.000000e-03
3 pgm_ln38:1 vs_60_38:A 1.000000e-03
4 pgm_ln38:1 vs_58_38:A 1.000000e-03
5 pgm_ln38:1 vs_57_38:A 1.000000e-03
6 pgm_ln38:1 vs_56_38:A 1.000000e-03
7 pgm_ln38:1 vs_52_38:A 1.000000e-03
8 pgm_ln38:1 vs_50_38:A 1.000000e-03
9 pgm_ln38:1 vs_47_38:A 1.000000e-03
10 pgm_ln38:1 vs_42_38:A 1.000000e-03
11 pgm_ln38:1 vs_39_38:A 1.000000e-03
12 pgm_ln38:1 vs_38_38:A 1.000000e-03
13 pgm_ln38:1 vs_37_38:A 1.000000e-03
14 pgm_ln38:1 vs_33_38:A 1.000000e-03
15 pgm_ln38:1 vs_32_38:A 1.000000e-03
16 pgm_ln38:1 vs_30_38:A 1.000000e-03
17 pgm_ln38:1 vs_28_38:A 1.000000e-03
18 pgm_ln38:1 vs_24_38:A 1.000000e-03
19 pgm_ln38:1 vs_22_38:A 1.000000e-03
20 pgm_ln38:1 vs_21_38:A 1.000000e-03
21 pgm_ln38:1 vs_19_38:A 1.000000e-03
22 pgm_ln38:1 vs_17_38:A 1.000000e-03
23 pgm_ln38:1 vs_15_38:A 1.000000e-03
24 pgm_ln38:1 vs_9_38:A 1.000000e-03
25 pgm_ln38:1 vs_8_38:A 1.000000e-03
26 pgm_ln38:1 vs_7_38:A 1.000000e-03
27 pgm_ln38:1 vs_3_38:A 1.000000e-03
28 pgm_ln38:1 vs_1_38:A 1.000000e-03
*END

*D_NET pgm_ln39 1.130021e-01
*CONN
*I lt_ln39:Z O
*I vs_63_39:A I
*I vs_59_39:A I
*I vs_58_39:A I
*I vs_54_39:A I
*I vs_53_39:A I
*I vs_48_39:A I
*I vs_46_39:A I
*I vs_45_39:A I
*I vs_44_39:A I
*I vs_39_39:A I
*I vs_38_39:A I
*I vs_36_39:A I
*I vs_31_39:A I
*I vs_30_39:A I
*I vs_27_39:A I
*I vs_26_39:A I
*I vs_25_39:A I
*I vs_21_39:A I
*I vs_19_39:A I
*I vs_15_39:A I
*I vs_14_39:A I
*I vs_6_39:A I
*I vs_5_39:A I
*I vs_2_39:A I
*I vs_0_39:A I
*CAP
1 pgm_ln39:1 1.130021e-01
*RES
1 lt_ln39:Z pgm_ln39:1 1.276685e+02
2 pgm_ln39:1 vs_63_39:A 1.000000e-03
3 pgm_ln39:1 vs_59_39:A 1.000000e-03
4 pgm_ln39:1 vs_58_39:A 1.000000e-03
5 pgm_ln39:1 vs_54_39:A 1.000000e-03
6 pgm_ln39:1 vs_53_39:A 1.000000e-03
7 pgm_ln39:1 vs_48_39:A 1.000000e-03
8 pgm_ln39:1 vs_46_39:A 1.000000e-03
9 pgm_ln39:1 vs_45_39:A 1.000000e-03
10 pgm_ln39:1 vs_44_39:A 1.000000e-03
11 pgm_ln39:1 vs_39_39:A 1.000000e-03
12 pgm_ln39:1 vs_38_39:A 1.000000e-03
13 pgm_ln39:1 vs_36_39:A 1.000000e-03
14 pgm_ln39:1 vs_31_39:A 1.000000e-03
15 pgm_ln39:1 vs_30_39:A 1.000000e-03
16 pgm_ln39:1 vs_27_39:A 1.000000e-03
17 pgm_ln39:1 vs_26_39:A 1.000000e-03
18 pgm_ln39:1 vs_25_39:A 1.000000e-03
19 pgm_ln39:1 vs_21_39:A 1.000000e-03
20 pgm_ln39:1 vs_19_39:A 1.000000e-03
21 pgm_ln39:1 vs_15_39:A 1.000000e-03
22 pgm_ln39:1 vs_14_39:A 1.000000e-03
23 pgm_ln39:1 vs_6_39:A 1.000000e-03
24 pgm_ln39:1 vs_5_39:A 1.000000e-03
25 pgm_ln39:1 vs_2_39:A 1.000000e-03
26 pgm_ln39:1 vs_0_39:A 1.000000e-03
*END

*D_NET pgm_ln4 1.054701e-01
*CONN
*I lt_ln4:Z O
*I vs_63_4:A I
*I vs_60_4:A I
*I vs_56_4:A I
*I vs_55_4:A I
*I vs_53_4:A I
*I vs_52_4:A I
*I vs_47_4:A I
*I vs_46_4:A I
*I vs_43_4:A I
*I vs_41_4:A I
*I vs_39_4:A I
*I vs_35_4:A I
*I vs_33_4:A I
*I vs_31_4:A I
*I vs_27_4:A I
*I vs_26_4:A I
*I vs_24_4:A I
*I vs_23_4:A I
*I vs_22_4:A I
*I vs_19_4:A I
*I vs_18_4:A I
*I vs_15_4:A I
*I vs_14_4:A I
*I vs_12_4:A I
*I vs_10_4:A I
*I vs_7_4:A I
*I vs_6_4:A I
*I vs_4_4:A I
*I vs_2_4:A I
*I vs_1_4:A I
*CAP
1 pgm_ln4:1 1.054701e-01
*RES
1 lt_ln4:Z pgm_ln4:1 1.196856e+02
2 pgm_ln4:1 vs_63_4:A 1.000000e-03
3 pgm_ln4:1 vs_60_4:A 1.000000e-03
4 pgm_ln4:1 vs_56_4:A 1.000000e-03
5 pgm_ln4:1 vs_55_4:A 1.000000e-03
6 pgm_ln4:1 vs_53_4:A 1.000000e-03
7 pgm_ln4:1 vs_52_4:A 1.000000e-03
8 pgm_ln4:1 vs_47_4:A 1.000000e-03
9 pgm_ln4:1 vs_46_4:A 1.000000e-03
10 pgm_ln4:1 vs_43_4:A 1.000000e-03
11 pgm_ln4:1 vs_41_4:A 1.000000e-03
12 pgm_ln4:1 vs_39_4:A 1.000000e-03
13 pgm_ln4:1 vs_35_4:A 1.000000e-03
14 pgm_ln4:1 vs_33_4:A 1.000000e-03
15 pgm_ln4:1 vs_31_4:A 1.000000e-03
16 pgm_ln4:1 vs_27_4:A 1.000000e-03
17 pgm_ln4:1 vs_26_4:A 1.000000e-03
18 pgm_ln4:1 vs_24_4:A 1.000000e-03
19 pgm_ln4:1 vs_23_4:A 1.000000e-03
20 pgm_ln4:1 vs_22_4:A 1.000000e-03
21 pgm_ln4:1 vs_19_4:A 1.000000e-03
22 pgm_ln4:1 vs_18_4:A 1.000000e-03
23 pgm_ln4:1 vs_15_4:A 1.000000e-03
24 pgm_ln4:1 vs_14_4:A 1.000000e-03
25 pgm_ln4:1 vs_12_4:A 1.000000e-03
26 pgm_ln4:1 vs_10_4:A 1.000000e-03
27 pgm_ln4:1 vs_7_4:A 1.000000e-03
28 pgm_ln4:1 vs_6_4:A 1.000000e-03
29 pgm_ln4:1 vs_4_4:A 1.000000e-03
30 pgm_ln4:1 vs_2_4:A 1.000000e-03
31 pgm_ln4:1 vs_1_4:A 1.000000e-03
*END

*D_NET pgm_ln40 1.109024e-01
*CONN
*I lt_ln40:Z O
*I vs_63_40:A I
*I vs_62_40:A I
*I vs_60_40:A I
*I vs_59_40:A I
*I vs_56_40:A I
*I vs_53_40:A I
*I vs_51_40:A I
*I vs_48_40:A I
*I vs_45_40:A I
*I vs_44_40:A I
*I vs_43_40:A I
*I vs_41_40:A I
*I vs_36_40:A I
*I vs_33_40:A I
*I vs_32_40:A I
*I vs_26_40:A I
*I vs_24_40:A I
*I vs_23_40:A I
*I vs_22_40:A I
*I vs_21_40:A I
*I vs_18_40:A I
*I vs_15_40:A I
*I vs_14_40:A I
*I vs_12_40:A I
*I vs_11_40:A I
*I vs_5_40:A I
*I vs_4_40:A I
*I vs_3_40:A I
*I vs_1_40:A I
*CAP
1 pgm_ln40:1 1.109024e-01
*RES
1 lt_ln40:Z pgm_ln40:1 1.241893e+02
2 pgm_ln40:1 vs_63_40:A 1.000000e-03
3 pgm_ln40:1 vs_62_40:A 1.000000e-03
4 pgm_ln40:1 vs_60_40:A 1.000000e-03
5 pgm_ln40:1 vs_59_40:A 1.000000e-03
6 pgm_ln40:1 vs_56_40:A 1.000000e-03
7 pgm_ln40:1 vs_53_40:A 1.000000e-03
8 pgm_ln40:1 vs_51_40:A 1.000000e-03
9 pgm_ln40:1 vs_48_40:A 1.000000e-03
10 pgm_ln40:1 vs_45_40:A 1.000000e-03
11 pgm_ln40:1 vs_44_40:A 1.000000e-03
12 pgm_ln40:1 vs_43_40:A 1.000000e-03
13 pgm_ln40:1 vs_41_40:A 1.000000e-03
14 pgm_ln40:1 vs_36_40:A 1.000000e-03
15 pgm_ln40:1 vs_33_40:A 1.000000e-03
16 pgm_ln40:1 vs_32_40:A 1.000000e-03
17 pgm_ln40:1 vs_26_40:A 1.000000e-03
18 pgm_ln40:1 vs_24_40:A 1.000000e-03
19 pgm_ln40:1 vs_23_40:A 1.000000e-03
20 pgm_ln40:1 vs_22_40:A 1.000000e-03
21 pgm_ln40:1 vs_21_40:A 1.000000e-03
22 pgm_ln40:1 vs_18_40:A 1.000000e-03
23 pgm_ln40:1 vs_15_40:A 1.000000e-03
24 pgm_ln40:1 vs_14_40:A 1.000000e-03
25 pgm_ln40:1 vs_12_40:A 1.000000e-03
26 pgm_ln40:1 vs_11_40:A 1.000000e-03
27 pgm_ln40:1 vs_5_40:A 1.000000e-03
28 pgm_ln40:1 vs_4_40:A 1.000000e-03
29 pgm_ln40:1 vs_3_40:A 1.000000e-03
30 pgm_ln40:1 vs_1_40:A 1.000000e-03
*END

*D_NET pgm_ln41 1.182679e-01
*CONN
*I lt_ln41:Z O
*I vs_63_41:A I
*I vs_62_41:A I
*I vs_61_41:A I
*I vs_60_41:A I
*I vs_59_41:A I
*I vs_58_41:A I
*I vs_54_41:A I
*I vs_53_41:A I
*I vs_51_41:A I
*I vs_49_41:A I
*I vs_48_41:A I
*I vs_45_41:A I
*I vs_42_41:A I
*I vs_40_41:A I
*I vs_38_41:A I
*I vs_36_41:A I
*I vs_33_41:A I
*I vs_32_41:A I
*I vs_31_41:A I
*I vs_30_41:A I
*I vs_26_41:A I
*I vs_25_41:A I
*I vs_22_41:A I
*I vs_21_41:A I
*I vs_20_41:A I
*I vs_19_41:A I
*I vs_18_41:A I
*I vs_15_41:A I
*I vs_14_41:A I
*I vs_9_41:A I
*I vs_6_41:A I
*I vs_4_41:A I
*I vs_3_41:A I
*I vs_1_41:A I
*I vs_0_41:A I
*CAP
1 pgm_ln41:1 1.182679e-01
*RES
1 lt_ln41:Z pgm_ln41:1 1.312312e+02
2 pgm_ln41:1 vs_63_41:A 1.000000e-03
3 pgm_ln41:1 vs_62_41:A 1.000000e-03
4 pgm_ln41:1 vs_61_41:A 1.000000e-03
5 pgm_ln41:1 vs_60_41:A 1.000000e-03
6 pgm_ln41:1 vs_59_41:A 1.000000e-03
7 pgm_ln41:1 vs_58_41:A 1.000000e-03
8 pgm_ln41:1 vs_54_41:A 1.000000e-03
9 pgm_ln41:1 vs_53_41:A 1.000000e-03
10 pgm_ln41:1 vs_51_41:A 1.000000e-03
11 pgm_ln41:1 vs_49_41:A 1.000000e-03
12 pgm_ln41:1 vs_48_41:A 1.000000e-03
13 pgm_ln41:1 vs_45_41:A 1.000000e-03
14 pgm_ln41:1 vs_42_41:A 1.000000e-03
15 pgm_ln41:1 vs_40_41:A 1.000000e-03
16 pgm_ln41:1 vs_38_41:A 1.000000e-03
17 pgm_ln41:1 vs_36_41:A 1.000000e-03
18 pgm_ln41:1 vs_33_41:A 1.000000e-03
19 pgm_ln41:1 vs_32_41:A 1.000000e-03
20 pgm_ln41:1 vs_31_41:A 1.000000e-03
21 pgm_ln41:1 vs_30_41:A 1.000000e-03
22 pgm_ln41:1 vs_26_41:A 1.000000e-03
23 pgm_ln41:1 vs_25_41:A 1.000000e-03
24 pgm_ln41:1 vs_22_41:A 1.000000e-03
25 pgm_ln41:1 vs_21_41:A 1.000000e-03
26 pgm_ln41:1 vs_20_41:A 1.000000e-03
27 pgm_ln41:1 vs_19_41:A 1.000000e-03
28 pgm_ln41:1 vs_18_41:A 1.000000e-03
29 pgm_ln41:1 vs_15_41:A 1.000000e-03
30 pgm_ln41:1 vs_14_41:A 1.000000e-03
31 pgm_ln41:1 vs_9_41:A 1.000000e-03
32 pgm_ln41:1 vs_6_41:A 1.000000e-03
33 pgm_ln41:1 vs_4_41:A 1.000000e-03
34 pgm_ln41:1 vs_3_41:A 1.000000e-03
35 pgm_ln41:1 vs_1_41:A 1.000000e-03
36 pgm_ln41:1 vs_0_41:A 1.000000e-03
*END

*D_NET pgm_ln42 1.043277e-01
*CONN
*I lt_ln42:Z O
*I vs_63_42:A I
*I vs_62_42:A I
*I vs_61_42:A I
*I vs_59_42:A I
*I vs_49_42:A I
*I vs_46_42:A I
*I vs_39_42:A I
*I vs_37_42:A I
*I vs_35_42:A I
*I vs_34_42:A I
*I vs_29_42:A I
*I vs_24_42:A I
*I vs_22_42:A I
*I vs_21_42:A I
*I vs_18_42:A I
*I vs_16_42:A I
*I vs_15_42:A I
*I vs_14_42:A I
*I vs_13_42:A I
*I vs_12_42:A I
*I vs_10_42:A I
*I vs_7_42:A I
*I vs_3_42:A I
*CAP
1 pgm_ln42:1 1.043277e-01
*RES
1 lt_ln42:Z pgm_ln42:1 1.178249e+02
2 pgm_ln42:1 vs_63_42:A 1.000000e-03
3 pgm_ln42:1 vs_62_42:A 1.000000e-03
4 pgm_ln42:1 vs_61_42:A 1.000000e-03
5 pgm_ln42:1 vs_59_42:A 1.000000e-03
6 pgm_ln42:1 vs_49_42:A 1.000000e-03
7 pgm_ln42:1 vs_46_42:A 1.000000e-03
8 pgm_ln42:1 vs_39_42:A 1.000000e-03
9 pgm_ln42:1 vs_37_42:A 1.000000e-03
10 pgm_ln42:1 vs_35_42:A 1.000000e-03
11 pgm_ln42:1 vs_34_42:A 1.000000e-03
12 pgm_ln42:1 vs_29_42:A 1.000000e-03
13 pgm_ln42:1 vs_24_42:A 1.000000e-03
14 pgm_ln42:1 vs_22_42:A 1.000000e-03
15 pgm_ln42:1 vs_21_42:A 1.000000e-03
16 pgm_ln42:1 vs_18_42:A 1.000000e-03
17 pgm_ln42:1 vs_16_42:A 1.000000e-03
18 pgm_ln42:1 vs_15_42:A 1.000000e-03
19 pgm_ln42:1 vs_14_42:A 1.000000e-03
20 pgm_ln42:1 vs_13_42:A 1.000000e-03
21 pgm_ln42:1 vs_12_42:A 1.000000e-03
22 pgm_ln42:1 vs_10_42:A 1.000000e-03
23 pgm_ln42:1 vs_7_42:A 1.000000e-03
24 pgm_ln42:1 vs_3_42:A 1.000000e-03
*END

*D_NET pgm_ln43 1.105715e-01
*CONN
*I lt_ln43:Z O
*I vs_61_43:A I
*I vs_60_43:A I
*I vs_59_43:A I
*I vs_57_43:A I
*I vs_56_43:A I
*I vs_54_43:A I
*I vs_52_43:A I
*I vs_49_43:A I
*I vs_46_43:A I
*I vs_44_43:A I
*I vs_41_43:A I
*I vs_40_43:A I
*I vs_36_43:A I
*I vs_35_43:A I
*I vs_34_43:A I
*I vs_30_43:A I
*I vs_29_43:A I
*I vs_21_43:A I
*I vs_18_43:A I
*I vs_17_43:A I
*I vs_14_43:A I
*I vs_13_43:A I
*I vs_10_43:A I
*I vs_8_43:A I
*I vs_6_43:A I
*I vs_4_43:A I
*I vs_2_43:A I
*I vs_1_43:A I
*CAP
1 pgm_ln43:1 1.105715e-01
*RES
1 lt_ln43:Z pgm_ln43:1 1.231776e+02
2 pgm_ln43:1 vs_61_43:A 1.000000e-03
3 pgm_ln43:1 vs_60_43:A 1.000000e-03
4 pgm_ln43:1 vs_59_43:A 1.000000e-03
5 pgm_ln43:1 vs_57_43:A 1.000000e-03
6 pgm_ln43:1 vs_56_43:A 1.000000e-03
7 pgm_ln43:1 vs_54_43:A 1.000000e-03
8 pgm_ln43:1 vs_52_43:A 1.000000e-03
9 pgm_ln43:1 vs_49_43:A 1.000000e-03
10 pgm_ln43:1 vs_46_43:A 1.000000e-03
11 pgm_ln43:1 vs_44_43:A 1.000000e-03
12 pgm_ln43:1 vs_41_43:A 1.000000e-03
13 pgm_ln43:1 vs_40_43:A 1.000000e-03
14 pgm_ln43:1 vs_36_43:A 1.000000e-03
15 pgm_ln43:1 vs_35_43:A 1.000000e-03
16 pgm_ln43:1 vs_34_43:A 1.000000e-03
17 pgm_ln43:1 vs_30_43:A 1.000000e-03
18 pgm_ln43:1 vs_29_43:A 1.000000e-03
19 pgm_ln43:1 vs_21_43:A 1.000000e-03
20 pgm_ln43:1 vs_18_43:A 1.000000e-03
21 pgm_ln43:1 vs_17_43:A 1.000000e-03
22 pgm_ln43:1 vs_14_43:A 1.000000e-03
23 pgm_ln43:1 vs_13_43:A 1.000000e-03
24 pgm_ln43:1 vs_10_43:A 1.000000e-03
25 pgm_ln43:1 vs_8_43:A 1.000000e-03
26 pgm_ln43:1 vs_6_43:A 1.000000e-03
27 pgm_ln43:1 vs_4_43:A 1.000000e-03
28 pgm_ln43:1 vs_2_43:A 1.000000e-03
29 pgm_ln43:1 vs_1_43:A 1.000000e-03
*END

*D_NET pgm_ln44 9.873140e-02
*CONN
*I lt_ln44:Z O
*I vs_60_44:A I
*I vs_53_44:A I
*I vs_50_44:A I
*I vs_45_44:A I
*I vs_44_44:A I
*I vs_43_44:A I
*I vs_42_44:A I
*I vs_41_44:A I
*I vs_40_44:A I
*I vs_37_44:A I
*I vs_34_44:A I
*I vs_33_44:A I
*I vs_27_44:A I
*I vs_25_44:A I
*I vs_24_44:A I
*I vs_23_44:A I
*I vs_22_44:A I
*I vs_20_44:A I
*I vs_18_44:A I
*I vs_16_44:A I
*I vs_15_44:A I
*I vs_14_44:A I
*I vs_12_44:A I
*I vs_11_44:A I
*I vs_8_44:A I
*I vs_7_44:A I
*I vs_5_44:A I
*I vs_4_44:A I
*I vs_2_44:A I
*CAP
1 pgm_ln44:1 9.873140e-02
*RES
1 lt_ln44:Z pgm_ln44:1 1.106981e+02
2 pgm_ln44:1 vs_60_44:A 1.000000e-03
3 pgm_ln44:1 vs_53_44:A 1.000000e-03
4 pgm_ln44:1 vs_50_44:A 1.000000e-03
5 pgm_ln44:1 vs_45_44:A 1.000000e-03
6 pgm_ln44:1 vs_44_44:A 1.000000e-03
7 pgm_ln44:1 vs_43_44:A 1.000000e-03
8 pgm_ln44:1 vs_42_44:A 1.000000e-03
9 pgm_ln44:1 vs_41_44:A 1.000000e-03
10 pgm_ln44:1 vs_40_44:A 1.000000e-03
11 pgm_ln44:1 vs_37_44:A 1.000000e-03
12 pgm_ln44:1 vs_34_44:A 1.000000e-03
13 pgm_ln44:1 vs_33_44:A 1.000000e-03
14 pgm_ln44:1 vs_27_44:A 1.000000e-03
15 pgm_ln44:1 vs_25_44:A 1.000000e-03
16 pgm_ln44:1 vs_24_44:A 1.000000e-03
17 pgm_ln44:1 vs_23_44:A 1.000000e-03
18 pgm_ln44:1 vs_22_44:A 1.000000e-03
19 pgm_ln44:1 vs_20_44:A 1.000000e-03
20 pgm_ln44:1 vs_18_44:A 1.000000e-03
21 pgm_ln44:1 vs_16_44:A 1.000000e-03
22 pgm_ln44:1 vs_15_44:A 1.000000e-03
23 pgm_ln44:1 vs_14_44:A 1.000000e-03
24 pgm_ln44:1 vs_12_44:A 1.000000e-03
25 pgm_ln44:1 vs_11_44:A 1.000000e-03
26 pgm_ln44:1 vs_8_44:A 1.000000e-03
27 pgm_ln44:1 vs_7_44:A 1.000000e-03
28 pgm_ln44:1 vs_5_44:A 1.000000e-03
29 pgm_ln44:1 vs_4_44:A 1.000000e-03
30 pgm_ln44:1 vs_2_44:A 1.000000e-03
*END

*D_NET pgm_ln45 1.092493e-01
*CONN
*I lt_ln45:Z O
*I vs_61_45:A I
*I vs_60_45:A I
*I vs_56_45:A I
*I vs_54_45:A I
*I vs_47_45:A I
*I vs_45_45:A I
*I vs_42_45:A I
*I vs_41_45:A I
*I vs_39_45:A I
*I vs_36_45:A I
*I vs_35_45:A I
*I vs_33_45:A I
*I vs_31_45:A I
*I vs_30_45:A I
*I vs_27_45:A I
*I vs_26_45:A I
*I vs_25_45:A I
*I vs_23_45:A I
*I vs_21_45:A I
*I vs_19_45:A I
*I vs_18_45:A I
*I vs_13_45:A I
*I vs_11_45:A I
*I vs_9_45:A I
*I vs_6_45:A I
*I vs_2_45:A I
*CAP
1 pgm_ln45:1 1.092493e-01
*RES
1 lt_ln45:Z pgm_ln45:1 1.227015e+02
2 pgm_ln45:1 vs_61_45:A 1.000000e-03
3 pgm_ln45:1 vs_60_45:A 1.000000e-03
4 pgm_ln45:1 vs_56_45:A 1.000000e-03
5 pgm_ln45:1 vs_54_45:A 1.000000e-03
6 pgm_ln45:1 vs_47_45:A 1.000000e-03
7 pgm_ln45:1 vs_45_45:A 1.000000e-03
8 pgm_ln45:1 vs_42_45:A 1.000000e-03
9 pgm_ln45:1 vs_41_45:A 1.000000e-03
10 pgm_ln45:1 vs_39_45:A 1.000000e-03
11 pgm_ln45:1 vs_36_45:A 1.000000e-03
12 pgm_ln45:1 vs_35_45:A 1.000000e-03
13 pgm_ln45:1 vs_33_45:A 1.000000e-03
14 pgm_ln45:1 vs_31_45:A 1.000000e-03
15 pgm_ln45:1 vs_30_45:A 1.000000e-03
16 pgm_ln45:1 vs_27_45:A 1.000000e-03
17 pgm_ln45:1 vs_26_45:A 1.000000e-03
18 pgm_ln45:1 vs_25_45:A 1.000000e-03
19 pgm_ln45:1 vs_23_45:A 1.000000e-03
20 pgm_ln45:1 vs_21_45:A 1.000000e-03
21 pgm_ln45:1 vs_19_45:A 1.000000e-03
22 pgm_ln45:1 vs_18_45:A 1.000000e-03
23 pgm_ln45:1 vs_13_45:A 1.000000e-03
24 pgm_ln45:1 vs_11_45:A 1.000000e-03
25 pgm_ln45:1 vs_9_45:A 1.000000e-03
26 pgm_ln45:1 vs_6_45:A 1.000000e-03
27 pgm_ln45:1 vs_2_45:A 1.000000e-03
*END

*D_NET pgm_ln46 1.158720e-01
*CONN
*I lt_ln46:Z O
*I vs_63_46:A I
*I vs_60_46:A I
*I vs_59_46:A I
*I vs_57_46:A I
*I vs_56_46:A I
*I vs_54_46:A I
*I vs_52_46:A I
*I vs_51_46:A I
*I vs_48_46:A I
*I vs_42_46:A I
*I vs_41_46:A I
*I vs_35_46:A I
*I vs_31_46:A I
*I vs_27_46:A I
*I vs_26_46:A I
*I vs_24_46:A I
*I vs_23_46:A I
*I vs_19_46:A I
*I vs_17_46:A I
*I vs_15_46:A I
*I vs_14_46:A I
*I vs_13_46:A I
*I vs_11_46:A I
*I vs_9_46:A I
*I vs_8_46:A I
*I vs_5_46:A I
*I vs_4_46:A I
*I vs_3_46:A I
*CAP
1 pgm_ln46:1 1.158720e-01
*RES
1 lt_ln46:Z pgm_ln46:1 1.306371e+02
2 pgm_ln46:1 vs_63_46:A 1.000000e-03
3 pgm_ln46:1 vs_60_46:A 1.000000e-03
4 pgm_ln46:1 vs_59_46:A 1.000000e-03
5 pgm_ln46:1 vs_57_46:A 1.000000e-03
6 pgm_ln46:1 vs_56_46:A 1.000000e-03
7 pgm_ln46:1 vs_54_46:A 1.000000e-03
8 pgm_ln46:1 vs_52_46:A 1.000000e-03
9 pgm_ln46:1 vs_51_46:A 1.000000e-03
10 pgm_ln46:1 vs_48_46:A 1.000000e-03
11 pgm_ln46:1 vs_42_46:A 1.000000e-03
12 pgm_ln46:1 vs_41_46:A 1.000000e-03
13 pgm_ln46:1 vs_35_46:A 1.000000e-03
14 pgm_ln46:1 vs_31_46:A 1.000000e-03
15 pgm_ln46:1 vs_27_46:A 1.000000e-03
16 pgm_ln46:1 vs_26_46:A 1.000000e-03
17 pgm_ln46:1 vs_24_46:A 1.000000e-03
18 pgm_ln46:1 vs_23_46:A 1.000000e-03
19 pgm_ln46:1 vs_19_46:A 1.000000e-03
20 pgm_ln46:1 vs_17_46:A 1.000000e-03
21 pgm_ln46:1 vs_15_46:A 1.000000e-03
22 pgm_ln46:1 vs_14_46:A 1.000000e-03
23 pgm_ln46:1 vs_13_46:A 1.000000e-03
24 pgm_ln46:1 vs_11_46:A 1.000000e-03
25 pgm_ln46:1 vs_9_46:A 1.000000e-03
26 pgm_ln46:1 vs_8_46:A 1.000000e-03
27 pgm_ln46:1 vs_5_46:A 1.000000e-03
28 pgm_ln46:1 vs_4_46:A 1.000000e-03
29 pgm_ln46:1 vs_3_46:A 1.000000e-03
*END

*D_NET pgm_ln47 1.076127e-01
*CONN
*I lt_ln47:Z O
*I vs_62_47:A I
*I vs_60_47:A I
*I vs_58_47:A I
*I vs_57_47:A I
*I vs_56_47:A I
*I vs_53_47:A I
*I vs_51_47:A I
*I vs_46_47:A I
*I vs_45_47:A I
*I vs_44_47:A I
*I vs_43_47:A I
*I vs_42_47:A I
*I vs_37_47:A I
*I vs_33_47:A I
*I vs_32_47:A I
*I vs_31_47:A I
*I vs_28_47:A I
*I vs_26_47:A I
*I vs_23_47:A I
*I vs_19_47:A I
*I vs_18_47:A I
*I vs_17_47:A I
*I vs_16_47:A I
*I vs_14_47:A I
*I vs_12_47:A I
*I vs_8_47:A I
*I vs_4_47:A I
*I vs_1_47:A I
*CAP
1 pgm_ln47:1 1.076127e-01
*RES
1 lt_ln47:Z pgm_ln47:1 1.210206e+02
2 pgm_ln47:1 vs_62_47:A 1.000000e-03
3 pgm_ln47:1 vs_60_47:A 1.000000e-03
4 pgm_ln47:1 vs_58_47:A 1.000000e-03
5 pgm_ln47:1 vs_57_47:A 1.000000e-03
6 pgm_ln47:1 vs_56_47:A 1.000000e-03
7 pgm_ln47:1 vs_53_47:A 1.000000e-03
8 pgm_ln47:1 vs_51_47:A 1.000000e-03
9 pgm_ln47:1 vs_46_47:A 1.000000e-03
10 pgm_ln47:1 vs_45_47:A 1.000000e-03
11 pgm_ln47:1 vs_44_47:A 1.000000e-03
12 pgm_ln47:1 vs_43_47:A 1.000000e-03
13 pgm_ln47:1 vs_42_47:A 1.000000e-03
14 pgm_ln47:1 vs_37_47:A 1.000000e-03
15 pgm_ln47:1 vs_33_47:A 1.000000e-03
16 pgm_ln47:1 vs_32_47:A 1.000000e-03
17 pgm_ln47:1 vs_31_47:A 1.000000e-03
18 pgm_ln47:1 vs_28_47:A 1.000000e-03
19 pgm_ln47:1 vs_26_47:A 1.000000e-03
20 pgm_ln47:1 vs_23_47:A 1.000000e-03
21 pgm_ln47:1 vs_19_47:A 1.000000e-03
22 pgm_ln47:1 vs_18_47:A 1.000000e-03
23 pgm_ln47:1 vs_17_47:A 1.000000e-03
24 pgm_ln47:1 vs_16_47:A 1.000000e-03
25 pgm_ln47:1 vs_14_47:A 1.000000e-03
26 pgm_ln47:1 vs_12_47:A 1.000000e-03
27 pgm_ln47:1 vs_8_47:A 1.000000e-03
28 pgm_ln47:1 vs_4_47:A 1.000000e-03
29 pgm_ln47:1 vs_1_47:A 1.000000e-03
*END

*D_NET pgm_ln48 1.124973e-01
*CONN
*I lt_ln48:Z O
*I vs_63_48:A I
*I vs_61_48:A I
*I vs_59_48:A I
*I vs_58_48:A I
*I vs_54_48:A I
*I vs_53_48:A I
*I vs_49_48:A I
*I vs_48_48:A I
*I vs_44_48:A I
*I vs_43_48:A I
*I vs_40_48:A I
*I vs_39_48:A I
*I vs_37_48:A I
*I vs_35_48:A I
*I vs_33_48:A I
*I vs_31_48:A I
*I vs_27_48:A I
*I vs_26_48:A I
*I vs_21_48:A I
*I vs_20_48:A I
*I vs_19_48:A I
*I vs_18_48:A I
*I vs_14_48:A I
*I vs_13_48:A I
*I vs_5_48:A I
*I vs_2_48:A I
*CAP
1 pgm_ln48:1 1.124973e-01
*RES
1 lt_ln48:Z pgm_ln48:1 1.276599e+02
2 pgm_ln48:1 vs_63_48:A 1.000000e-03
3 pgm_ln48:1 vs_61_48:A 1.000000e-03
4 pgm_ln48:1 vs_59_48:A 1.000000e-03
5 pgm_ln48:1 vs_58_48:A 1.000000e-03
6 pgm_ln48:1 vs_54_48:A 1.000000e-03
7 pgm_ln48:1 vs_53_48:A 1.000000e-03
8 pgm_ln48:1 vs_49_48:A 1.000000e-03
9 pgm_ln48:1 vs_48_48:A 1.000000e-03
10 pgm_ln48:1 vs_44_48:A 1.000000e-03
11 pgm_ln48:1 vs_43_48:A 1.000000e-03
12 pgm_ln48:1 vs_40_48:A 1.000000e-03
13 pgm_ln48:1 vs_39_48:A 1.000000e-03
14 pgm_ln48:1 vs_37_48:A 1.000000e-03
15 pgm_ln48:1 vs_35_48:A 1.000000e-03
16 pgm_ln48:1 vs_33_48:A 1.000000e-03
17 pgm_ln48:1 vs_31_48:A 1.000000e-03
18 pgm_ln48:1 vs_27_48:A 1.000000e-03
19 pgm_ln48:1 vs_26_48:A 1.000000e-03
20 pgm_ln48:1 vs_21_48:A 1.000000e-03
21 pgm_ln48:1 vs_20_48:A 1.000000e-03
22 pgm_ln48:1 vs_19_48:A 1.000000e-03
23 pgm_ln48:1 vs_18_48:A 1.000000e-03
24 pgm_ln48:1 vs_14_48:A 1.000000e-03
25 pgm_ln48:1 vs_13_48:A 1.000000e-03
26 pgm_ln48:1 vs_5_48:A 1.000000e-03
27 pgm_ln48:1 vs_2_48:A 1.000000e-03
*END

*D_NET pgm_ln49 1.126199e-01
*CONN
*I lt_ln49:Z O
*I vs_63_49:A I
*I vs_56_49:A I
*I vs_53_49:A I
*I vs_48_49:A I
*I vs_44_49:A I
*I vs_43_49:A I
*I vs_40_49:A I
*I vs_38_49:A I
*I vs_36_49:A I
*I vs_34_49:A I
*I vs_33_49:A I
*I vs_29_49:A I
*I vs_28_49:A I
*I vs_27_49:A I
*I vs_26_49:A I
*I vs_24_49:A I
*I vs_23_49:A I
*I vs_21_49:A I
*I vs_20_49:A I
*I vs_19_49:A I
*I vs_17_49:A I
*I vs_15_49:A I
*I vs_14_49:A I
*I vs_13_49:A I
*I vs_12_49:A I
*I vs_11_49:A I
*I vs_10_49:A I
*I vs_9_49:A I
*I vs_8_49:A I
*I vs_7_49:A I
*I vs_4_49:A I
*I vs_3_49:A I
*I vs_1_49:A I
*CAP
1 pgm_ln49:1 1.126199e-01
*RES
1 lt_ln49:Z pgm_ln49:1 1.272348e+02
2 pgm_ln49:1 vs_63_49:A 1.000000e-03
3 pgm_ln49:1 vs_56_49:A 1.000000e-03
4 pgm_ln49:1 vs_53_49:A 1.000000e-03
5 pgm_ln49:1 vs_48_49:A 1.000000e-03
6 pgm_ln49:1 vs_44_49:A 1.000000e-03
7 pgm_ln49:1 vs_43_49:A 1.000000e-03
8 pgm_ln49:1 vs_40_49:A 1.000000e-03
9 pgm_ln49:1 vs_38_49:A 1.000000e-03
10 pgm_ln49:1 vs_36_49:A 1.000000e-03
11 pgm_ln49:1 vs_34_49:A 1.000000e-03
12 pgm_ln49:1 vs_33_49:A 1.000000e-03
13 pgm_ln49:1 vs_29_49:A 1.000000e-03
14 pgm_ln49:1 vs_28_49:A 1.000000e-03
15 pgm_ln49:1 vs_27_49:A 1.000000e-03
16 pgm_ln49:1 vs_26_49:A 1.000000e-03
17 pgm_ln49:1 vs_24_49:A 1.000000e-03
18 pgm_ln49:1 vs_23_49:A 1.000000e-03
19 pgm_ln49:1 vs_21_49:A 1.000000e-03
20 pgm_ln49:1 vs_20_49:A 1.000000e-03
21 pgm_ln49:1 vs_19_49:A 1.000000e-03
22 pgm_ln49:1 vs_17_49:A 1.000000e-03
23 pgm_ln49:1 vs_15_49:A 1.000000e-03
24 pgm_ln49:1 vs_14_49:A 1.000000e-03
25 pgm_ln49:1 vs_13_49:A 1.000000e-03
26 pgm_ln49:1 vs_12_49:A 1.000000e-03
27 pgm_ln49:1 vs_11_49:A 1.000000e-03
28 pgm_ln49:1 vs_10_49:A 1.000000e-03
29 pgm_ln49:1 vs_9_49:A 1.000000e-03
30 pgm_ln49:1 vs_8_49:A 1.000000e-03
31 pgm_ln49:1 vs_7_49:A 1.000000e-03
32 pgm_ln49:1 vs_4_49:A 1.000000e-03
33 pgm_ln49:1 vs_3_49:A 1.000000e-03
34 pgm_ln49:1 vs_1_49:A 1.000000e-03
*END

*D_NET pgm_ln5 1.058033e-01
*CONN
*I lt_ln5:Z O
*I vs_62_5:A I
*I vs_60_5:A I
*I vs_59_5:A I
*I vs_48_5:A I
*I vs_47_5:A I
*I vs_41_5:A I
*I vs_38_5:A I
*I vs_37_5:A I
*I vs_33_5:A I
*I vs_30_5:A I
*I vs_29_5:A I
*I vs_28_5:A I
*I vs_27_5:A I
*I vs_22_5:A I
*I vs_20_5:A I
*I vs_17_5:A I
*I vs_13_5:A I
*I vs_11_5:A I
*I vs_8_5:A I
*I vs_3_5:A I
*CAP
1 pgm_ln5:1 1.058033e-01
*RES
1 lt_ln5:Z pgm_ln5:1 1.176508e+02
2 pgm_ln5:1 vs_62_5:A 1.000000e-03
3 pgm_ln5:1 vs_60_5:A 1.000000e-03
4 pgm_ln5:1 vs_59_5:A 1.000000e-03
5 pgm_ln5:1 vs_48_5:A 1.000000e-03
6 pgm_ln5:1 vs_47_5:A 1.000000e-03
7 pgm_ln5:1 vs_41_5:A 1.000000e-03
8 pgm_ln5:1 vs_38_5:A 1.000000e-03
9 pgm_ln5:1 vs_37_5:A 1.000000e-03
10 pgm_ln5:1 vs_33_5:A 1.000000e-03
11 pgm_ln5:1 vs_30_5:A 1.000000e-03
12 pgm_ln5:1 vs_29_5:A 1.000000e-03
13 pgm_ln5:1 vs_28_5:A 1.000000e-03
14 pgm_ln5:1 vs_27_5:A 1.000000e-03
15 pgm_ln5:1 vs_22_5:A 1.000000e-03
16 pgm_ln5:1 vs_20_5:A 1.000000e-03
17 pgm_ln5:1 vs_17_5:A 1.000000e-03
18 pgm_ln5:1 vs_13_5:A 1.000000e-03
19 pgm_ln5:1 vs_11_5:A 1.000000e-03
20 pgm_ln5:1 vs_8_5:A 1.000000e-03
21 pgm_ln5:1 vs_3_5:A 1.000000e-03
*END

*D_NET pgm_ln50 1.128847e-01
*CONN
*I lt_ln50:Z O
*I vs_62_50:A I
*I vs_59_50:A I
*I vs_58_50:A I
*I vs_53_50:A I
*I vs_52_50:A I
*I vs_50_50:A I
*I vs_47_50:A I
*I vs_46_50:A I
*I vs_43_50:A I
*I vs_42_50:A I
*I vs_37_50:A I
*I vs_34_50:A I
*I vs_28_50:A I
*I vs_26_50:A I
*I vs_23_50:A I
*I vs_19_50:A I
*I vs_17_50:A I
*I vs_11_50:A I
*I vs_9_50:A I
*I vs_5_50:A I
*I vs_0_50:A I
*CAP
1 pgm_ln50:1 1.128847e-01
*RES
1 lt_ln50:Z pgm_ln50:1 1.259746e+02
2 pgm_ln50:1 vs_62_50:A 1.000000e-03
3 pgm_ln50:1 vs_59_50:A 1.000000e-03
4 pgm_ln50:1 vs_58_50:A 1.000000e-03
5 pgm_ln50:1 vs_53_50:A 1.000000e-03
6 pgm_ln50:1 vs_52_50:A 1.000000e-03
7 pgm_ln50:1 vs_50_50:A 1.000000e-03
8 pgm_ln50:1 vs_47_50:A 1.000000e-03
9 pgm_ln50:1 vs_46_50:A 1.000000e-03
10 pgm_ln50:1 vs_43_50:A 1.000000e-03
11 pgm_ln50:1 vs_42_50:A 1.000000e-03
12 pgm_ln50:1 vs_37_50:A 1.000000e-03
13 pgm_ln50:1 vs_34_50:A 1.000000e-03
14 pgm_ln50:1 vs_28_50:A 1.000000e-03
15 pgm_ln50:1 vs_26_50:A 1.000000e-03
16 pgm_ln50:1 vs_23_50:A 1.000000e-03
17 pgm_ln50:1 vs_19_50:A 1.000000e-03
18 pgm_ln50:1 vs_17_50:A 1.000000e-03
19 pgm_ln50:1 vs_11_50:A 1.000000e-03
20 pgm_ln50:1 vs_9_50:A 1.000000e-03
21 pgm_ln50:1 vs_5_50:A 1.000000e-03
22 pgm_ln50:1 vs_0_50:A 1.000000e-03
*END

*D_NET pgm_ln51 1.132817e-01
*CONN
*I lt_ln51:Z O
*I vs_62_51:A I
*I vs_60_51:A I
*I vs_57_51:A I
*I vs_56_51:A I
*I vs_55_51:A I
*I vs_54_51:A I
*I vs_52_51:A I
*I vs_50_51:A I
*I vs_49_51:A I
*I vs_40_51:A I
*I vs_34_51:A I
*I vs_33_51:A I
*I vs_29_51:A I
*I vs_28_51:A I
*I vs_27_51:A I
*I vs_24_51:A I
*I vs_23_51:A I
*I vs_22_51:A I
*I vs_20_51:A I
*I vs_16_51:A I
*I vs_15_51:A I
*I vs_14_51:A I
*I vs_13_51:A I
*I vs_8_51:A I
*I vs_7_51:A I
*I vs_0_51:A I
*CAP
1 pgm_ln51:1 1.132817e-01
*RES
1 lt_ln51:Z pgm_ln51:1 1.264251e+02
2 pgm_ln51:1 vs_62_51:A 1.000000e-03
3 pgm_ln51:1 vs_60_51:A 1.000000e-03
4 pgm_ln51:1 vs_57_51:A 1.000000e-03
5 pgm_ln51:1 vs_56_51:A 1.000000e-03
6 pgm_ln51:1 vs_55_51:A 1.000000e-03
7 pgm_ln51:1 vs_54_51:A 1.000000e-03
8 pgm_ln51:1 vs_52_51:A 1.000000e-03
9 pgm_ln51:1 vs_50_51:A 1.000000e-03
10 pgm_ln51:1 vs_49_51:A 1.000000e-03
11 pgm_ln51:1 vs_40_51:A 1.000000e-03
12 pgm_ln51:1 vs_34_51:A 1.000000e-03
13 pgm_ln51:1 vs_33_51:A 1.000000e-03
14 pgm_ln51:1 vs_29_51:A 1.000000e-03
15 pgm_ln51:1 vs_28_51:A 1.000000e-03
16 pgm_ln51:1 vs_27_51:A 1.000000e-03
17 pgm_ln51:1 vs_24_51:A 1.000000e-03
18 pgm_ln51:1 vs_23_51:A 1.000000e-03
19 pgm_ln51:1 vs_22_51:A 1.000000e-03
20 pgm_ln51:1 vs_20_51:A 1.000000e-03
21 pgm_ln51:1 vs_16_51:A 1.000000e-03
22 pgm_ln51:1 vs_15_51:A 1.000000e-03
23 pgm_ln51:1 vs_14_51:A 1.000000e-03
24 pgm_ln51:1 vs_13_51:A 1.000000e-03
25 pgm_ln51:1 vs_8_51:A 1.000000e-03
26 pgm_ln51:1 vs_7_51:A 1.000000e-03
27 pgm_ln51:1 vs_0_51:A 1.000000e-03
*END

*D_NET pgm_ln52 1.095858e-01
*CONN
*I lt_ln52:Z O
*I vs_63_52:A I
*I vs_61_52:A I
*I vs_58_52:A I
*I vs_53_52:A I
*I vs_47_52:A I
*I vs_43_52:A I
*I vs_42_52:A I
*I vs_40_52:A I
*I vs_38_52:A I
*I vs_36_52:A I
*I vs_35_52:A I
*I vs_34_52:A I
*I vs_32_52:A I
*I vs_28_52:A I
*I vs_27_52:A I
*I vs_25_52:A I
*I vs_18_52:A I
*I vs_17_52:A I
*I vs_14_52:A I
*I vs_7_52:A I
*I vs_6_52:A I
*I vs_5_52:A I
*I vs_3_52:A I
*CAP
1 pgm_ln52:1 1.095858e-01
*RES
1 lt_ln52:Z pgm_ln52:1 1.236478e+02
2 pgm_ln52:1 vs_63_52:A 1.000000e-03
3 pgm_ln52:1 vs_61_52:A 1.000000e-03
4 pgm_ln52:1 vs_58_52:A 1.000000e-03
5 pgm_ln52:1 vs_53_52:A 1.000000e-03
6 pgm_ln52:1 vs_47_52:A 1.000000e-03
7 pgm_ln52:1 vs_43_52:A 1.000000e-03
8 pgm_ln52:1 vs_42_52:A 1.000000e-03
9 pgm_ln52:1 vs_40_52:A 1.000000e-03
10 pgm_ln52:1 vs_38_52:A 1.000000e-03
11 pgm_ln52:1 vs_36_52:A 1.000000e-03
12 pgm_ln52:1 vs_35_52:A 1.000000e-03
13 pgm_ln52:1 vs_34_52:A 1.000000e-03
14 pgm_ln52:1 vs_32_52:A 1.000000e-03
15 pgm_ln52:1 vs_28_52:A 1.000000e-03
16 pgm_ln52:1 vs_27_52:A 1.000000e-03
17 pgm_ln52:1 vs_25_52:A 1.000000e-03
18 pgm_ln52:1 vs_18_52:A 1.000000e-03
19 pgm_ln52:1 vs_17_52:A 1.000000e-03
20 pgm_ln52:1 vs_14_52:A 1.000000e-03
21 pgm_ln52:1 vs_7_52:A 1.000000e-03
22 pgm_ln52:1 vs_6_52:A 1.000000e-03
23 pgm_ln52:1 vs_5_52:A 1.000000e-03
24 pgm_ln52:1 vs_3_52:A 1.000000e-03
*END

*D_NET pgm_ln53 1.058580e-01
*CONN
*I lt_ln53:Z O
*I vs_63_53:A I
*I vs_62_53:A I
*I vs_58_53:A I
*I vs_56_53:A I
*I vs_50_53:A I
*I vs_47_53:A I
*I vs_46_53:A I
*I vs_45_53:A I
*I vs_44_53:A I
*I vs_43_53:A I
*I vs_41_53:A I
*I vs_36_53:A I
*I vs_34_53:A I
*I vs_30_53:A I
*I vs_28_53:A I
*I vs_23_53:A I
*I vs_18_53:A I
*I vs_17_53:A I
*I vs_16_53:A I
*I vs_14_53:A I
*I vs_12_53:A I
*I vs_11_53:A I
*I vs_9_53:A I
*I vs_8_53:A I
*I vs_7_53:A I
*I vs_5_53:A I
*I vs_4_53:A I
*I vs_3_53:A I
*I vs_2_53:A I
*CAP
1 pgm_ln53:1 1.058580e-01
*RES
1 lt_ln53:Z pgm_ln53:1 1.187530e+02
2 pgm_ln53:1 vs_63_53:A 1.000000e-03
3 pgm_ln53:1 vs_62_53:A 1.000000e-03
4 pgm_ln53:1 vs_58_53:A 1.000000e-03
5 pgm_ln53:1 vs_56_53:A 1.000000e-03
6 pgm_ln53:1 vs_50_53:A 1.000000e-03
7 pgm_ln53:1 vs_47_53:A 1.000000e-03
8 pgm_ln53:1 vs_46_53:A 1.000000e-03
9 pgm_ln53:1 vs_45_53:A 1.000000e-03
10 pgm_ln53:1 vs_44_53:A 1.000000e-03
11 pgm_ln53:1 vs_43_53:A 1.000000e-03
12 pgm_ln53:1 vs_41_53:A 1.000000e-03
13 pgm_ln53:1 vs_36_53:A 1.000000e-03
14 pgm_ln53:1 vs_34_53:A 1.000000e-03
15 pgm_ln53:1 vs_30_53:A 1.000000e-03
16 pgm_ln53:1 vs_28_53:A 1.000000e-03
17 pgm_ln53:1 vs_23_53:A 1.000000e-03
18 pgm_ln53:1 vs_18_53:A 1.000000e-03
19 pgm_ln53:1 vs_17_53:A 1.000000e-03
20 pgm_ln53:1 vs_16_53:A 1.000000e-03
21 pgm_ln53:1 vs_14_53:A 1.000000e-03
22 pgm_ln53:1 vs_12_53:A 1.000000e-03
23 pgm_ln53:1 vs_11_53:A 1.000000e-03
24 pgm_ln53:1 vs_9_53:A 1.000000e-03
25 pgm_ln53:1 vs_8_53:A 1.000000e-03
26 pgm_ln53:1 vs_7_53:A 1.000000e-03
27 pgm_ln53:1 vs_5_53:A 1.000000e-03
28 pgm_ln53:1 vs_4_53:A 1.000000e-03
29 pgm_ln53:1 vs_3_53:A 1.000000e-03
30 pgm_ln53:1 vs_2_53:A 1.000000e-03
*END

*D_NET pgm_ln54 1.003449e-01
*CONN
*I lt_ln54:Z O
*I vs_63_54:A I
*I vs_61_54:A I
*I vs_60_54:A I
*I vs_59_54:A I
*I vs_58_54:A I
*I vs_57_54:A I
*I vs_55_54:A I
*I vs_54_54:A I
*I vs_49_54:A I
*I vs_48_54:A I
*I vs_47_54:A I
*I vs_43_54:A I
*I vs_36_54:A I
*I vs_35_54:A I
*I vs_32_54:A I
*I vs_29_54:A I
*I vs_27_54:A I
*I vs_24_54:A I
*I vs_23_54:A I
*I vs_22_54:A I
*I vs_21_54:A I
*I vs_19_54:A I
*I vs_18_54:A I
*I vs_17_54:A I
*I vs_16_54:A I
*I vs_15_54:A I
*I vs_11_54:A I
*I vs_9_54:A I
*I vs_4_54:A I
*I vs_3_54:A I
*CAP
1 pgm_ln54:1 1.003449e-01
*RES
1 lt_ln54:Z pgm_ln54:1 1.138696e+02
2 pgm_ln54:1 vs_63_54:A 1.000000e-03
3 pgm_ln54:1 vs_61_54:A 1.000000e-03
4 pgm_ln54:1 vs_60_54:A 1.000000e-03
5 pgm_ln54:1 vs_59_54:A 1.000000e-03
6 pgm_ln54:1 vs_58_54:A 1.000000e-03
7 pgm_ln54:1 vs_57_54:A 1.000000e-03
8 pgm_ln54:1 vs_55_54:A 1.000000e-03
9 pgm_ln54:1 vs_54_54:A 1.000000e-03
10 pgm_ln54:1 vs_49_54:A 1.000000e-03
11 pgm_ln54:1 vs_48_54:A 1.000000e-03
12 pgm_ln54:1 vs_47_54:A 1.000000e-03
13 pgm_ln54:1 vs_43_54:A 1.000000e-03
14 pgm_ln54:1 vs_36_54:A 1.000000e-03
15 pgm_ln54:1 vs_35_54:A 1.000000e-03
16 pgm_ln54:1 vs_32_54:A 1.000000e-03
17 pgm_ln54:1 vs_29_54:A 1.000000e-03
18 pgm_ln54:1 vs_27_54:A 1.000000e-03
19 pgm_ln54:1 vs_24_54:A 1.000000e-03
20 pgm_ln54:1 vs_23_54:A 1.000000e-03
21 pgm_ln54:1 vs_22_54:A 1.000000e-03
22 pgm_ln54:1 vs_21_54:A 1.000000e-03
23 pgm_ln54:1 vs_19_54:A 1.000000e-03
24 pgm_ln54:1 vs_18_54:A 1.000000e-03
25 pgm_ln54:1 vs_17_54:A 1.000000e-03
26 pgm_ln54:1 vs_16_54:A 1.000000e-03
27 pgm_ln54:1 vs_15_54:A 1.000000e-03
28 pgm_ln54:1 vs_11_54:A 1.000000e-03
29 pgm_ln54:1 vs_9_54:A 1.000000e-03
30 pgm_ln54:1 vs_4_54:A 1.000000e-03
31 pgm_ln54:1 vs_3_54:A 1.000000e-03
*END

*D_NET pgm_ln55 1.158410e-01
*CONN
*I lt_ln55:Z O
*I vs_61_55:A I
*I vs_60_55:A I
*I vs_58_55:A I
*I vs_56_55:A I
*I vs_55_55:A I
*I vs_54_55:A I
*I vs_51_55:A I
*I vs_49_55:A I
*I vs_46_55:A I
*I vs_42_55:A I
*I vs_41_55:A I
*I vs_37_55:A I
*I vs_34_55:A I
*I vs_31_55:A I
*I vs_30_55:A I
*I vs_29_55:A I
*I vs_28_55:A I
*I vs_27_55:A I
*I vs_25_55:A I
*I vs_17_55:A I
*I vs_16_55:A I
*I vs_14_55:A I
*I vs_12_55:A I
*I vs_9_55:A I
*I vs_8_55:A I
*I vs_7_55:A I
*I vs_6_55:A I
*I vs_5_55:A I
*I vs_2_55:A I
*I vs_1_55:A I
*CAP
1 pgm_ln55:1 1.158410e-01
*RES
1 lt_ln55:Z pgm_ln55:1 1.301817e+02
2 pgm_ln55:1 vs_61_55:A 1.000000e-03
3 pgm_ln55:1 vs_60_55:A 1.000000e-03
4 pgm_ln55:1 vs_58_55:A 1.000000e-03
5 pgm_ln55:1 vs_56_55:A 1.000000e-03
6 pgm_ln55:1 vs_55_55:A 1.000000e-03
7 pgm_ln55:1 vs_54_55:A 1.000000e-03
8 pgm_ln55:1 vs_51_55:A 1.000000e-03
9 pgm_ln55:1 vs_49_55:A 1.000000e-03
10 pgm_ln55:1 vs_46_55:A 1.000000e-03
11 pgm_ln55:1 vs_42_55:A 1.000000e-03
12 pgm_ln55:1 vs_41_55:A 1.000000e-03
13 pgm_ln55:1 vs_37_55:A 1.000000e-03
14 pgm_ln55:1 vs_34_55:A 1.000000e-03
15 pgm_ln55:1 vs_31_55:A 1.000000e-03
16 pgm_ln55:1 vs_30_55:A 1.000000e-03
17 pgm_ln55:1 vs_29_55:A 1.000000e-03
18 pgm_ln55:1 vs_28_55:A 1.000000e-03
19 pgm_ln55:1 vs_27_55:A 1.000000e-03
20 pgm_ln55:1 vs_25_55:A 1.000000e-03
21 pgm_ln55:1 vs_17_55:A 1.000000e-03
22 pgm_ln55:1 vs_16_55:A 1.000000e-03
23 pgm_ln55:1 vs_14_55:A 1.000000e-03
24 pgm_ln55:1 vs_12_55:A 1.000000e-03
25 pgm_ln55:1 vs_9_55:A 1.000000e-03
26 pgm_ln55:1 vs_8_55:A 1.000000e-03
27 pgm_ln55:1 vs_7_55:A 1.000000e-03
28 pgm_ln55:1 vs_6_55:A 1.000000e-03
29 pgm_ln55:1 vs_5_55:A 1.000000e-03
30 pgm_ln55:1 vs_2_55:A 1.000000e-03
31 pgm_ln55:1 vs_1_55:A 1.000000e-03
*END

*D_NET pgm_ln56 1.113983e-01
*CONN
*I lt_ln56:Z O
*I vs_62_56:A I
*I vs_53_56:A I
*I vs_52_56:A I
*I vs_46_56:A I
*I vs_45_56:A I
*I vs_43_56:A I
*I vs_41_56:A I
*I vs_36_56:A I
*I vs_32_56:A I
*I vs_31_56:A I
*I vs_29_56:A I
*I vs_28_56:A I
*I vs_26_56:A I
*I vs_25_56:A I
*I vs_24_56:A I
*I vs_23_56:A I
*I vs_20_56:A I
*I vs_16_56:A I
*I vs_13_56:A I
*I vs_11_56:A I
*I vs_10_56:A I
*I vs_8_56:A I
*I vs_6_56:A I
*I vs_5_56:A I
*I vs_4_56:A I
*I vs_3_56:A I
*I vs_2_56:A I
*I vs_1_56:A I
*I vs_0_56:A I
*CAP
1 pgm_ln56:1 1.113983e-01
*RES
1 lt_ln56:Z pgm_ln56:1 1.241762e+02
2 pgm_ln56:1 vs_62_56:A 1.000000e-03
3 pgm_ln56:1 vs_53_56:A 1.000000e-03
4 pgm_ln56:1 vs_52_56:A 1.000000e-03
5 pgm_ln56:1 vs_46_56:A 1.000000e-03
6 pgm_ln56:1 vs_45_56:A 1.000000e-03
7 pgm_ln56:1 vs_43_56:A 1.000000e-03
8 pgm_ln56:1 vs_41_56:A 1.000000e-03
9 pgm_ln56:1 vs_36_56:A 1.000000e-03
10 pgm_ln56:1 vs_32_56:A 1.000000e-03
11 pgm_ln56:1 vs_31_56:A 1.000000e-03
12 pgm_ln56:1 vs_29_56:A 1.000000e-03
13 pgm_ln56:1 vs_28_56:A 1.000000e-03
14 pgm_ln56:1 vs_26_56:A 1.000000e-03
15 pgm_ln56:1 vs_25_56:A 1.000000e-03
16 pgm_ln56:1 vs_24_56:A 1.000000e-03
17 pgm_ln56:1 vs_23_56:A 1.000000e-03
18 pgm_ln56:1 vs_20_56:A 1.000000e-03
19 pgm_ln56:1 vs_16_56:A 1.000000e-03
20 pgm_ln56:1 vs_13_56:A 1.000000e-03
21 pgm_ln56:1 vs_11_56:A 1.000000e-03
22 pgm_ln56:1 vs_10_56:A 1.000000e-03
23 pgm_ln56:1 vs_8_56:A 1.000000e-03
24 pgm_ln56:1 vs_6_56:A 1.000000e-03
25 pgm_ln56:1 vs_5_56:A 1.000000e-03
26 pgm_ln56:1 vs_4_56:A 1.000000e-03
27 pgm_ln56:1 vs_3_56:A 1.000000e-03
28 pgm_ln56:1 vs_2_56:A 1.000000e-03
29 pgm_ln56:1 vs_1_56:A 1.000000e-03
30 pgm_ln56:1 vs_0_56:A 1.000000e-03
*END

*D_NET pgm_ln57 1.108550e-01
*CONN
*I lt_ln57:Z O
*I vs_61_57:A I
*I vs_56_57:A I
*I vs_53_57:A I
*I vs_52_57:A I
*I vs_51_57:A I
*I vs_50_57:A I
*I vs_49_57:A I
*I vs_48_57:A I
*I vs_46_57:A I
*I vs_40_57:A I
*I vs_38_57:A I
*I vs_37_57:A I
*I vs_36_57:A I
*I vs_35_57:A I
*I vs_34_57:A I
*I vs_32_57:A I
*I vs_31_57:A I
*I vs_29_57:A I
*I vs_28_57:A I
*I vs_25_57:A I
*I vs_24_57:A I
*I vs_23_57:A I
*I vs_22_57:A I
*I vs_19_57:A I
*I vs_17_57:A I
*I vs_16_57:A I
*I vs_10_57:A I
*I vs_8_57:A I
*I vs_2_57:A I
*I vs_1_57:A I
*CAP
1 pgm_ln57:1 1.108550e-01
*RES
1 lt_ln57:Z pgm_ln57:1 1.245237e+02
2 pgm_ln57:1 vs_61_57:A 1.000000e-03
3 pgm_ln57:1 vs_56_57:A 1.000000e-03
4 pgm_ln57:1 vs_53_57:A 1.000000e-03
5 pgm_ln57:1 vs_52_57:A 1.000000e-03
6 pgm_ln57:1 vs_51_57:A 1.000000e-03
7 pgm_ln57:1 vs_50_57:A 1.000000e-03
8 pgm_ln57:1 vs_49_57:A 1.000000e-03
9 pgm_ln57:1 vs_48_57:A 1.000000e-03
10 pgm_ln57:1 vs_46_57:A 1.000000e-03
11 pgm_ln57:1 vs_40_57:A 1.000000e-03
12 pgm_ln57:1 vs_38_57:A 1.000000e-03
13 pgm_ln57:1 vs_37_57:A 1.000000e-03
14 pgm_ln57:1 vs_36_57:A 1.000000e-03
15 pgm_ln57:1 vs_35_57:A 1.000000e-03
16 pgm_ln57:1 vs_34_57:A 1.000000e-03
17 pgm_ln57:1 vs_32_57:A 1.000000e-03
18 pgm_ln57:1 vs_31_57:A 1.000000e-03
19 pgm_ln57:1 vs_29_57:A 1.000000e-03
20 pgm_ln57:1 vs_28_57:A 1.000000e-03
21 pgm_ln57:1 vs_25_57:A 1.000000e-03
22 pgm_ln57:1 vs_24_57:A 1.000000e-03
23 pgm_ln57:1 vs_23_57:A 1.000000e-03
24 pgm_ln57:1 vs_22_57:A 1.000000e-03
25 pgm_ln57:1 vs_19_57:A 1.000000e-03
26 pgm_ln57:1 vs_17_57:A 1.000000e-03
27 pgm_ln57:1 vs_16_57:A 1.000000e-03
28 pgm_ln57:1 vs_10_57:A 1.000000e-03
29 pgm_ln57:1 vs_8_57:A 1.000000e-03
30 pgm_ln57:1 vs_2_57:A 1.000000e-03
31 pgm_ln57:1 vs_1_57:A 1.000000e-03
*END

*D_NET pgm_ln58 1.089079e-01
*CONN
*I lt_ln58:Z O
*I vs_63_58:A I
*I vs_61_58:A I
*I vs_60_58:A I
*I vs_57_58:A I
*I vs_55_58:A I
*I vs_54_58:A I
*I vs_52_58:A I
*I vs_50_58:A I
*I vs_49_58:A I
*I vs_47_58:A I
*I vs_46_58:A I
*I vs_45_58:A I
*I vs_43_58:A I
*I vs_40_58:A I
*I vs_39_58:A I
*I vs_36_58:A I
*I vs_35_58:A I
*I vs_33_58:A I
*I vs_30_58:A I
*I vs_29_58:A I
*I vs_28_58:A I
*I vs_26_58:A I
*I vs_25_58:A I
*I vs_22_58:A I
*I vs_21_58:A I
*I vs_20_58:A I
*I vs_18_58:A I
*I vs_17_58:A I
*I vs_16_58:A I
*I vs_15_58:A I
*I vs_12_58:A I
*I vs_11_58:A I
*I vs_10_58:A I
*I vs_6_58:A I
*I vs_4_58:A I
*I vs_3_58:A I
*CAP
1 pgm_ln58:1 1.089079e-01
*RES
1 lt_ln58:Z pgm_ln58:1 1.230224e+02
2 pgm_ln58:1 vs_63_58:A 1.000000e-03
3 pgm_ln58:1 vs_61_58:A 1.000000e-03
4 pgm_ln58:1 vs_60_58:A 1.000000e-03
5 pgm_ln58:1 vs_57_58:A 1.000000e-03
6 pgm_ln58:1 vs_55_58:A 1.000000e-03
7 pgm_ln58:1 vs_54_58:A 1.000000e-03
8 pgm_ln58:1 vs_52_58:A 1.000000e-03
9 pgm_ln58:1 vs_50_58:A 1.000000e-03
10 pgm_ln58:1 vs_49_58:A 1.000000e-03
11 pgm_ln58:1 vs_47_58:A 1.000000e-03
12 pgm_ln58:1 vs_46_58:A 1.000000e-03
13 pgm_ln58:1 vs_45_58:A 1.000000e-03
14 pgm_ln58:1 vs_43_58:A 1.000000e-03
15 pgm_ln58:1 vs_40_58:A 1.000000e-03
16 pgm_ln58:1 vs_39_58:A 1.000000e-03
17 pgm_ln58:1 vs_36_58:A 1.000000e-03
18 pgm_ln58:1 vs_35_58:A 1.000000e-03
19 pgm_ln58:1 vs_33_58:A 1.000000e-03
20 pgm_ln58:1 vs_30_58:A 1.000000e-03
21 pgm_ln58:1 vs_29_58:A 1.000000e-03
22 pgm_ln58:1 vs_28_58:A 1.000000e-03
23 pgm_ln58:1 vs_26_58:A 1.000000e-03
24 pgm_ln58:1 vs_25_58:A 1.000000e-03
25 pgm_ln58:1 vs_22_58:A 1.000000e-03
26 pgm_ln58:1 vs_21_58:A 1.000000e-03
27 pgm_ln58:1 vs_20_58:A 1.000000e-03
28 pgm_ln58:1 vs_18_58:A 1.000000e-03
29 pgm_ln58:1 vs_17_58:A 1.000000e-03
30 pgm_ln58:1 vs_16_58:A 1.000000e-03
31 pgm_ln58:1 vs_15_58:A 1.000000e-03
32 pgm_ln58:1 vs_12_58:A 1.000000e-03
33 pgm_ln58:1 vs_11_58:A 1.000000e-03
34 pgm_ln58:1 vs_10_58:A 1.000000e-03
35 pgm_ln58:1 vs_6_58:A 1.000000e-03
36 pgm_ln58:1 vs_4_58:A 1.000000e-03
37 pgm_ln58:1 vs_3_58:A 1.000000e-03
*END

*D_NET pgm_ln59 1.177201e-01
*CONN
*I lt_ln59:Z O
*I vs_61_59:A I
*I vs_59_59:A I
*I vs_57_59:A I
*I vs_56_59:A I
*I vs_55_59:A I
*I vs_54_59:A I
*I vs_52_59:A I
*I vs_49_59:A I
*I vs_47_59:A I
*I vs_46_59:A I
*I vs_45_59:A I
*I vs_44_59:A I
*I vs_43_59:A I
*I vs_42_59:A I
*I vs_40_59:A I
*I vs_39_59:A I
*I vs_34_59:A I
*I vs_32_59:A I
*I vs_31_59:A I
*I vs_29_59:A I
*I vs_28_59:A I
*I vs_23_59:A I
*I vs_22_59:A I
*I vs_18_59:A I
*I vs_16_59:A I
*I vs_14_59:A I
*I vs_13_59:A I
*I vs_12_59:A I
*I vs_10_59:A I
*I vs_9_59:A I
*I vs_8_59:A I
*I vs_7_59:A I
*I vs_4_59:A I
*I vs_0_59:A I
*CAP
1 pgm_ln59:1 1.177201e-01
*RES
1 lt_ln59:Z pgm_ln59:1 1.322139e+02
2 pgm_ln59:1 vs_61_59:A 1.000000e-03
3 pgm_ln59:1 vs_59_59:A 1.000000e-03
4 pgm_ln59:1 vs_57_59:A 1.000000e-03
5 pgm_ln59:1 vs_56_59:A 1.000000e-03
6 pgm_ln59:1 vs_55_59:A 1.000000e-03
7 pgm_ln59:1 vs_54_59:A 1.000000e-03
8 pgm_ln59:1 vs_52_59:A 1.000000e-03
9 pgm_ln59:1 vs_49_59:A 1.000000e-03
10 pgm_ln59:1 vs_47_59:A 1.000000e-03
11 pgm_ln59:1 vs_46_59:A 1.000000e-03
12 pgm_ln59:1 vs_45_59:A 1.000000e-03
13 pgm_ln59:1 vs_44_59:A 1.000000e-03
14 pgm_ln59:1 vs_43_59:A 1.000000e-03
15 pgm_ln59:1 vs_42_59:A 1.000000e-03
16 pgm_ln59:1 vs_40_59:A 1.000000e-03
17 pgm_ln59:1 vs_39_59:A 1.000000e-03
18 pgm_ln59:1 vs_34_59:A 1.000000e-03
19 pgm_ln59:1 vs_32_59:A 1.000000e-03
20 pgm_ln59:1 vs_31_59:A 1.000000e-03
21 pgm_ln59:1 vs_29_59:A 1.000000e-03
22 pgm_ln59:1 vs_28_59:A 1.000000e-03
23 pgm_ln59:1 vs_23_59:A 1.000000e-03
24 pgm_ln59:1 vs_22_59:A 1.000000e-03
25 pgm_ln59:1 vs_18_59:A 1.000000e-03
26 pgm_ln59:1 vs_16_59:A 1.000000e-03
27 pgm_ln59:1 vs_14_59:A 1.000000e-03
28 pgm_ln59:1 vs_13_59:A 1.000000e-03
29 pgm_ln59:1 vs_12_59:A 1.000000e-03
30 pgm_ln59:1 vs_10_59:A 1.000000e-03
31 pgm_ln59:1 vs_9_59:A 1.000000e-03
32 pgm_ln59:1 vs_8_59:A 1.000000e-03
33 pgm_ln59:1 vs_7_59:A 1.000000e-03
34 pgm_ln59:1 vs_4_59:A 1.000000e-03
35 pgm_ln59:1 vs_0_59:A 1.000000e-03
*END

*D_NET pgm_ln6 1.197426e-01
*CONN
*I lt_ln6:Z O
*I vs_63_6:A I
*I vs_62_6:A I
*I vs_61_6:A I
*I vs_60_6:A I
*I vs_55_6:A I
*I vs_54_6:A I
*I vs_52_6:A I
*I vs_48_6:A I
*I vs_44_6:A I
*I vs_43_6:A I
*I vs_41_6:A I
*I vs_39_6:A I
*I vs_38_6:A I
*I vs_37_6:A I
*I vs_36_6:A I
*I vs_35_6:A I
*I vs_33_6:A I
*I vs_31_6:A I
*I vs_30_6:A I
*I vs_27_6:A I
*I vs_26_6:A I
*I vs_25_6:A I
*I vs_24_6:A I
*I vs_22_6:A I
*I vs_21_6:A I
*I vs_19_6:A I
*I vs_17_6:A I
*I vs_14_6:A I
*I vs_13_6:A I
*I vs_10_6:A I
*I vs_9_6:A I
*I vs_5_6:A I
*I vs_4_6:A I
*I vs_3_6:A I
*I vs_0_6:A I
*CAP
1 pgm_ln6:1 1.197426e-01
*RES
1 lt_ln6:Z pgm_ln6:1 1.336070e+02
2 pgm_ln6:1 vs_63_6:A 1.000000e-03
3 pgm_ln6:1 vs_62_6:A 1.000000e-03
4 pgm_ln6:1 vs_61_6:A 1.000000e-03
5 pgm_ln6:1 vs_60_6:A 1.000000e-03
6 pgm_ln6:1 vs_55_6:A 1.000000e-03
7 pgm_ln6:1 vs_54_6:A 1.000000e-03
8 pgm_ln6:1 vs_52_6:A 1.000000e-03
9 pgm_ln6:1 vs_48_6:A 1.000000e-03
10 pgm_ln6:1 vs_44_6:A 1.000000e-03
11 pgm_ln6:1 vs_43_6:A 1.000000e-03
12 pgm_ln6:1 vs_41_6:A 1.000000e-03
13 pgm_ln6:1 vs_39_6:A 1.000000e-03
14 pgm_ln6:1 vs_38_6:A 1.000000e-03
15 pgm_ln6:1 vs_37_6:A 1.000000e-03
16 pgm_ln6:1 vs_36_6:A 1.000000e-03
17 pgm_ln6:1 vs_35_6:A 1.000000e-03
18 pgm_ln6:1 vs_33_6:A 1.000000e-03
19 pgm_ln6:1 vs_31_6:A 1.000000e-03
20 pgm_ln6:1 vs_30_6:A 1.000000e-03
21 pgm_ln6:1 vs_27_6:A 1.000000e-03
22 pgm_ln6:1 vs_26_6:A 1.000000e-03
23 pgm_ln6:1 vs_25_6:A 1.000000e-03
24 pgm_ln6:1 vs_24_6:A 1.000000e-03
25 pgm_ln6:1 vs_22_6:A 1.000000e-03
26 pgm_ln6:1 vs_21_6:A 1.000000e-03
27 pgm_ln6:1 vs_19_6:A 1.000000e-03
28 pgm_ln6:1 vs_17_6:A 1.000000e-03
29 pgm_ln6:1 vs_14_6:A 1.000000e-03
30 pgm_ln6:1 vs_13_6:A 1.000000e-03
31 pgm_ln6:1 vs_10_6:A 1.000000e-03
32 pgm_ln6:1 vs_9_6:A 1.000000e-03
33 pgm_ln6:1 vs_5_6:A 1.000000e-03
34 pgm_ln6:1 vs_4_6:A 1.000000e-03
35 pgm_ln6:1 vs_3_6:A 1.000000e-03
36 pgm_ln6:1 vs_0_6:A 1.000000e-03
*END

*D_NET pgm_ln60 9.163525e-02
*CONN
*I lt_ln60:Z O
*I vs_52_60:A I
*I vs_48_60:A I
*I vs_47_60:A I
*I vs_45_60:A I
*I vs_43_60:A I
*I vs_40_60:A I
*I vs_36_60:A I
*I vs_35_60:A I
*I vs_33_60:A I
*I vs_32_60:A I
*I vs_31_60:A I
*I vs_29_60:A I
*I vs_27_60:A I
*I vs_25_60:A I
*I vs_18_60:A I
*I vs_16_60:A I
*I vs_8_60:A I
*I vs_6_60:A I
*I vs_5_60:A I
*I vs_4_60:A I
*I vs_0_60:A I
*CAP
1 pgm_ln60:1 9.163525e-02
*RES
1 lt_ln60:Z pgm_ln60:1 1.031338e+02
2 pgm_ln60:1 vs_52_60:A 1.000000e-03
3 pgm_ln60:1 vs_48_60:A 1.000000e-03
4 pgm_ln60:1 vs_47_60:A 1.000000e-03
5 pgm_ln60:1 vs_45_60:A 1.000000e-03
6 pgm_ln60:1 vs_43_60:A 1.000000e-03
7 pgm_ln60:1 vs_40_60:A 1.000000e-03
8 pgm_ln60:1 vs_36_60:A 1.000000e-03
9 pgm_ln60:1 vs_35_60:A 1.000000e-03
10 pgm_ln60:1 vs_33_60:A 1.000000e-03
11 pgm_ln60:1 vs_32_60:A 1.000000e-03
12 pgm_ln60:1 vs_31_60:A 1.000000e-03
13 pgm_ln60:1 vs_29_60:A 1.000000e-03
14 pgm_ln60:1 vs_27_60:A 1.000000e-03
15 pgm_ln60:1 vs_25_60:A 1.000000e-03
16 pgm_ln60:1 vs_18_60:A 1.000000e-03
17 pgm_ln60:1 vs_16_60:A 1.000000e-03
18 pgm_ln60:1 vs_8_60:A 1.000000e-03
19 pgm_ln60:1 vs_6_60:A 1.000000e-03
20 pgm_ln60:1 vs_5_60:A 1.000000e-03
21 pgm_ln60:1 vs_4_60:A 1.000000e-03
22 pgm_ln60:1 vs_0_60:A 1.000000e-03
*END

*D_NET pgm_ln61 1.143948e-01
*CONN
*I lt_ln61:Z O
*I vs_62_61:A I
*I vs_60_61:A I
*I vs_58_61:A I
*I vs_57_61:A I
*I vs_56_61:A I
*I vs_55_61:A I
*I vs_54_61:A I
*I vs_53_61:A I
*I vs_50_61:A I
*I vs_48_61:A I
*I vs_47_61:A I
*I vs_43_61:A I
*I vs_40_61:A I
*I vs_38_61:A I
*I vs_36_61:A I
*I vs_35_61:A I
*I vs_34_61:A I
*I vs_33_61:A I
*I vs_32_61:A I
*I vs_28_61:A I
*I vs_26_61:A I
*I vs_25_61:A I
*I vs_23_61:A I
*I vs_18_61:A I
*I vs_17_61:A I
*I vs_16_61:A I
*I vs_14_61:A I
*I vs_12_61:A I
*I vs_10_61:A I
*I vs_8_61:A I
*I vs_1_61:A I
*I vs_0_61:A I
*CAP
1 pgm_ln61:1 1.143948e-01
*RES
1 lt_ln61:Z pgm_ln61:1 1.283966e+02
2 pgm_ln61:1 vs_62_61:A 1.000000e-03
3 pgm_ln61:1 vs_60_61:A 1.000000e-03
4 pgm_ln61:1 vs_58_61:A 1.000000e-03
5 pgm_ln61:1 vs_57_61:A 1.000000e-03
6 pgm_ln61:1 vs_56_61:A 1.000000e-03
7 pgm_ln61:1 vs_55_61:A 1.000000e-03
8 pgm_ln61:1 vs_54_61:A 1.000000e-03
9 pgm_ln61:1 vs_53_61:A 1.000000e-03
10 pgm_ln61:1 vs_50_61:A 1.000000e-03
11 pgm_ln61:1 vs_48_61:A 1.000000e-03
12 pgm_ln61:1 vs_47_61:A 1.000000e-03
13 pgm_ln61:1 vs_43_61:A 1.000000e-03
14 pgm_ln61:1 vs_40_61:A 1.000000e-03
15 pgm_ln61:1 vs_38_61:A 1.000000e-03
16 pgm_ln61:1 vs_36_61:A 1.000000e-03
17 pgm_ln61:1 vs_35_61:A 1.000000e-03
18 pgm_ln61:1 vs_34_61:A 1.000000e-03
19 pgm_ln61:1 vs_33_61:A 1.000000e-03
20 pgm_ln61:1 vs_32_61:A 1.000000e-03
21 pgm_ln61:1 vs_28_61:A 1.000000e-03
22 pgm_ln61:1 vs_26_61:A 1.000000e-03
23 pgm_ln61:1 vs_25_61:A 1.000000e-03
24 pgm_ln61:1 vs_23_61:A 1.000000e-03
25 pgm_ln61:1 vs_18_61:A 1.000000e-03
26 pgm_ln61:1 vs_17_61:A 1.000000e-03
27 pgm_ln61:1 vs_16_61:A 1.000000e-03
28 pgm_ln61:1 vs_14_61:A 1.000000e-03
29 pgm_ln61:1 vs_12_61:A 1.000000e-03
30 pgm_ln61:1 vs_10_61:A 1.000000e-03
31 pgm_ln61:1 vs_8_61:A 1.000000e-03
32 pgm_ln61:1 vs_1_61:A 1.000000e-03
33 pgm_ln61:1 vs_0_61:A 1.000000e-03
*END

*D_NET pgm_ln62 1.166293e-01
*CONN
*I lt_ln62:Z O
*I vs_63_62:A I
*I vs_62_62:A I
*I vs_61_62:A I
*I vs_60_62:A I
*I vs_59_62:A I
*I vs_58_62:A I
*I vs_57_62:A I
*I vs_55_62:A I
*I vs_53_62:A I
*I vs_51_62:A I
*I vs_46_62:A I
*I vs_43_62:A I
*I vs_42_62:A I
*I vs_40_62:A I
*I vs_38_62:A I
*I vs_37_62:A I
*I vs_36_62:A I
*I vs_34_62:A I
*I vs_31_62:A I
*I vs_28_62:A I
*I vs_27_62:A I
*I vs_14_62:A I
*I vs_12_62:A I
*I vs_11_62:A I
*I vs_9_62:A I
*I vs_7_62:A I
*I vs_6_62:A I
*I vs_1_62:A I
*CAP
1 pgm_ln62:1 1.166293e-01
*RES
1 lt_ln62:Z pgm_ln62:1 1.298358e+02
2 pgm_ln62:1 vs_63_62:A 1.000000e-03
3 pgm_ln62:1 vs_62_62:A 1.000000e-03
4 pgm_ln62:1 vs_61_62:A 1.000000e-03
5 pgm_ln62:1 vs_60_62:A 1.000000e-03
6 pgm_ln62:1 vs_59_62:A 1.000000e-03
7 pgm_ln62:1 vs_58_62:A 1.000000e-03
8 pgm_ln62:1 vs_57_62:A 1.000000e-03
9 pgm_ln62:1 vs_55_62:A 1.000000e-03
10 pgm_ln62:1 vs_53_62:A 1.000000e-03
11 pgm_ln62:1 vs_51_62:A 1.000000e-03
12 pgm_ln62:1 vs_46_62:A 1.000000e-03
13 pgm_ln62:1 vs_43_62:A 1.000000e-03
14 pgm_ln62:1 vs_42_62:A 1.000000e-03
15 pgm_ln62:1 vs_40_62:A 1.000000e-03
16 pgm_ln62:1 vs_38_62:A 1.000000e-03
17 pgm_ln62:1 vs_37_62:A 1.000000e-03
18 pgm_ln62:1 vs_36_62:A 1.000000e-03
19 pgm_ln62:1 vs_34_62:A 1.000000e-03
20 pgm_ln62:1 vs_31_62:A 1.000000e-03
21 pgm_ln62:1 vs_28_62:A 1.000000e-03
22 pgm_ln62:1 vs_27_62:A 1.000000e-03
23 pgm_ln62:1 vs_14_62:A 1.000000e-03
24 pgm_ln62:1 vs_12_62:A 1.000000e-03
25 pgm_ln62:1 vs_11_62:A 1.000000e-03
26 pgm_ln62:1 vs_9_62:A 1.000000e-03
27 pgm_ln62:1 vs_7_62:A 1.000000e-03
28 pgm_ln62:1 vs_6_62:A 1.000000e-03
29 pgm_ln62:1 vs_1_62:A 1.000000e-03
*END

*D_NET pgm_ln63 1.111070e-01
*CONN
*I lt_ln63:Z O
*I vs_63_63:A I
*I vs_60_63:A I
*I vs_59_63:A I
*I vs_58_63:A I
*I vs_57_63:A I
*I vs_55_63:A I
*I vs_54_63:A I
*I vs_52_63:A I
*I vs_51_63:A I
*I vs_49_63:A I
*I vs_46_63:A I
*I vs_45_63:A I
*I vs_44_63:A I
*I vs_43_63:A I
*I vs_42_63:A I
*I vs_41_63:A I
*I vs_40_63:A I
*I vs_37_63:A I
*I vs_35_63:A I
*I vs_29_63:A I
*I vs_25_63:A I
*I vs_19_63:A I
*I vs_14_63:A I
*I vs_12_63:A I
*I vs_11_63:A I
*I vs_8_63:A I
*I vs_7_63:A I
*I vs_4_63:A I
*I vs_3_63:A I
*I vs_2_63:A I
*CAP
1 pgm_ln63:1 1.111070e-01
*RES
1 lt_ln63:Z pgm_ln63:1 1.229611e+02
2 pgm_ln63:1 vs_63_63:A 1.000000e-03
3 pgm_ln63:1 vs_60_63:A 1.000000e-03
4 pgm_ln63:1 vs_59_63:A 1.000000e-03
5 pgm_ln63:1 vs_58_63:A 1.000000e-03
6 pgm_ln63:1 vs_57_63:A 1.000000e-03
7 pgm_ln63:1 vs_55_63:A 1.000000e-03
8 pgm_ln63:1 vs_54_63:A 1.000000e-03
9 pgm_ln63:1 vs_52_63:A 1.000000e-03
10 pgm_ln63:1 vs_51_63:A 1.000000e-03
11 pgm_ln63:1 vs_49_63:A 1.000000e-03
12 pgm_ln63:1 vs_46_63:A 1.000000e-03
13 pgm_ln63:1 vs_45_63:A 1.000000e-03
14 pgm_ln63:1 vs_44_63:A 1.000000e-03
15 pgm_ln63:1 vs_43_63:A 1.000000e-03
16 pgm_ln63:1 vs_42_63:A 1.000000e-03
17 pgm_ln63:1 vs_41_63:A 1.000000e-03
18 pgm_ln63:1 vs_40_63:A 1.000000e-03
19 pgm_ln63:1 vs_37_63:A 1.000000e-03
20 pgm_ln63:1 vs_35_63:A 1.000000e-03
21 pgm_ln63:1 vs_29_63:A 1.000000e-03
22 pgm_ln63:1 vs_25_63:A 1.000000e-03
23 pgm_ln63:1 vs_19_63:A 1.000000e-03
24 pgm_ln63:1 vs_14_63:A 1.000000e-03
25 pgm_ln63:1 vs_12_63:A 1.000000e-03
26 pgm_ln63:1 vs_11_63:A 1.000000e-03
27 pgm_ln63:1 vs_8_63:A 1.000000e-03
28 pgm_ln63:1 vs_7_63:A 1.000000e-03
29 pgm_ln63:1 vs_4_63:A 1.000000e-03
30 pgm_ln63:1 vs_3_63:A 1.000000e-03
31 pgm_ln63:1 vs_2_63:A 1.000000e-03
*END

*D_NET pgm_ln7 9.834797e-02
*CONN
*I lt_ln7:Z O
*I vs_57_7:A I
*I vs_52_7:A I
*I vs_50_7:A I
*I vs_45_7:A I
*I vs_37_7:A I
*I vs_35_7:A I
*I vs_33_7:A I
*I vs_31_7:A I
*I vs_30_7:A I
*I vs_18_7:A I
*I vs_17_7:A I
*I vs_16_7:A I
*I vs_13_7:A I
*I vs_12_7:A I
*I vs_11_7:A I
*I vs_9_7:A I
*I vs_6_7:A I
*I vs_5_7:A I
*I vs_3_7:A I
*I vs_1_7:A I
*CAP
1 pgm_ln7:1 9.834797e-02
*RES
1 lt_ln7:Z pgm_ln7:1 1.106073e+02
2 pgm_ln7:1 vs_57_7:A 1.000000e-03
3 pgm_ln7:1 vs_52_7:A 1.000000e-03
4 pgm_ln7:1 vs_50_7:A 1.000000e-03
5 pgm_ln7:1 vs_45_7:A 1.000000e-03
6 pgm_ln7:1 vs_37_7:A 1.000000e-03
7 pgm_ln7:1 vs_35_7:A 1.000000e-03
8 pgm_ln7:1 vs_33_7:A 1.000000e-03
9 pgm_ln7:1 vs_31_7:A 1.000000e-03
10 pgm_ln7:1 vs_30_7:A 1.000000e-03
11 pgm_ln7:1 vs_18_7:A 1.000000e-03
12 pgm_ln7:1 vs_17_7:A 1.000000e-03
13 pgm_ln7:1 vs_16_7:A 1.000000e-03
14 pgm_ln7:1 vs_13_7:A 1.000000e-03
15 pgm_ln7:1 vs_12_7:A 1.000000e-03
16 pgm_ln7:1 vs_11_7:A 1.000000e-03
17 pgm_ln7:1 vs_9_7:A 1.000000e-03
18 pgm_ln7:1 vs_6_7:A 1.000000e-03
19 pgm_ln7:1 vs_5_7:A 1.000000e-03
20 pgm_ln7:1 vs_3_7:A 1.000000e-03
21 pgm_ln7:1 vs_1_7:A 1.000000e-03
*END

*D_NET pgm_ln8 1.067114e-01
*CONN
*I lt_ln8:Z O
*I vs_62_8:A I
*I vs_60_8:A I
*I vs_58_8:A I
*I vs_56_8:A I
*I vs_55_8:A I
*I vs_54_8:A I
*I vs_51_8:A I
*I vs_48_8:A I
*I vs_46_8:A I
*I vs_37_8:A I
*I vs_36_8:A I
*I vs_35_8:A I
*I vs_33_8:A I
*I vs_32_8:A I
*I vs_31_8:A I
*I vs_30_8:A I
*I vs_28_8:A I
*I vs_27_8:A I
*I vs_19_8:A I
*I vs_18_8:A I
*I vs_16_8:A I
*I vs_15_8:A I
*I vs_7_8:A I
*I vs_6_8:A I
*I vs_5_8:A I
*I vs_3_8:A I
*I vs_2_8:A I
*I vs_1_8:A I
*I vs_0_8:A I
*CAP
1 pgm_ln8:1 1.067114e-01
*RES
1 lt_ln8:Z pgm_ln8:1 1.210942e+02
2 pgm_ln8:1 vs_62_8:A 1.000000e-03
3 pgm_ln8:1 vs_60_8:A 1.000000e-03
4 pgm_ln8:1 vs_58_8:A 1.000000e-03
5 pgm_ln8:1 vs_56_8:A 1.000000e-03
6 pgm_ln8:1 vs_55_8:A 1.000000e-03
7 pgm_ln8:1 vs_54_8:A 1.000000e-03
8 pgm_ln8:1 vs_51_8:A 1.000000e-03
9 pgm_ln8:1 vs_48_8:A 1.000000e-03
10 pgm_ln8:1 vs_46_8:A 1.000000e-03
11 pgm_ln8:1 vs_37_8:A 1.000000e-03
12 pgm_ln8:1 vs_36_8:A 1.000000e-03
13 pgm_ln8:1 vs_35_8:A 1.000000e-03
14 pgm_ln8:1 vs_33_8:A 1.000000e-03
15 pgm_ln8:1 vs_32_8:A 1.000000e-03
16 pgm_ln8:1 vs_31_8:A 1.000000e-03
17 pgm_ln8:1 vs_30_8:A 1.000000e-03
18 pgm_ln8:1 vs_28_8:A 1.000000e-03
19 pgm_ln8:1 vs_27_8:A 1.000000e-03
20 pgm_ln8:1 vs_19_8:A 1.000000e-03
21 pgm_ln8:1 vs_18_8:A 1.000000e-03
22 pgm_ln8:1 vs_16_8:A 1.000000e-03
23 pgm_ln8:1 vs_15_8:A 1.000000e-03
24 pgm_ln8:1 vs_7_8:A 1.000000e-03
25 pgm_ln8:1 vs_6_8:A 1.000000e-03
26 pgm_ln8:1 vs_5_8:A 1.000000e-03
27 pgm_ln8:1 vs_3_8:A 1.000000e-03
28 pgm_ln8:1 vs_2_8:A 1.000000e-03
29 pgm_ln8:1 vs_1_8:A 1.000000e-03
30 pgm_ln8:1 vs_0_8:A 1.000000e-03
*END

*D_NET pgm_ln9 1.131431e-01
*CONN
*I lt_ln9:Z O
*I vs_62_9:A I
*I vs_61_9:A I
*I vs_60_9:A I
*I vs_58_9:A I
*I vs_54_9:A I
*I vs_51_9:A I
*I vs_49_9:A I
*I vs_48_9:A I
*I vs_47_9:A I
*I vs_46_9:A I
*I vs_42_9:A I
*I vs_37_9:A I
*I vs_33_9:A I
*I vs_32_9:A I
*I vs_31_9:A I
*I vs_29_9:A I
*I vs_27_9:A I
*I vs_23_9:A I
*I vs_22_9:A I
*I vs_18_9:A I
*I vs_17_9:A I
*I vs_14_9:A I
*I vs_11_9:A I
*I vs_8_9:A I
*I vs_6_9:A I
*I vs_4_9:A I
*I vs_2_9:A I
*CAP
1 pgm_ln9:1 1.131431e-01
*RES
1 lt_ln9:Z pgm_ln9:1 1.283928e+02
2 pgm_ln9:1 vs_62_9:A 1.000000e-03
3 pgm_ln9:1 vs_61_9:A 1.000000e-03
4 pgm_ln9:1 vs_60_9:A 1.000000e-03
5 pgm_ln9:1 vs_58_9:A 1.000000e-03
6 pgm_ln9:1 vs_54_9:A 1.000000e-03
7 pgm_ln9:1 vs_51_9:A 1.000000e-03
8 pgm_ln9:1 vs_49_9:A 1.000000e-03
9 pgm_ln9:1 vs_48_9:A 1.000000e-03
10 pgm_ln9:1 vs_47_9:A 1.000000e-03
11 pgm_ln9:1 vs_46_9:A 1.000000e-03
12 pgm_ln9:1 vs_42_9:A 1.000000e-03
13 pgm_ln9:1 vs_37_9:A 1.000000e-03
14 pgm_ln9:1 vs_33_9:A 1.000000e-03
15 pgm_ln9:1 vs_32_9:A 1.000000e-03
16 pgm_ln9:1 vs_31_9:A 1.000000e-03
17 pgm_ln9:1 vs_29_9:A 1.000000e-03
18 pgm_ln9:1 vs_27_9:A 1.000000e-03
19 pgm_ln9:1 vs_23_9:A 1.000000e-03
20 pgm_ln9:1 vs_22_9:A 1.000000e-03
21 pgm_ln9:1 vs_18_9:A 1.000000e-03
22 pgm_ln9:1 vs_17_9:A 1.000000e-03
23 pgm_ln9:1 vs_14_9:A 1.000000e-03
24 pgm_ln9:1 vs_11_9:A 1.000000e-03
25 pgm_ln9:1 vs_8_9:A 1.000000e-03
26 pgm_ln9:1 vs_6_9:A 1.000000e-03
27 pgm_ln9:1 vs_4_9:A 1.000000e-03
28 pgm_ln9:1 vs_2_9:A 1.000000e-03
*END

*D_NET pgm_lp0 1.242896e-01
*CONN
*I lt_lp0:Z O
*I vs_63_0:A I
*I vs_61_0:A I
*I vs_60_0:A I
*I vs_58_0:A I
*I vs_57_0:A I
*I vs_53_0:A I
*I vs_52_0:A I
*I vs_51_0:A I
*I vs_48_0:A I
*I vs_46_0:A I
*I vs_45_0:A I
*I vs_44_0:A I
*I vs_40_0:A I
*I vs_39_0:A I
*I vs_32_0:A I
*I vs_31_0:A I
*I vs_25_0:A I
*I vs_24_0:A I
*I vs_22_0:A I
*I vs_20_0:A I
*I vs_17_0:A I
*I vs_16_0:A I
*I vs_15_0:A I
*I vs_10_0:A I
*I vs_9_0:A I
*I vs_8_0:A I
*I vs_7_0:A I
*I vs_6_0:A I
*I vs_3_0:A I
*I vs_1_0:A I
*CAP
1 pgm_lp0:1 1.242896e-01
*RES
1 lt_lp0:Z pgm_lp0:1 1.386404e+02
2 pgm_lp0:1 vs_63_0:A 1.000000e-03
3 pgm_lp0:1 vs_61_0:A 1.000000e-03
4 pgm_lp0:1 vs_60_0:A 1.000000e-03
5 pgm_lp0:1 vs_58_0:A 1.000000e-03
6 pgm_lp0:1 vs_57_0:A 1.000000e-03
7 pgm_lp0:1 vs_53_0:A 1.000000e-03
8 pgm_lp0:1 vs_52_0:A 1.000000e-03
9 pgm_lp0:1 vs_51_0:A 1.000000e-03
10 pgm_lp0:1 vs_48_0:A 1.000000e-03
11 pgm_lp0:1 vs_46_0:A 1.000000e-03
12 pgm_lp0:1 vs_45_0:A 1.000000e-03
13 pgm_lp0:1 vs_44_0:A 1.000000e-03
14 pgm_lp0:1 vs_40_0:A 1.000000e-03
15 pgm_lp0:1 vs_39_0:A 1.000000e-03
16 pgm_lp0:1 vs_32_0:A 1.000000e-03
17 pgm_lp0:1 vs_31_0:A 1.000000e-03
18 pgm_lp0:1 vs_25_0:A 1.000000e-03
19 pgm_lp0:1 vs_24_0:A 1.000000e-03
20 pgm_lp0:1 vs_22_0:A 1.000000e-03
21 pgm_lp0:1 vs_20_0:A 1.000000e-03
22 pgm_lp0:1 vs_17_0:A 1.000000e-03
23 pgm_lp0:1 vs_16_0:A 1.000000e-03
24 pgm_lp0:1 vs_15_0:A 1.000000e-03
25 pgm_lp0:1 vs_10_0:A 1.000000e-03
26 pgm_lp0:1 vs_9_0:A 1.000000e-03
27 pgm_lp0:1 vs_8_0:A 1.000000e-03
28 pgm_lp0:1 vs_7_0:A 1.000000e-03
29 pgm_lp0:1 vs_6_0:A 1.000000e-03
30 pgm_lp0:1 vs_3_0:A 1.000000e-03
31 pgm_lp0:1 vs_1_0:A 1.000000e-03
*END

*D_NET pgm_lp1 1.117564e-01
*CONN
*I lt_lp1:Z O
*I vs_63_1:A I
*I vs_62_1:A I
*I vs_59_1:A I
*I vs_58_1:A I
*I vs_56_1:A I
*I vs_55_1:A I
*I vs_53_1:A I
*I vs_51_1:A I
*I vs_49_1:A I
*I vs_47_1:A I
*I vs_46_1:A I
*I vs_45_1:A I
*I vs_44_1:A I
*I vs_43_1:A I
*I vs_40_1:A I
*I vs_39_1:A I
*I vs_37_1:A I
*I vs_36_1:A I
*I vs_34_1:A I
*I vs_31_1:A I
*I vs_28_1:A I
*I vs_25_1:A I
*I vs_22_1:A I
*I vs_21_1:A I
*I vs_20_1:A I
*I vs_17_1:A I
*I vs_16_1:A I
*I vs_12_1:A I
*I vs_10_1:A I
*I vs_9_1:A I
*I vs_8_1:A I
*I vs_6_1:A I
*I vs_5_1:A I
*I vs_2_1:A I
*I vs_1_1:A I
*CAP
1 pgm_lp1:1 1.117564e-01
*RES
1 lt_lp1:Z pgm_lp1:1 1.248266e+02
2 pgm_lp1:1 vs_63_1:A 1.000000e-03
3 pgm_lp1:1 vs_62_1:A 1.000000e-03
4 pgm_lp1:1 vs_59_1:A 1.000000e-03
5 pgm_lp1:1 vs_58_1:A 1.000000e-03
6 pgm_lp1:1 vs_56_1:A 1.000000e-03
7 pgm_lp1:1 vs_55_1:A 1.000000e-03
8 pgm_lp1:1 vs_53_1:A 1.000000e-03
9 pgm_lp1:1 vs_51_1:A 1.000000e-03
10 pgm_lp1:1 vs_49_1:A 1.000000e-03
11 pgm_lp1:1 vs_47_1:A 1.000000e-03
12 pgm_lp1:1 vs_46_1:A 1.000000e-03
13 pgm_lp1:1 vs_45_1:A 1.000000e-03
14 pgm_lp1:1 vs_44_1:A 1.000000e-03
15 pgm_lp1:1 vs_43_1:A 1.000000e-03
16 pgm_lp1:1 vs_40_1:A 1.000000e-03
17 pgm_lp1:1 vs_39_1:A 1.000000e-03
18 pgm_lp1:1 vs_37_1:A 1.000000e-03
19 pgm_lp1:1 vs_36_1:A 1.000000e-03
20 pgm_lp1:1 vs_34_1:A 1.000000e-03
21 pgm_lp1:1 vs_31_1:A 1.000000e-03
22 pgm_lp1:1 vs_28_1:A 1.000000e-03
23 pgm_lp1:1 vs_25_1:A 1.000000e-03
24 pgm_lp1:1 vs_22_1:A 1.000000e-03
25 pgm_lp1:1 vs_21_1:A 1.000000e-03
26 pgm_lp1:1 vs_20_1:A 1.000000e-03
27 pgm_lp1:1 vs_17_1:A 1.000000e-03
28 pgm_lp1:1 vs_16_1:A 1.000000e-03
29 pgm_lp1:1 vs_12_1:A 1.000000e-03
30 pgm_lp1:1 vs_10_1:A 1.000000e-03
31 pgm_lp1:1 vs_9_1:A 1.000000e-03
32 pgm_lp1:1 vs_8_1:A 1.000000e-03
33 pgm_lp1:1 vs_6_1:A 1.000000e-03
34 pgm_lp1:1 vs_5_1:A 1.000000e-03
35 pgm_lp1:1 vs_2_1:A 1.000000e-03
36 pgm_lp1:1 vs_1_1:A 1.000000e-03
*END

*D_NET pgm_lp10 1.149573e-01
*CONN
*I lt_lp10:Z O
*I vs_61_10:A I
*I vs_59_10:A I
*I vs_56_10:A I
*I vs_51_10:A I
*I vs_49_10:A I
*I vs_48_10:A I
*I vs_47_10:A I
*I vs_45_10:A I
*I vs_44_10:A I
*I vs_43_10:A I
*I vs_42_10:A I
*I vs_41_10:A I
*I vs_40_10:A I
*I vs_37_10:A I
*I vs_36_10:A I
*I vs_34_10:A I
*I vs_30_10:A I
*I vs_29_10:A I
*I vs_23_10:A I
*I vs_21_10:A I
*I vs_16_10:A I
*I vs_15_10:A I
*I vs_14_10:A I
*I vs_13_10:A I
*I vs_12_10:A I
*I vs_10_10:A I
*I vs_7_10:A I
*I vs_6_10:A I
*I vs_4_10:A I
*I vs_3_10:A I
*I vs_2_10:A I
*I vs_0_10:A I
*CAP
1 pgm_lp10:1 1.149573e-01
*RES
1 lt_lp10:Z pgm_lp10:1 1.288909e+02
2 pgm_lp10:1 vs_61_10:A 1.000000e-03
3 pgm_lp10:1 vs_59_10:A 1.000000e-03
4 pgm_lp10:1 vs_56_10:A 1.000000e-03
5 pgm_lp10:1 vs_51_10:A 1.000000e-03
6 pgm_lp10:1 vs_49_10:A 1.000000e-03
7 pgm_lp10:1 vs_48_10:A 1.000000e-03
8 pgm_lp10:1 vs_47_10:A 1.000000e-03
9 pgm_lp10:1 vs_45_10:A 1.000000e-03
10 pgm_lp10:1 vs_44_10:A 1.000000e-03
11 pgm_lp10:1 vs_43_10:A 1.000000e-03
12 pgm_lp10:1 vs_42_10:A 1.000000e-03
13 pgm_lp10:1 vs_41_10:A 1.000000e-03
14 pgm_lp10:1 vs_40_10:A 1.000000e-03
15 pgm_lp10:1 vs_37_10:A 1.000000e-03
16 pgm_lp10:1 vs_36_10:A 1.000000e-03
17 pgm_lp10:1 vs_34_10:A 1.000000e-03
18 pgm_lp10:1 vs_30_10:A 1.000000e-03
19 pgm_lp10:1 vs_29_10:A 1.000000e-03
20 pgm_lp10:1 vs_23_10:A 1.000000e-03
21 pgm_lp10:1 vs_21_10:A 1.000000e-03
22 pgm_lp10:1 vs_16_10:A 1.000000e-03
23 pgm_lp10:1 vs_15_10:A 1.000000e-03
24 pgm_lp10:1 vs_14_10:A 1.000000e-03
25 pgm_lp10:1 vs_13_10:A 1.000000e-03
26 pgm_lp10:1 vs_12_10:A 1.000000e-03
27 pgm_lp10:1 vs_10_10:A 1.000000e-03
28 pgm_lp10:1 vs_7_10:A 1.000000e-03
29 pgm_lp10:1 vs_6_10:A 1.000000e-03
30 pgm_lp10:1 vs_4_10:A 1.000000e-03
31 pgm_lp10:1 vs_3_10:A 1.000000e-03
32 pgm_lp10:1 vs_2_10:A 1.000000e-03
33 pgm_lp10:1 vs_0_10:A 1.000000e-03
*END

*D_NET pgm_lp11 1.099748e-01
*CONN
*I lt_lp11:Z O
*I vs_62_11:A I
*I vs_61_11:A I
*I vs_60_11:A I
*I vs_57_11:A I
*I vs_53_11:A I
*I vs_49_11:A I
*I vs_48_11:A I
*I vs_47_11:A I
*I vs_45_11:A I
*I vs_44_11:A I
*I vs_42_11:A I
*I vs_41_11:A I
*I vs_40_11:A I
*I vs_39_11:A I
*I vs_34_11:A I
*I vs_30_11:A I
*I vs_29_11:A I
*I vs_25_11:A I
*I vs_21_11:A I
*I vs_19_11:A I
*I vs_17_11:A I
*I vs_16_11:A I
*I vs_15_11:A I
*I vs_13_11:A I
*I vs_12_11:A I
*I vs_6_11:A I
*I vs_3_11:A I
*I vs_1_11:A I
*CAP
1 pgm_lp11:1 1.099748e-01
*RES
1 lt_lp11:Z pgm_lp11:1 1.243771e+02
2 pgm_lp11:1 vs_62_11:A 1.000000e-03
3 pgm_lp11:1 vs_61_11:A 1.000000e-03
4 pgm_lp11:1 vs_60_11:A 1.000000e-03
5 pgm_lp11:1 vs_57_11:A 1.000000e-03
6 pgm_lp11:1 vs_53_11:A 1.000000e-03
7 pgm_lp11:1 vs_49_11:A 1.000000e-03
8 pgm_lp11:1 vs_48_11:A 1.000000e-03
9 pgm_lp11:1 vs_47_11:A 1.000000e-03
10 pgm_lp11:1 vs_45_11:A 1.000000e-03
11 pgm_lp11:1 vs_44_11:A 1.000000e-03
12 pgm_lp11:1 vs_42_11:A 1.000000e-03
13 pgm_lp11:1 vs_41_11:A 1.000000e-03
14 pgm_lp11:1 vs_40_11:A 1.000000e-03
15 pgm_lp11:1 vs_39_11:A 1.000000e-03
16 pgm_lp11:1 vs_34_11:A 1.000000e-03
17 pgm_lp11:1 vs_30_11:A 1.000000e-03
18 pgm_lp11:1 vs_29_11:A 1.000000e-03
19 pgm_lp11:1 vs_25_11:A 1.000000e-03
20 pgm_lp11:1 vs_21_11:A 1.000000e-03
21 pgm_lp11:1 vs_19_11:A 1.000000e-03
22 pgm_lp11:1 vs_17_11:A 1.000000e-03
23 pgm_lp11:1 vs_16_11:A 1.000000e-03
24 pgm_lp11:1 vs_15_11:A 1.000000e-03
25 pgm_lp11:1 vs_13_11:A 1.000000e-03
26 pgm_lp11:1 vs_12_11:A 1.000000e-03
27 pgm_lp11:1 vs_6_11:A 1.000000e-03
28 pgm_lp11:1 vs_3_11:A 1.000000e-03
29 pgm_lp11:1 vs_1_11:A 1.000000e-03
*END

*D_NET pgm_lp12 1.158641e-01
*CONN
*I lt_lp12:Z O
*I vs_63_12:A I
*I vs_62_12:A I
*I vs_61_12:A I
*I vs_58_12:A I
*I vs_54_12:A I
*I vs_52_12:A I
*I vs_41_12:A I
*I vs_39_12:A I
*I vs_38_12:A I
*I vs_37_12:A I
*I vs_33_12:A I
*I vs_31_12:A I
*I vs_30_12:A I
*I vs_29_12:A I
*I vs_28_12:A I
*I vs_23_12:A I
*I vs_22_12:A I
*I vs_21_12:A I
*I vs_20_12:A I
*I vs_18_12:A I
*I vs_14_12:A I
*I vs_13_12:A I
*I vs_11_12:A I
*I vs_7_12:A I
*I vs_6_12:A I
*I vs_2_12:A I
*I vs_1_12:A I
*CAP
1 pgm_lp12:1 1.158641e-01
*RES
1 lt_lp12:Z pgm_lp12:1 1.290677e+02
2 pgm_lp12:1 vs_63_12:A 1.000000e-03
3 pgm_lp12:1 vs_62_12:A 1.000000e-03
4 pgm_lp12:1 vs_61_12:A 1.000000e-03
5 pgm_lp12:1 vs_58_12:A 1.000000e-03
6 pgm_lp12:1 vs_54_12:A 1.000000e-03
7 pgm_lp12:1 vs_52_12:A 1.000000e-03
8 pgm_lp12:1 vs_41_12:A 1.000000e-03
9 pgm_lp12:1 vs_39_12:A 1.000000e-03
10 pgm_lp12:1 vs_38_12:A 1.000000e-03
11 pgm_lp12:1 vs_37_12:A 1.000000e-03
12 pgm_lp12:1 vs_33_12:A 1.000000e-03
13 pgm_lp12:1 vs_31_12:A 1.000000e-03
14 pgm_lp12:1 vs_30_12:A 1.000000e-03
15 pgm_lp12:1 vs_29_12:A 1.000000e-03
16 pgm_lp12:1 vs_28_12:A 1.000000e-03
17 pgm_lp12:1 vs_23_12:A 1.000000e-03
18 pgm_lp12:1 vs_22_12:A 1.000000e-03
19 pgm_lp12:1 vs_21_12:A 1.000000e-03
20 pgm_lp12:1 vs_20_12:A 1.000000e-03
21 pgm_lp12:1 vs_18_12:A 1.000000e-03
22 pgm_lp12:1 vs_14_12:A 1.000000e-03
23 pgm_lp12:1 vs_13_12:A 1.000000e-03
24 pgm_lp12:1 vs_11_12:A 1.000000e-03
25 pgm_lp12:1 vs_7_12:A 1.000000e-03
26 pgm_lp12:1 vs_6_12:A 1.000000e-03
27 pgm_lp12:1 vs_2_12:A 1.000000e-03
28 pgm_lp12:1 vs_1_12:A 1.000000e-03
*END

*D_NET pgm_lp13 1.122724e-01
*CONN
*I lt_lp13:Z O
*I vs_62_13:A I
*I vs_61_13:A I
*I vs_59_13:A I
*I vs_56_13:A I
*I vs_54_13:A I
*I vs_53_13:A I
*I vs_52_13:A I
*I vs_51_13:A I
*I vs_50_13:A I
*I vs_48_13:A I
*I vs_46_13:A I
*I vs_45_13:A I
*I vs_43_13:A I
*I vs_42_13:A I
*I vs_41_13:A I
*I vs_40_13:A I
*I vs_34_13:A I
*I vs_32_13:A I
*I vs_31_13:A I
*I vs_30_13:A I
*I vs_26_13:A I
*I vs_21_13:A I
*I vs_19_13:A I
*I vs_18_13:A I
*I vs_16_13:A I
*I vs_13_13:A I
*I vs_6_13:A I
*I vs_4_13:A I
*I vs_1_13:A I
*CAP
1 pgm_lp13:1 1.122724e-01
*RES
1 lt_lp13:Z pgm_lp13:1 1.261643e+02
2 pgm_lp13:1 vs_62_13:A 1.000000e-03
3 pgm_lp13:1 vs_61_13:A 1.000000e-03
4 pgm_lp13:1 vs_59_13:A 1.000000e-03
5 pgm_lp13:1 vs_56_13:A 1.000000e-03
6 pgm_lp13:1 vs_54_13:A 1.000000e-03
7 pgm_lp13:1 vs_53_13:A 1.000000e-03
8 pgm_lp13:1 vs_52_13:A 1.000000e-03
9 pgm_lp13:1 vs_51_13:A 1.000000e-03
10 pgm_lp13:1 vs_50_13:A 1.000000e-03
11 pgm_lp13:1 vs_48_13:A 1.000000e-03
12 pgm_lp13:1 vs_46_13:A 1.000000e-03
13 pgm_lp13:1 vs_45_13:A 1.000000e-03
14 pgm_lp13:1 vs_43_13:A 1.000000e-03
15 pgm_lp13:1 vs_42_13:A 1.000000e-03
16 pgm_lp13:1 vs_41_13:A 1.000000e-03
17 pgm_lp13:1 vs_40_13:A 1.000000e-03
18 pgm_lp13:1 vs_34_13:A 1.000000e-03
19 pgm_lp13:1 vs_32_13:A 1.000000e-03
20 pgm_lp13:1 vs_31_13:A 1.000000e-03
21 pgm_lp13:1 vs_30_13:A 1.000000e-03
22 pgm_lp13:1 vs_26_13:A 1.000000e-03
23 pgm_lp13:1 vs_21_13:A 1.000000e-03
24 pgm_lp13:1 vs_19_13:A 1.000000e-03
25 pgm_lp13:1 vs_18_13:A 1.000000e-03
26 pgm_lp13:1 vs_16_13:A 1.000000e-03
27 pgm_lp13:1 vs_13_13:A 1.000000e-03
28 pgm_lp13:1 vs_6_13:A 1.000000e-03
29 pgm_lp13:1 vs_4_13:A 1.000000e-03
30 pgm_lp13:1 vs_1_13:A 1.000000e-03
*END

*D_NET pgm_lp14 1.096217e-01
*CONN
*I lt_lp14:Z O
*I vs_63_14:A I
*I vs_62_14:A I
*I vs_61_14:A I
*I vs_60_14:A I
*I vs_56_14:A I
*I vs_55_14:A I
*I vs_51_14:A I
*I vs_50_14:A I
*I vs_47_14:A I
*I vs_46_14:A I
*I vs_44_14:A I
*I vs_43_14:A I
*I vs_41_14:A I
*I vs_40_14:A I
*I vs_39_14:A I
*I vs_38_14:A I
*I vs_34_14:A I
*I vs_32_14:A I
*I vs_31_14:A I
*I vs_30_14:A I
*I vs_25_14:A I
*I vs_21_14:A I
*I vs_20_14:A I
*I vs_18_14:A I
*I vs_12_14:A I
*I vs_10_14:A I
*I vs_7_14:A I
*I vs_4_14:A I
*CAP
1 pgm_lp14:1 1.096217e-01
*RES
1 lt_lp14:Z pgm_lp14:1 1.228362e+02
2 pgm_lp14:1 vs_63_14:A 1.000000e-03
3 pgm_lp14:1 vs_62_14:A 1.000000e-03
4 pgm_lp14:1 vs_61_14:A 1.000000e-03
5 pgm_lp14:1 vs_60_14:A 1.000000e-03
6 pgm_lp14:1 vs_56_14:A 1.000000e-03
7 pgm_lp14:1 vs_55_14:A 1.000000e-03
8 pgm_lp14:1 vs_51_14:A 1.000000e-03
9 pgm_lp14:1 vs_50_14:A 1.000000e-03
10 pgm_lp14:1 vs_47_14:A 1.000000e-03
11 pgm_lp14:1 vs_46_14:A 1.000000e-03
12 pgm_lp14:1 vs_44_14:A 1.000000e-03
13 pgm_lp14:1 vs_43_14:A 1.000000e-03
14 pgm_lp14:1 vs_41_14:A 1.000000e-03
15 pgm_lp14:1 vs_40_14:A 1.000000e-03
16 pgm_lp14:1 vs_39_14:A 1.000000e-03
17 pgm_lp14:1 vs_38_14:A 1.000000e-03
18 pgm_lp14:1 vs_34_14:A 1.000000e-03
19 pgm_lp14:1 vs_32_14:A 1.000000e-03
20 pgm_lp14:1 vs_31_14:A 1.000000e-03
21 pgm_lp14:1 vs_30_14:A 1.000000e-03
22 pgm_lp14:1 vs_25_14:A 1.000000e-03
23 pgm_lp14:1 vs_21_14:A 1.000000e-03
24 pgm_lp14:1 vs_20_14:A 1.000000e-03
25 pgm_lp14:1 vs_18_14:A 1.000000e-03
26 pgm_lp14:1 vs_12_14:A 1.000000e-03
27 pgm_lp14:1 vs_10_14:A 1.000000e-03
28 pgm_lp14:1 vs_7_14:A 1.000000e-03
29 pgm_lp14:1 vs_4_14:A 1.000000e-03
*END

*D_NET pgm_lp15 9.674536e-02
*CONN
*I lt_lp15:Z O
*I vs_56_15:A I
*I vs_53_15:A I
*I vs_52_15:A I
*I vs_51_15:A I
*I vs_50_15:A I
*I vs_48_15:A I
*I vs_44_15:A I
*I vs_43_15:A I
*I vs_41_15:A I
*I vs_40_15:A I
*I vs_33_15:A I
*I vs_30_15:A I
*I vs_28_15:A I
*I vs_27_15:A I
*I vs_26_15:A I
*I vs_21_15:A I
*I vs_17_15:A I
*I vs_16_15:A I
*I vs_13_15:A I
*I vs_11_15:A I
*I vs_8_15:A I
*I vs_5_15:A I
*I vs_0_15:A I
*CAP
1 pgm_lp15:1 9.674536e-02
*RES
1 lt_lp15:Z pgm_lp15:1 1.097849e+02
2 pgm_lp15:1 vs_56_15:A 1.000000e-03
3 pgm_lp15:1 vs_53_15:A 1.000000e-03
4 pgm_lp15:1 vs_52_15:A 1.000000e-03
5 pgm_lp15:1 vs_51_15:A 1.000000e-03
6 pgm_lp15:1 vs_50_15:A 1.000000e-03
7 pgm_lp15:1 vs_48_15:A 1.000000e-03
8 pgm_lp15:1 vs_44_15:A 1.000000e-03
9 pgm_lp15:1 vs_43_15:A 1.000000e-03
10 pgm_lp15:1 vs_41_15:A 1.000000e-03
11 pgm_lp15:1 vs_40_15:A 1.000000e-03
12 pgm_lp15:1 vs_33_15:A 1.000000e-03
13 pgm_lp15:1 vs_30_15:A 1.000000e-03
14 pgm_lp15:1 vs_28_15:A 1.000000e-03
15 pgm_lp15:1 vs_27_15:A 1.000000e-03
16 pgm_lp15:1 vs_26_15:A 1.000000e-03
17 pgm_lp15:1 vs_21_15:A 1.000000e-03
18 pgm_lp15:1 vs_17_15:A 1.000000e-03
19 pgm_lp15:1 vs_16_15:A 1.000000e-03
20 pgm_lp15:1 vs_13_15:A 1.000000e-03
21 pgm_lp15:1 vs_11_15:A 1.000000e-03
22 pgm_lp15:1 vs_8_15:A 1.000000e-03
23 pgm_lp15:1 vs_5_15:A 1.000000e-03
24 pgm_lp15:1 vs_0_15:A 1.000000e-03
*END

*D_NET pgm_lp16 1.191168e-01
*CONN
*I lt_lp16:Z O
*I vs_63_16:A I
*I vs_62_16:A I
*I vs_60_16:A I
*I vs_59_16:A I
*I vs_57_16:A I
*I vs_52_16:A I
*I vs_51_16:A I
*I vs_48_16:A I
*I vs_47_16:A I
*I vs_44_16:A I
*I vs_42_16:A I
*I vs_39_16:A I
*I vs_37_16:A I
*I vs_34_16:A I
*I vs_31_16:A I
*I vs_30_16:A I
*I vs_28_16:A I
*I vs_27_16:A I
*I vs_23_16:A I
*I vs_22_16:A I
*I vs_21_16:A I
*I vs_18_16:A I
*I vs_17_16:A I
*I vs_15_16:A I
*I vs_14_16:A I
*I vs_12_16:A I
*I vs_9_16:A I
*I vs_4_16:A I
*I vs_0_16:A I
*CAP
1 pgm_lp16:1 1.191168e-01
*RES
1 lt_lp16:Z pgm_lp16:1 1.346073e+02
2 pgm_lp16:1 vs_63_16:A 1.000000e-03
3 pgm_lp16:1 vs_62_16:A 1.000000e-03
4 pgm_lp16:1 vs_60_16:A 1.000000e-03
5 pgm_lp16:1 vs_59_16:A 1.000000e-03
6 pgm_lp16:1 vs_57_16:A 1.000000e-03
7 pgm_lp16:1 vs_52_16:A 1.000000e-03
8 pgm_lp16:1 vs_51_16:A 1.000000e-03
9 pgm_lp16:1 vs_48_16:A 1.000000e-03
10 pgm_lp16:1 vs_47_16:A 1.000000e-03
11 pgm_lp16:1 vs_44_16:A 1.000000e-03
12 pgm_lp16:1 vs_42_16:A 1.000000e-03
13 pgm_lp16:1 vs_39_16:A 1.000000e-03
14 pgm_lp16:1 vs_37_16:A 1.000000e-03
15 pgm_lp16:1 vs_34_16:A 1.000000e-03
16 pgm_lp16:1 vs_31_16:A 1.000000e-03
17 pgm_lp16:1 vs_30_16:A 1.000000e-03
18 pgm_lp16:1 vs_28_16:A 1.000000e-03
19 pgm_lp16:1 vs_27_16:A 1.000000e-03
20 pgm_lp16:1 vs_23_16:A 1.000000e-03
21 pgm_lp16:1 vs_22_16:A 1.000000e-03
22 pgm_lp16:1 vs_21_16:A 1.000000e-03
23 pgm_lp16:1 vs_18_16:A 1.000000e-03
24 pgm_lp16:1 vs_17_16:A 1.000000e-03
25 pgm_lp16:1 vs_15_16:A 1.000000e-03
26 pgm_lp16:1 vs_14_16:A 1.000000e-03
27 pgm_lp16:1 vs_12_16:A 1.000000e-03
28 pgm_lp16:1 vs_9_16:A 1.000000e-03
29 pgm_lp16:1 vs_4_16:A 1.000000e-03
30 pgm_lp16:1 vs_0_16:A 1.000000e-03
*END

*D_NET pgm_lp17 1.075246e-01
*CONN
*I lt_lp17:Z O
*I vs_61_17:A I
*I vs_59_17:A I
*I vs_58_17:A I
*I vs_57_17:A I
*I vs_56_17:A I
*I vs_55_17:A I
*I vs_54_17:A I
*I vs_52_17:A I
*I vs_49_17:A I
*I vs_47_17:A I
*I vs_46_17:A I
*I vs_45_17:A I
*I vs_44_17:A I
*I vs_43_17:A I
*I vs_37_17:A I
*I vs_35_17:A I
*I vs_34_17:A I
*I vs_32_17:A I
*I vs_31_17:A I
*I vs_30_17:A I
*I vs_25_17:A I
*I vs_23_17:A I
*I vs_22_17:A I
*I vs_21_17:A I
*I vs_20_17:A I
*I vs_17_17:A I
*I vs_16_17:A I
*I vs_15_17:A I
*I vs_13_17:A I
*I vs_12_17:A I
*I vs_11_17:A I
*I vs_10_17:A I
*I vs_9_17:A I
*I vs_7_17:A I
*I vs_4_17:A I
*I vs_0_17:A I
*CAP
1 pgm_lp17:1 1.075246e-01
*RES
1 lt_lp17:Z pgm_lp17:1 1.198241e+02
2 pgm_lp17:1 vs_61_17:A 1.000000e-03
3 pgm_lp17:1 vs_59_17:A 1.000000e-03
4 pgm_lp17:1 vs_58_17:A 1.000000e-03
5 pgm_lp17:1 vs_57_17:A 1.000000e-03
6 pgm_lp17:1 vs_56_17:A 1.000000e-03
7 pgm_lp17:1 vs_55_17:A 1.000000e-03
8 pgm_lp17:1 vs_54_17:A 1.000000e-03
9 pgm_lp17:1 vs_52_17:A 1.000000e-03
10 pgm_lp17:1 vs_49_17:A 1.000000e-03
11 pgm_lp17:1 vs_47_17:A 1.000000e-03
12 pgm_lp17:1 vs_46_17:A 1.000000e-03
13 pgm_lp17:1 vs_45_17:A 1.000000e-03
14 pgm_lp17:1 vs_44_17:A 1.000000e-03
15 pgm_lp17:1 vs_43_17:A 1.000000e-03
16 pgm_lp17:1 vs_37_17:A 1.000000e-03
17 pgm_lp17:1 vs_35_17:A 1.000000e-03
18 pgm_lp17:1 vs_34_17:A 1.000000e-03
19 pgm_lp17:1 vs_32_17:A 1.000000e-03
20 pgm_lp17:1 vs_31_17:A 1.000000e-03
21 pgm_lp17:1 vs_30_17:A 1.000000e-03
22 pgm_lp17:1 vs_25_17:A 1.000000e-03
23 pgm_lp17:1 vs_23_17:A 1.000000e-03
24 pgm_lp17:1 vs_22_17:A 1.000000e-03
25 pgm_lp17:1 vs_21_17:A 1.000000e-03
26 pgm_lp17:1 vs_20_17:A 1.000000e-03
27 pgm_lp17:1 vs_17_17:A 1.000000e-03
28 pgm_lp17:1 vs_16_17:A 1.000000e-03
29 pgm_lp17:1 vs_15_17:A 1.000000e-03
30 pgm_lp17:1 vs_13_17:A 1.000000e-03
31 pgm_lp17:1 vs_12_17:A 1.000000e-03
32 pgm_lp17:1 vs_11_17:A 1.000000e-03
33 pgm_lp17:1 vs_10_17:A 1.000000e-03
34 pgm_lp17:1 vs_9_17:A 1.000000e-03
35 pgm_lp17:1 vs_7_17:A 1.000000e-03
36 pgm_lp17:1 vs_4_17:A 1.000000e-03
37 pgm_lp17:1 vs_0_17:A 1.000000e-03
*END

*D_NET pgm_lp18 1.075632e-01
*CONN
*I lt_lp18:Z O
*I vs_62_18:A I
*I vs_60_18:A I
*I vs_58_18:A I
*I vs_57_18:A I
*I vs_56_18:A I
*I vs_55_18:A I
*I vs_54_18:A I
*I vs_53_18:A I
*I vs_52_18:A I
*I vs_51_18:A I
*I vs_50_18:A I
*I vs_49_18:A I
*I vs_47_18:A I
*I vs_46_18:A I
*I vs_44_18:A I
*I vs_42_18:A I
*I vs_41_18:A I
*I vs_40_18:A I
*I vs_39_18:A I
*I vs_33_18:A I
*I vs_30_18:A I
*I vs_28_18:A I
*I vs_27_18:A I
*I vs_26_18:A I
*I vs_22_18:A I
*I vs_21_18:A I
*I vs_20_18:A I
*I vs_17_18:A I
*I vs_11_18:A I
*I vs_10_18:A I
*I vs_7_18:A I
*I vs_6_18:A I
*I vs_4_18:A I
*I vs_1_18:A I
*I vs_0_18:A I
*CAP
1 pgm_lp18:1 1.075632e-01
*RES
1 lt_lp18:Z pgm_lp18:1 1.206442e+02
2 pgm_lp18:1 vs_62_18:A 1.000000e-03
3 pgm_lp18:1 vs_60_18:A 1.000000e-03
4 pgm_lp18:1 vs_58_18:A 1.000000e-03
5 pgm_lp18:1 vs_57_18:A 1.000000e-03
6 pgm_lp18:1 vs_56_18:A 1.000000e-03
7 pgm_lp18:1 vs_55_18:A 1.000000e-03
8 pgm_lp18:1 vs_54_18:A 1.000000e-03
9 pgm_lp18:1 vs_53_18:A 1.000000e-03
10 pgm_lp18:1 vs_52_18:A 1.000000e-03
11 pgm_lp18:1 vs_51_18:A 1.000000e-03
12 pgm_lp18:1 vs_50_18:A 1.000000e-03
13 pgm_lp18:1 vs_49_18:A 1.000000e-03
14 pgm_lp18:1 vs_47_18:A 1.000000e-03
15 pgm_lp18:1 vs_46_18:A 1.000000e-03
16 pgm_lp18:1 vs_44_18:A 1.000000e-03
17 pgm_lp18:1 vs_42_18:A 1.000000e-03
18 pgm_lp18:1 vs_41_18:A 1.000000e-03
19 pgm_lp18:1 vs_40_18:A 1.000000e-03
20 pgm_lp18:1 vs_39_18:A 1.000000e-03
21 pgm_lp18:1 vs_33_18:A 1.000000e-03
22 pgm_lp18:1 vs_30_18:A 1.000000e-03
23 pgm_lp18:1 vs_28_18:A 1.000000e-03
24 pgm_lp18:1 vs_27_18:A 1.000000e-03
25 pgm_lp18:1 vs_26_18:A 1.000000e-03
26 pgm_lp18:1 vs_22_18:A 1.000000e-03
27 pgm_lp18:1 vs_21_18:A 1.000000e-03
28 pgm_lp18:1 vs_20_18:A 1.000000e-03
29 pgm_lp18:1 vs_17_18:A 1.000000e-03
30 pgm_lp18:1 vs_11_18:A 1.000000e-03
31 pgm_lp18:1 vs_10_18:A 1.000000e-03
32 pgm_lp18:1 vs_7_18:A 1.000000e-03
33 pgm_lp18:1 vs_6_18:A 1.000000e-03
34 pgm_lp18:1 vs_4_18:A 1.000000e-03
35 pgm_lp18:1 vs_1_18:A 1.000000e-03
36 pgm_lp18:1 vs_0_18:A 1.000000e-03
*END

*D_NET pgm_lp19 1.136174e-01
*CONN
*I lt_lp19:Z O
*I vs_63_19:A I
*I vs_60_19:A I
*I vs_59_19:A I
*I vs_56_19:A I
*I vs_54_19:A I
*I vs_49_19:A I
*I vs_47_19:A I
*I vs_38_19:A I
*I vs_36_19:A I
*I vs_35_19:A I
*I vs_31_19:A I
*I vs_29_19:A I
*I vs_25_19:A I
*I vs_24_19:A I
*I vs_23_19:A I
*I vs_22_19:A I
*I vs_21_19:A I
*I vs_20_19:A I
*I vs_17_19:A I
*I vs_15_19:A I
*I vs_14_19:A I
*I vs_12_19:A I
*I vs_11_19:A I
*I vs_9_19:A I
*I vs_7_19:A I
*I vs_0_19:A I
*CAP
1 pgm_lp19:1 1.136174e-01
*RES
1 lt_lp19:Z pgm_lp19:1 1.280788e+02
2 pgm_lp19:1 vs_63_19:A 1.000000e-03
3 pgm_lp19:1 vs_60_19:A 1.000000e-03
4 pgm_lp19:1 vs_59_19:A 1.000000e-03
5 pgm_lp19:1 vs_56_19:A 1.000000e-03
6 pgm_lp19:1 vs_54_19:A 1.000000e-03
7 pgm_lp19:1 vs_49_19:A 1.000000e-03
8 pgm_lp19:1 vs_47_19:A 1.000000e-03
9 pgm_lp19:1 vs_38_19:A 1.000000e-03
10 pgm_lp19:1 vs_36_19:A 1.000000e-03
11 pgm_lp19:1 vs_35_19:A 1.000000e-03
12 pgm_lp19:1 vs_31_19:A 1.000000e-03
13 pgm_lp19:1 vs_29_19:A 1.000000e-03
14 pgm_lp19:1 vs_25_19:A 1.000000e-03
15 pgm_lp19:1 vs_24_19:A 1.000000e-03
16 pgm_lp19:1 vs_23_19:A 1.000000e-03
17 pgm_lp19:1 vs_22_19:A 1.000000e-03
18 pgm_lp19:1 vs_21_19:A 1.000000e-03
19 pgm_lp19:1 vs_20_19:A 1.000000e-03
20 pgm_lp19:1 vs_17_19:A 1.000000e-03
21 pgm_lp19:1 vs_15_19:A 1.000000e-03
22 pgm_lp19:1 vs_14_19:A 1.000000e-03
23 pgm_lp19:1 vs_12_19:A 1.000000e-03
24 pgm_lp19:1 vs_11_19:A 1.000000e-03
25 pgm_lp19:1 vs_9_19:A 1.000000e-03
26 pgm_lp19:1 vs_7_19:A 1.000000e-03
27 pgm_lp19:1 vs_0_19:A 1.000000e-03
*END

*D_NET pgm_lp2 1.122342e-01
*CONN
*I lt_lp2:Z O
*I vs_62_2:A I
*I vs_61_2:A I
*I vs_59_2:A I
*I vs_58_2:A I
*I vs_57_2:A I
*I vs_56_2:A I
*I vs_51_2:A I
*I vs_50_2:A I
*I vs_48_2:A I
*I vs_47_2:A I
*I vs_46_2:A I
*I vs_44_2:A I
*I vs_42_2:A I
*I vs_41_2:A I
*I vs_40_2:A I
*I vs_35_2:A I
*I vs_34_2:A I
*I vs_29_2:A I
*I vs_28_2:A I
*I vs_26_2:A I
*I vs_25_2:A I
*I vs_17_2:A I
*I vs_16_2:A I
*I vs_15_2:A I
*I vs_10_2:A I
*I vs_7_2:A I
*I vs_4_2:A I
*CAP
1 pgm_lp2:1 1.122342e-01
*RES
1 lt_lp2:Z pgm_lp2:1 1.256568e+02
2 pgm_lp2:1 vs_62_2:A 1.000000e-03
3 pgm_lp2:1 vs_61_2:A 1.000000e-03
4 pgm_lp2:1 vs_59_2:A 1.000000e-03
5 pgm_lp2:1 vs_58_2:A 1.000000e-03
6 pgm_lp2:1 vs_57_2:A 1.000000e-03
7 pgm_lp2:1 vs_56_2:A 1.000000e-03
8 pgm_lp2:1 vs_51_2:A 1.000000e-03
9 pgm_lp2:1 vs_50_2:A 1.000000e-03
10 pgm_lp2:1 vs_48_2:A 1.000000e-03
11 pgm_lp2:1 vs_47_2:A 1.000000e-03
12 pgm_lp2:1 vs_46_2:A 1.000000e-03
13 pgm_lp2:1 vs_44_2:A 1.000000e-03
14 pgm_lp2:1 vs_42_2:A 1.000000e-03
15 pgm_lp2:1 vs_41_2:A 1.000000e-03
16 pgm_lp2:1 vs_40_2:A 1.000000e-03
17 pgm_lp2:1 vs_35_2:A 1.000000e-03
18 pgm_lp2:1 vs_34_2:A 1.000000e-03
19 pgm_lp2:1 vs_29_2:A 1.000000e-03
20 pgm_lp2:1 vs_28_2:A 1.000000e-03
21 pgm_lp2:1 vs_26_2:A 1.000000e-03
22 pgm_lp2:1 vs_25_2:A 1.000000e-03
23 pgm_lp2:1 vs_17_2:A 1.000000e-03
24 pgm_lp2:1 vs_16_2:A 1.000000e-03
25 pgm_lp2:1 vs_15_2:A 1.000000e-03
26 pgm_lp2:1 vs_10_2:A 1.000000e-03
27 pgm_lp2:1 vs_7_2:A 1.000000e-03
28 pgm_lp2:1 vs_4_2:A 1.000000e-03
*END

*D_NET pgm_lp20 1.172743e-01
*CONN
*I lt_lp20:Z O
*I vs_63_20:A I
*I vs_62_20:A I
*I vs_61_20:A I
*I vs_59_20:A I
*I vs_58_20:A I
*I vs_57_20:A I
*I vs_55_20:A I
*I vs_51_20:A I
*I vs_49_20:A I
*I vs_47_20:A I
*I vs_44_20:A I
*I vs_41_20:A I
*I vs_37_20:A I
*I vs_34_20:A I
*I vs_33_20:A I
*I vs_32_20:A I
*I vs_30_20:A I
*I vs_27_20:A I
*I vs_26_20:A I
*I vs_25_20:A I
*I vs_24_20:A I
*I vs_17_20:A I
*I vs_16_20:A I
*I vs_15_20:A I
*I vs_9_20:A I
*I vs_6_20:A I
*I vs_5_20:A I
*I vs_2_20:A I
*I vs_0_20:A I
*CAP
1 pgm_lp20:1 1.172743e-01
*RES
1 lt_lp20:Z pgm_lp20:1 1.306737e+02
2 pgm_lp20:1 vs_63_20:A 1.000000e-03
3 pgm_lp20:1 vs_62_20:A 1.000000e-03
4 pgm_lp20:1 vs_61_20:A 1.000000e-03
5 pgm_lp20:1 vs_59_20:A 1.000000e-03
6 pgm_lp20:1 vs_58_20:A 1.000000e-03
7 pgm_lp20:1 vs_57_20:A 1.000000e-03
8 pgm_lp20:1 vs_55_20:A 1.000000e-03
9 pgm_lp20:1 vs_51_20:A 1.000000e-03
10 pgm_lp20:1 vs_49_20:A 1.000000e-03
11 pgm_lp20:1 vs_47_20:A 1.000000e-03
12 pgm_lp20:1 vs_44_20:A 1.000000e-03
13 pgm_lp20:1 vs_41_20:A 1.000000e-03
14 pgm_lp20:1 vs_37_20:A 1.000000e-03
15 pgm_lp20:1 vs_34_20:A 1.000000e-03
16 pgm_lp20:1 vs_33_20:A 1.000000e-03
17 pgm_lp20:1 vs_32_20:A 1.000000e-03
18 pgm_lp20:1 vs_30_20:A 1.000000e-03
19 pgm_lp20:1 vs_27_20:A 1.000000e-03
20 pgm_lp20:1 vs_26_20:A 1.000000e-03
21 pgm_lp20:1 vs_25_20:A 1.000000e-03
22 pgm_lp20:1 vs_24_20:A 1.000000e-03
23 pgm_lp20:1 vs_17_20:A 1.000000e-03
24 pgm_lp20:1 vs_16_20:A 1.000000e-03
25 pgm_lp20:1 vs_15_20:A 1.000000e-03
26 pgm_lp20:1 vs_9_20:A 1.000000e-03
27 pgm_lp20:1 vs_6_20:A 1.000000e-03
28 pgm_lp20:1 vs_5_20:A 1.000000e-03
29 pgm_lp20:1 vs_2_20:A 1.000000e-03
30 pgm_lp20:1 vs_0_20:A 1.000000e-03
*END

*D_NET pgm_lp21 1.154274e-01
*CONN
*I lt_lp21:Z O
*I vs_62_21:A I
*I vs_61_21:A I
*I vs_59_21:A I
*I vs_56_21:A I
*I vs_55_21:A I
*I vs_54_21:A I
*I vs_52_21:A I
*I vs_50_21:A I
*I vs_48_21:A I
*I vs_46_21:A I
*I vs_44_21:A I
*I vs_42_21:A I
*I vs_41_21:A I
*I vs_36_21:A I
*I vs_34_21:A I
*I vs_33_21:A I
*I vs_32_21:A I
*I vs_30_21:A I
*I vs_29_21:A I
*I vs_25_21:A I
*I vs_23_21:A I
*I vs_20_21:A I
*I vs_19_21:A I
*I vs_15_21:A I
*I vs_14_21:A I
*I vs_13_21:A I
*I vs_12_21:A I
*I vs_7_21:A I
*I vs_3_21:A I
*I vs_1_21:A I
*CAP
1 pgm_lp21:1 1.154274e-01
*RES
1 lt_lp21:Z pgm_lp21:1 1.291480e+02
2 pgm_lp21:1 vs_62_21:A 1.000000e-03
3 pgm_lp21:1 vs_61_21:A 1.000000e-03
4 pgm_lp21:1 vs_59_21:A 1.000000e-03
5 pgm_lp21:1 vs_56_21:A 1.000000e-03
6 pgm_lp21:1 vs_55_21:A 1.000000e-03
7 pgm_lp21:1 vs_54_21:A 1.000000e-03
8 pgm_lp21:1 vs_52_21:A 1.000000e-03
9 pgm_lp21:1 vs_50_21:A 1.000000e-03
10 pgm_lp21:1 vs_48_21:A 1.000000e-03
11 pgm_lp21:1 vs_46_21:A 1.000000e-03
12 pgm_lp21:1 vs_44_21:A 1.000000e-03
13 pgm_lp21:1 vs_42_21:A 1.000000e-03
14 pgm_lp21:1 vs_41_21:A 1.000000e-03
15 pgm_lp21:1 vs_36_21:A 1.000000e-03
16 pgm_lp21:1 vs_34_21:A 1.000000e-03
17 pgm_lp21:1 vs_33_21:A 1.000000e-03
18 pgm_lp21:1 vs_32_21:A 1.000000e-03
19 pgm_lp21:1 vs_30_21:A 1.000000e-03
20 pgm_lp21:1 vs_29_21:A 1.000000e-03
21 pgm_lp21:1 vs_25_21:A 1.000000e-03
22 pgm_lp21:1 vs_23_21:A 1.000000e-03
23 pgm_lp21:1 vs_20_21:A 1.000000e-03
24 pgm_lp21:1 vs_19_21:A 1.000000e-03
25 pgm_lp21:1 vs_15_21:A 1.000000e-03
26 pgm_lp21:1 vs_14_21:A 1.000000e-03
27 pgm_lp21:1 vs_13_21:A 1.000000e-03
28 pgm_lp21:1 vs_12_21:A 1.000000e-03
29 pgm_lp21:1 vs_7_21:A 1.000000e-03
30 pgm_lp21:1 vs_3_21:A 1.000000e-03
31 pgm_lp21:1 vs_1_21:A 1.000000e-03
*END

*D_NET pgm_lp22 1.085094e-01
*CONN
*I lt_lp22:Z O
*I vs_63_22:A I
*I vs_61_22:A I
*I vs_60_22:A I
*I vs_54_22:A I
*I vs_52_22:A I
*I vs_50_22:A I
*I vs_49_22:A I
*I vs_47_22:A I
*I vs_46_22:A I
*I vs_45_22:A I
*I vs_43_22:A I
*I vs_42_22:A I
*I vs_38_22:A I
*I vs_33_22:A I
*I vs_28_22:A I
*I vs_25_22:A I
*I vs_24_22:A I
*I vs_23_22:A I
*I vs_21_22:A I
*I vs_20_22:A I
*I vs_19_22:A I
*I vs_16_22:A I
*I vs_10_22:A I
*I vs_9_22:A I
*I vs_8_22:A I
*I vs_4_22:A I
*CAP
1 pgm_lp22:1 1.085094e-01
*RES
1 lt_lp22:Z pgm_lp22:1 1.211536e+02
2 pgm_lp22:1 vs_63_22:A 1.000000e-03
3 pgm_lp22:1 vs_61_22:A 1.000000e-03
4 pgm_lp22:1 vs_60_22:A 1.000000e-03
5 pgm_lp22:1 vs_54_22:A 1.000000e-03
6 pgm_lp22:1 vs_52_22:A 1.000000e-03
7 pgm_lp22:1 vs_50_22:A 1.000000e-03
8 pgm_lp22:1 vs_49_22:A 1.000000e-03
9 pgm_lp22:1 vs_47_22:A 1.000000e-03
10 pgm_lp22:1 vs_46_22:A 1.000000e-03
11 pgm_lp22:1 vs_45_22:A 1.000000e-03
12 pgm_lp22:1 vs_43_22:A 1.000000e-03
13 pgm_lp22:1 vs_42_22:A 1.000000e-03
14 pgm_lp22:1 vs_38_22:A 1.000000e-03
15 pgm_lp22:1 vs_33_22:A 1.000000e-03
16 pgm_lp22:1 vs_28_22:A 1.000000e-03
17 pgm_lp22:1 vs_25_22:A 1.000000e-03
18 pgm_lp22:1 vs_24_22:A 1.000000e-03
19 pgm_lp22:1 vs_23_22:A 1.000000e-03
20 pgm_lp22:1 vs_21_22:A 1.000000e-03
21 pgm_lp22:1 vs_20_22:A 1.000000e-03
22 pgm_lp22:1 vs_19_22:A 1.000000e-03
23 pgm_lp22:1 vs_16_22:A 1.000000e-03
24 pgm_lp22:1 vs_10_22:A 1.000000e-03
25 pgm_lp22:1 vs_9_22:A 1.000000e-03
26 pgm_lp22:1 vs_8_22:A 1.000000e-03
27 pgm_lp22:1 vs_4_22:A 1.000000e-03
*END

*D_NET pgm_lp23 1.122394e-01
*CONN
*I lt_lp23:Z O
*I vs_61_23:A I
*I vs_60_23:A I
*I vs_54_23:A I
*I vs_51_23:A I
*I vs_50_23:A I
*I vs_49_23:A I
*I vs_47_23:A I
*I vs_44_23:A I
*I vs_42_23:A I
*I vs_41_23:A I
*I vs_35_23:A I
*I vs_31_23:A I
*I vs_27_23:A I
*I vs_24_23:A I
*I vs_23_23:A I
*I vs_21_23:A I
*I vs_18_23:A I
*I vs_16_23:A I
*I vs_15_23:A I
*I vs_14_23:A I
*I vs_13_23:A I
*I vs_12_23:A I
*I vs_10_23:A I
*I vs_9_23:A I
*I vs_2_23:A I
*CAP
1 pgm_lp23:1 1.122394e-01
*RES
1 lt_lp23:Z pgm_lp23:1 1.263710e+02
2 pgm_lp23:1 vs_61_23:A 1.000000e-03
3 pgm_lp23:1 vs_60_23:A 1.000000e-03
4 pgm_lp23:1 vs_54_23:A 1.000000e-03
5 pgm_lp23:1 vs_51_23:A 1.000000e-03
6 pgm_lp23:1 vs_50_23:A 1.000000e-03
7 pgm_lp23:1 vs_49_23:A 1.000000e-03
8 pgm_lp23:1 vs_47_23:A 1.000000e-03
9 pgm_lp23:1 vs_44_23:A 1.000000e-03
10 pgm_lp23:1 vs_42_23:A 1.000000e-03
11 pgm_lp23:1 vs_41_23:A 1.000000e-03
12 pgm_lp23:1 vs_35_23:A 1.000000e-03
13 pgm_lp23:1 vs_31_23:A 1.000000e-03
14 pgm_lp23:1 vs_27_23:A 1.000000e-03
15 pgm_lp23:1 vs_24_23:A 1.000000e-03
16 pgm_lp23:1 vs_23_23:A 1.000000e-03
17 pgm_lp23:1 vs_21_23:A 1.000000e-03
18 pgm_lp23:1 vs_18_23:A 1.000000e-03
19 pgm_lp23:1 vs_16_23:A 1.000000e-03
20 pgm_lp23:1 vs_15_23:A 1.000000e-03
21 pgm_lp23:1 vs_14_23:A 1.000000e-03
22 pgm_lp23:1 vs_13_23:A 1.000000e-03
23 pgm_lp23:1 vs_12_23:A 1.000000e-03
24 pgm_lp23:1 vs_10_23:A 1.000000e-03
25 pgm_lp23:1 vs_9_23:A 1.000000e-03
26 pgm_lp23:1 vs_2_23:A 1.000000e-03
*END

*D_NET pgm_lp24 1.033624e-01
*CONN
*I lt_lp24:Z O
*I vs_62_24:A I
*I vs_61_24:A I
*I vs_59_24:A I
*I vs_58_24:A I
*I vs_57_24:A I
*I vs_54_24:A I
*I vs_53_24:A I
*I vs_52_24:A I
*I vs_51_24:A I
*I vs_49_24:A I
*I vs_48_24:A I
*I vs_47_24:A I
*I vs_41_24:A I
*I vs_40_24:A I
*I vs_38_24:A I
*I vs_36_24:A I
*I vs_34_24:A I
*I vs_33_24:A I
*I vs_32_24:A I
*I vs_30_24:A I
*I vs_28_24:A I
*I vs_27_24:A I
*I vs_26_24:A I
*I vs_25_24:A I
*I vs_24_24:A I
*I vs_18_24:A I
*I vs_15_24:A I
*I vs_14_24:A I
*I vs_12_24:A I
*I vs_9_24:A I
*I vs_8_24:A I
*I vs_7_24:A I
*I vs_4_24:A I
*I vs_3_24:A I
*CAP
1 pgm_lp24:1 1.033624e-01
*RES
1 lt_lp24:Z pgm_lp24:1 1.164853e+02
2 pgm_lp24:1 vs_62_24:A 1.000000e-03
3 pgm_lp24:1 vs_61_24:A 1.000000e-03
4 pgm_lp24:1 vs_59_24:A 1.000000e-03
5 pgm_lp24:1 vs_58_24:A 1.000000e-03
6 pgm_lp24:1 vs_57_24:A 1.000000e-03
7 pgm_lp24:1 vs_54_24:A 1.000000e-03
8 pgm_lp24:1 vs_53_24:A 1.000000e-03
9 pgm_lp24:1 vs_52_24:A 1.000000e-03
10 pgm_lp24:1 vs_51_24:A 1.000000e-03
11 pgm_lp24:1 vs_49_24:A 1.000000e-03
12 pgm_lp24:1 vs_48_24:A 1.000000e-03
13 pgm_lp24:1 vs_47_24:A 1.000000e-03
14 pgm_lp24:1 vs_41_24:A 1.000000e-03
15 pgm_lp24:1 vs_40_24:A 1.000000e-03
16 pgm_lp24:1 vs_38_24:A 1.000000e-03
17 pgm_lp24:1 vs_36_24:A 1.000000e-03
18 pgm_lp24:1 vs_34_24:A 1.000000e-03
19 pgm_lp24:1 vs_33_24:A 1.000000e-03
20 pgm_lp24:1 vs_32_24:A 1.000000e-03
21 pgm_lp24:1 vs_30_24:A 1.000000e-03
22 pgm_lp24:1 vs_28_24:A 1.000000e-03
23 pgm_lp24:1 vs_27_24:A 1.000000e-03
24 pgm_lp24:1 vs_26_24:A 1.000000e-03
25 pgm_lp24:1 vs_25_24:A 1.000000e-03
26 pgm_lp24:1 vs_24_24:A 1.000000e-03
27 pgm_lp24:1 vs_18_24:A 1.000000e-03
28 pgm_lp24:1 vs_15_24:A 1.000000e-03
29 pgm_lp24:1 vs_14_24:A 1.000000e-03
30 pgm_lp24:1 vs_12_24:A 1.000000e-03
31 pgm_lp24:1 vs_9_24:A 1.000000e-03
32 pgm_lp24:1 vs_8_24:A 1.000000e-03
33 pgm_lp24:1 vs_7_24:A 1.000000e-03
34 pgm_lp24:1 vs_4_24:A 1.000000e-03
35 pgm_lp24:1 vs_3_24:A 1.000000e-03
*END

*D_NET pgm_lp25 1.196254e-01
*CONN
*I lt_lp25:Z O
*I vs_60_25:A I
*I vs_57_25:A I
*I vs_56_25:A I
*I vs_55_25:A I
*I vs_53_25:A I
*I vs_51_25:A I
*I vs_50_25:A I
*I vs_47_25:A I
*I vs_41_25:A I
*I vs_38_25:A I
*I vs_37_25:A I
*I vs_34_25:A I
*I vs_32_25:A I
*I vs_31_25:A I
*I vs_29_25:A I
*I vs_26_25:A I
*I vs_24_25:A I
*I vs_23_25:A I
*I vs_22_25:A I
*I vs_19_25:A I
*I vs_17_25:A I
*I vs_15_25:A I
*I vs_12_25:A I
*I vs_11_25:A I
*I vs_9_25:A I
*I vs_8_25:A I
*I vs_6_25:A I
*I vs_4_25:A I
*I vs_3_25:A I
*I vs_2_25:A I
*I vs_0_25:A I
*CAP
1 pgm_lp25:1 1.196254e-01
*RES
1 lt_lp25:Z pgm_lp25:1 1.339002e+02
2 pgm_lp25:1 vs_60_25:A 1.000000e-03
3 pgm_lp25:1 vs_57_25:A 1.000000e-03
4 pgm_lp25:1 vs_56_25:A 1.000000e-03
5 pgm_lp25:1 vs_55_25:A 1.000000e-03
6 pgm_lp25:1 vs_53_25:A 1.000000e-03
7 pgm_lp25:1 vs_51_25:A 1.000000e-03
8 pgm_lp25:1 vs_50_25:A 1.000000e-03
9 pgm_lp25:1 vs_47_25:A 1.000000e-03
10 pgm_lp25:1 vs_41_25:A 1.000000e-03
11 pgm_lp25:1 vs_38_25:A 1.000000e-03
12 pgm_lp25:1 vs_37_25:A 1.000000e-03
13 pgm_lp25:1 vs_34_25:A 1.000000e-03
14 pgm_lp25:1 vs_32_25:A 1.000000e-03
15 pgm_lp25:1 vs_31_25:A 1.000000e-03
16 pgm_lp25:1 vs_29_25:A 1.000000e-03
17 pgm_lp25:1 vs_26_25:A 1.000000e-03
18 pgm_lp25:1 vs_24_25:A 1.000000e-03
19 pgm_lp25:1 vs_23_25:A 1.000000e-03
20 pgm_lp25:1 vs_22_25:A 1.000000e-03
21 pgm_lp25:1 vs_19_25:A 1.000000e-03
22 pgm_lp25:1 vs_17_25:A 1.000000e-03
23 pgm_lp25:1 vs_15_25:A 1.000000e-03
24 pgm_lp25:1 vs_12_25:A 1.000000e-03
25 pgm_lp25:1 vs_11_25:A 1.000000e-03
26 pgm_lp25:1 vs_9_25:A 1.000000e-03
27 pgm_lp25:1 vs_8_25:A 1.000000e-03
28 pgm_lp25:1 vs_6_25:A 1.000000e-03
29 pgm_lp25:1 vs_4_25:A 1.000000e-03
30 pgm_lp25:1 vs_3_25:A 1.000000e-03
31 pgm_lp25:1 vs_2_25:A 1.000000e-03
32 pgm_lp25:1 vs_0_25:A 1.000000e-03
*END

*D_NET pgm_lp26 1.151624e-01
*CONN
*I lt_lp26:Z O
*I vs_61_26:A I
*I vs_60_26:A I
*I vs_59_26:A I
*I vs_56_26:A I
*I vs_55_26:A I
*I vs_54_26:A I
*I vs_53_26:A I
*I vs_51_26:A I
*I vs_48_26:A I
*I vs_47_26:A I
*I vs_43_26:A I
*I vs_41_26:A I
*I vs_39_26:A I
*I vs_37_26:A I
*I vs_35_26:A I
*I vs_26_26:A I
*I vs_25_26:A I
*I vs_21_26:A I
*I vs_20_26:A I
*I vs_18_26:A I
*I vs_16_26:A I
*I vs_15_26:A I
*I vs_14_26:A I
*I vs_12_26:A I
*I vs_9_26:A I
*I vs_8_26:A I
*I vs_5_26:A I
*I vs_3_26:A I
*I vs_2_26:A I
*I vs_1_26:A I
*I vs_0_26:A I
*CAP
1 pgm_lp26:1 1.151624e-01
*RES
1 lt_lp26:Z pgm_lp26:1 1.280272e+02
2 pgm_lp26:1 vs_61_26:A 1.000000e-03
3 pgm_lp26:1 vs_60_26:A 1.000000e-03
4 pgm_lp26:1 vs_59_26:A 1.000000e-03
5 pgm_lp26:1 vs_56_26:A 1.000000e-03
6 pgm_lp26:1 vs_55_26:A 1.000000e-03
7 pgm_lp26:1 vs_54_26:A 1.000000e-03
8 pgm_lp26:1 vs_53_26:A 1.000000e-03
9 pgm_lp26:1 vs_51_26:A 1.000000e-03
10 pgm_lp26:1 vs_48_26:A 1.000000e-03
11 pgm_lp26:1 vs_47_26:A 1.000000e-03
12 pgm_lp26:1 vs_43_26:A 1.000000e-03
13 pgm_lp26:1 vs_41_26:A 1.000000e-03
14 pgm_lp26:1 vs_39_26:A 1.000000e-03
15 pgm_lp26:1 vs_37_26:A 1.000000e-03
16 pgm_lp26:1 vs_35_26:A 1.000000e-03
17 pgm_lp26:1 vs_26_26:A 1.000000e-03
18 pgm_lp26:1 vs_25_26:A 1.000000e-03
19 pgm_lp26:1 vs_21_26:A 1.000000e-03
20 pgm_lp26:1 vs_20_26:A 1.000000e-03
21 pgm_lp26:1 vs_18_26:A 1.000000e-03
22 pgm_lp26:1 vs_16_26:A 1.000000e-03
23 pgm_lp26:1 vs_15_26:A 1.000000e-03
24 pgm_lp26:1 vs_14_26:A 1.000000e-03
25 pgm_lp26:1 vs_12_26:A 1.000000e-03
26 pgm_lp26:1 vs_9_26:A 1.000000e-03
27 pgm_lp26:1 vs_8_26:A 1.000000e-03
28 pgm_lp26:1 vs_5_26:A 1.000000e-03
29 pgm_lp26:1 vs_3_26:A 1.000000e-03
30 pgm_lp26:1 vs_2_26:A 1.000000e-03
31 pgm_lp26:1 vs_1_26:A 1.000000e-03
32 pgm_lp26:1 vs_0_26:A 1.000000e-03
*END

*D_NET pgm_lp27 1.095969e-01
*CONN
*I lt_lp27:Z O
*I vs_60_27:A I
*I vs_57_27:A I
*I vs_54_27:A I
*I vs_52_27:A I
*I vs_51_27:A I
*I vs_50_27:A I
*I vs_45_27:A I
*I vs_44_27:A I
*I vs_41_27:A I
*I vs_39_27:A I
*I vs_35_27:A I
*I vs_33_27:A I
*I vs_30_27:A I
*I vs_27_27:A I
*I vs_26_27:A I
*I vs_23_27:A I
*I vs_21_27:A I
*I vs_16_27:A I
*I vs_14_27:A I
*I vs_12_27:A I
*I vs_10_27:A I
*I vs_8_27:A I
*I vs_6_27:A I
*I vs_4_27:A I
*I vs_3_27:A I
*I vs_2_27:A I
*I vs_1_27:A I
*CAP
1 pgm_lp27:1 1.095969e-01
*RES
1 lt_lp27:Z pgm_lp27:1 1.243686e+02
2 pgm_lp27:1 vs_60_27:A 1.000000e-03
3 pgm_lp27:1 vs_57_27:A 1.000000e-03
4 pgm_lp27:1 vs_54_27:A 1.000000e-03
5 pgm_lp27:1 vs_52_27:A 1.000000e-03
6 pgm_lp27:1 vs_51_27:A 1.000000e-03
7 pgm_lp27:1 vs_50_27:A 1.000000e-03
8 pgm_lp27:1 vs_45_27:A 1.000000e-03
9 pgm_lp27:1 vs_44_27:A 1.000000e-03
10 pgm_lp27:1 vs_41_27:A 1.000000e-03
11 pgm_lp27:1 vs_39_27:A 1.000000e-03
12 pgm_lp27:1 vs_35_27:A 1.000000e-03
13 pgm_lp27:1 vs_33_27:A 1.000000e-03
14 pgm_lp27:1 vs_30_27:A 1.000000e-03
15 pgm_lp27:1 vs_27_27:A 1.000000e-03
16 pgm_lp27:1 vs_26_27:A 1.000000e-03
17 pgm_lp27:1 vs_23_27:A 1.000000e-03
18 pgm_lp27:1 vs_21_27:A 1.000000e-03
19 pgm_lp27:1 vs_16_27:A 1.000000e-03
20 pgm_lp27:1 vs_14_27:A 1.000000e-03
21 pgm_lp27:1 vs_12_27:A 1.000000e-03
22 pgm_lp27:1 vs_10_27:A 1.000000e-03
23 pgm_lp27:1 vs_8_27:A 1.000000e-03
24 pgm_lp27:1 vs_6_27:A 1.000000e-03
25 pgm_lp27:1 vs_4_27:A 1.000000e-03
26 pgm_lp27:1 vs_3_27:A 1.000000e-03
27 pgm_lp27:1 vs_2_27:A 1.000000e-03
28 pgm_lp27:1 vs_1_27:A 1.000000e-03
*END

*D_NET pgm_lp28 1.023184e-01
*CONN
*I lt_lp28:Z O
*I vs_61_28:A I
*I vs_59_28:A I
*I vs_57_28:A I
*I vs_55_28:A I
*I vs_52_28:A I
*I vs_50_28:A I
*I vs_49_28:A I
*I vs_42_28:A I
*I vs_41_28:A I
*I vs_39_28:A I
*I vs_38_28:A I
*I vs_33_28:A I
*I vs_29_28:A I
*I vs_27_28:A I
*I vs_24_28:A I
*I vs_23_28:A I
*I vs_22_28:A I
*I vs_21_28:A I
*I vs_20_28:A I
*I vs_19_28:A I
*I vs_12_28:A I
*I vs_10_28:A I
*I vs_8_28:A I
*I vs_7_28:A I
*I vs_6_28:A I
*I vs_4_28:A I
*CAP
1 pgm_lp28:1 1.023184e-01
*RES
1 lt_lp28:Z pgm_lp28:1 1.134083e+02
2 pgm_lp28:1 vs_61_28:A 1.000000e-03
3 pgm_lp28:1 vs_59_28:A 1.000000e-03
4 pgm_lp28:1 vs_57_28:A 1.000000e-03
5 pgm_lp28:1 vs_55_28:A 1.000000e-03
6 pgm_lp28:1 vs_52_28:A 1.000000e-03
7 pgm_lp28:1 vs_50_28:A 1.000000e-03
8 pgm_lp28:1 vs_49_28:A 1.000000e-03
9 pgm_lp28:1 vs_42_28:A 1.000000e-03
10 pgm_lp28:1 vs_41_28:A 1.000000e-03
11 pgm_lp28:1 vs_39_28:A 1.000000e-03
12 pgm_lp28:1 vs_38_28:A 1.000000e-03
13 pgm_lp28:1 vs_33_28:A 1.000000e-03
14 pgm_lp28:1 vs_29_28:A 1.000000e-03
15 pgm_lp28:1 vs_27_28:A 1.000000e-03
16 pgm_lp28:1 vs_24_28:A 1.000000e-03
17 pgm_lp28:1 vs_23_28:A 1.000000e-03
18 pgm_lp28:1 vs_22_28:A 1.000000e-03
19 pgm_lp28:1 vs_21_28:A 1.000000e-03
20 pgm_lp28:1 vs_20_28:A 1.000000e-03
21 pgm_lp28:1 vs_19_28:A 1.000000e-03
22 pgm_lp28:1 vs_12_28:A 1.000000e-03
23 pgm_lp28:1 vs_10_28:A 1.000000e-03
24 pgm_lp28:1 vs_8_28:A 1.000000e-03
25 pgm_lp28:1 vs_7_28:A 1.000000e-03
26 pgm_lp28:1 vs_6_28:A 1.000000e-03
27 pgm_lp28:1 vs_4_28:A 1.000000e-03
*END

*D_NET pgm_lp29 1.171082e-01
*CONN
*I lt_lp29:Z O
*I vs_62_29:A I
*I vs_61_29:A I
*I vs_60_29:A I
*I vs_56_29:A I
*I vs_53_29:A I
*I vs_51_29:A I
*I vs_48_29:A I
*I vs_45_29:A I
*I vs_43_29:A I
*I vs_41_29:A I
*I vs_40_29:A I
*I vs_39_29:A I
*I vs_38_29:A I
*I vs_35_29:A I
*I vs_32_29:A I
*I vs_29_29:A I
*I vs_23_29:A I
*I vs_21_29:A I
*I vs_19_29:A I
*I vs_18_29:A I
*I vs_17_29:A I
*I vs_15_29:A I
*I vs_14_29:A I
*I vs_13_29:A I
*I vs_12_29:A I
*I vs_11_29:A I
*I vs_10_29:A I
*I vs_8_29:A I
*I vs_7_29:A I
*I vs_6_29:A I
*I vs_5_29:A I
*I vs_3_29:A I
*I vs_1_29:A I
*I vs_0_29:A I
*CAP
1 pgm_lp29:1 1.171082e-01
*RES
1 lt_lp29:Z pgm_lp29:1 1.323280e+02
2 pgm_lp29:1 vs_62_29:A 1.000000e-03
3 pgm_lp29:1 vs_61_29:A 1.000000e-03
4 pgm_lp29:1 vs_60_29:A 1.000000e-03
5 pgm_lp29:1 vs_56_29:A 1.000000e-03
6 pgm_lp29:1 vs_53_29:A 1.000000e-03
7 pgm_lp29:1 vs_51_29:A 1.000000e-03
8 pgm_lp29:1 vs_48_29:A 1.000000e-03
9 pgm_lp29:1 vs_45_29:A 1.000000e-03
10 pgm_lp29:1 vs_43_29:A 1.000000e-03
11 pgm_lp29:1 vs_41_29:A 1.000000e-03
12 pgm_lp29:1 vs_40_29:A 1.000000e-03
13 pgm_lp29:1 vs_39_29:A 1.000000e-03
14 pgm_lp29:1 vs_38_29:A 1.000000e-03
15 pgm_lp29:1 vs_35_29:A 1.000000e-03
16 pgm_lp29:1 vs_32_29:A 1.000000e-03
17 pgm_lp29:1 vs_29_29:A 1.000000e-03
18 pgm_lp29:1 vs_23_29:A 1.000000e-03
19 pgm_lp29:1 vs_21_29:A 1.000000e-03
20 pgm_lp29:1 vs_19_29:A 1.000000e-03
21 pgm_lp29:1 vs_18_29:A 1.000000e-03
22 pgm_lp29:1 vs_17_29:A 1.000000e-03
23 pgm_lp29:1 vs_15_29:A 1.000000e-03
24 pgm_lp29:1 vs_14_29:A 1.000000e-03
25 pgm_lp29:1 vs_13_29:A 1.000000e-03
26 pgm_lp29:1 vs_12_29:A 1.000000e-03
27 pgm_lp29:1 vs_11_29:A 1.000000e-03
28 pgm_lp29:1 vs_10_29:A 1.000000e-03
29 pgm_lp29:1 vs_8_29:A 1.000000e-03
30 pgm_lp29:1 vs_7_29:A 1.000000e-03
31 pgm_lp29:1 vs_6_29:A 1.000000e-03
32 pgm_lp29:1 vs_5_29:A 1.000000e-03
33 pgm_lp29:1 vs_3_29:A 1.000000e-03
34 pgm_lp29:1 vs_1_29:A 1.000000e-03
35 pgm_lp29:1 vs_0_29:A 1.000000e-03
*END

*D_NET pgm_lp3 1.144089e-01
*CONN
*I lt_lp3:Z O
*I vs_63_3:A I
*I vs_61_3:A I
*I vs_60_3:A I
*I vs_56_3:A I
*I vs_54_3:A I
*I vs_53_3:A I
*I vs_52_3:A I
*I vs_51_3:A I
*I vs_49_3:A I
*I vs_47_3:A I
*I vs_41_3:A I
*I vs_39_3:A I
*I vs_35_3:A I
*I vs_33_3:A I
*I vs_32_3:A I
*I vs_30_3:A I
*I vs_28_3:A I
*I vs_24_3:A I
*I vs_22_3:A I
*I vs_19_3:A I
*I vs_18_3:A I
*I vs_17_3:A I
*I vs_15_3:A I
*I vs_11_3:A I
*I vs_7_3:A I
*I vs_3_3:A I
*I vs_2_3:A I
*CAP
1 pgm_lp3:1 1.144089e-01
*RES
1 lt_lp3:Z pgm_lp3:1 1.291209e+02
2 pgm_lp3:1 vs_63_3:A 1.000000e-03
3 pgm_lp3:1 vs_61_3:A 1.000000e-03
4 pgm_lp3:1 vs_60_3:A 1.000000e-03
5 pgm_lp3:1 vs_56_3:A 1.000000e-03
6 pgm_lp3:1 vs_54_3:A 1.000000e-03
7 pgm_lp3:1 vs_53_3:A 1.000000e-03
8 pgm_lp3:1 vs_52_3:A 1.000000e-03
9 pgm_lp3:1 vs_51_3:A 1.000000e-03
10 pgm_lp3:1 vs_49_3:A 1.000000e-03
11 pgm_lp3:1 vs_47_3:A 1.000000e-03
12 pgm_lp3:1 vs_41_3:A 1.000000e-03
13 pgm_lp3:1 vs_39_3:A 1.000000e-03
14 pgm_lp3:1 vs_35_3:A 1.000000e-03
15 pgm_lp3:1 vs_33_3:A 1.000000e-03
16 pgm_lp3:1 vs_32_3:A 1.000000e-03
17 pgm_lp3:1 vs_30_3:A 1.000000e-03
18 pgm_lp3:1 vs_28_3:A 1.000000e-03
19 pgm_lp3:1 vs_24_3:A 1.000000e-03
20 pgm_lp3:1 vs_22_3:A 1.000000e-03
21 pgm_lp3:1 vs_19_3:A 1.000000e-03
22 pgm_lp3:1 vs_18_3:A 1.000000e-03
23 pgm_lp3:1 vs_17_3:A 1.000000e-03
24 pgm_lp3:1 vs_15_3:A 1.000000e-03
25 pgm_lp3:1 vs_11_3:A 1.000000e-03
26 pgm_lp3:1 vs_7_3:A 1.000000e-03
27 pgm_lp3:1 vs_3_3:A 1.000000e-03
28 pgm_lp3:1 vs_2_3:A 1.000000e-03
*END

*D_NET pgm_lp30 1.080542e-01
*CONN
*I lt_lp30:Z O
*I vs_62_30:A I
*I vs_61_30:A I
*I vs_59_30:A I
*I vs_56_30:A I
*I vs_55_30:A I
*I vs_53_30:A I
*I vs_52_30:A I
*I vs_50_30:A I
*I vs_49_30:A I
*I vs_47_30:A I
*I vs_43_30:A I
*I vs_42_30:A I
*I vs_40_30:A I
*I vs_38_30:A I
*I vs_37_30:A I
*I vs_36_30:A I
*I vs_34_30:A I
*I vs_30_30:A I
*I vs_29_30:A I
*I vs_28_30:A I
*I vs_26_30:A I
*I vs_24_30:A I
*I vs_22_30:A I
*I vs_21_30:A I
*I vs_20_30:A I
*I vs_19_30:A I
*I vs_18_30:A I
*I vs_16_30:A I
*I vs_15_30:A I
*I vs_10_30:A I
*I vs_8_30:A I
*I vs_7_30:A I
*I vs_4_30:A I
*I vs_3_30:A I
*I vs_2_30:A I
*CAP
1 pgm_lp30:1 1.080542e-01
*RES
1 lt_lp30:Z pgm_lp30:1 1.219097e+02
2 pgm_lp30:1 vs_62_30:A 1.000000e-03
3 pgm_lp30:1 vs_61_30:A 1.000000e-03
4 pgm_lp30:1 vs_59_30:A 1.000000e-03
5 pgm_lp30:1 vs_56_30:A 1.000000e-03
6 pgm_lp30:1 vs_55_30:A 1.000000e-03
7 pgm_lp30:1 vs_53_30:A 1.000000e-03
8 pgm_lp30:1 vs_52_30:A 1.000000e-03
9 pgm_lp30:1 vs_50_30:A 1.000000e-03
10 pgm_lp30:1 vs_49_30:A 1.000000e-03
11 pgm_lp30:1 vs_47_30:A 1.000000e-03
12 pgm_lp30:1 vs_43_30:A 1.000000e-03
13 pgm_lp30:1 vs_42_30:A 1.000000e-03
14 pgm_lp30:1 vs_40_30:A 1.000000e-03
15 pgm_lp30:1 vs_38_30:A 1.000000e-03
16 pgm_lp30:1 vs_37_30:A 1.000000e-03
17 pgm_lp30:1 vs_36_30:A 1.000000e-03
18 pgm_lp30:1 vs_34_30:A 1.000000e-03
19 pgm_lp30:1 vs_30_30:A 1.000000e-03
20 pgm_lp30:1 vs_29_30:A 1.000000e-03
21 pgm_lp30:1 vs_28_30:A 1.000000e-03
22 pgm_lp30:1 vs_26_30:A 1.000000e-03
23 pgm_lp30:1 vs_24_30:A 1.000000e-03
24 pgm_lp30:1 vs_22_30:A 1.000000e-03
25 pgm_lp30:1 vs_21_30:A 1.000000e-03
26 pgm_lp30:1 vs_20_30:A 1.000000e-03
27 pgm_lp30:1 vs_19_30:A 1.000000e-03
28 pgm_lp30:1 vs_18_30:A 1.000000e-03
29 pgm_lp30:1 vs_16_30:A 1.000000e-03
30 pgm_lp30:1 vs_15_30:A 1.000000e-03
31 pgm_lp30:1 vs_10_30:A 1.000000e-03
32 pgm_lp30:1 vs_8_30:A 1.000000e-03
33 pgm_lp30:1 vs_7_30:A 1.000000e-03
34 pgm_lp30:1 vs_4_30:A 1.000000e-03
35 pgm_lp30:1 vs_3_30:A 1.000000e-03
36 pgm_lp30:1 vs_2_30:A 1.000000e-03
*END

*D_NET pgm_lp31 1.107198e-01
*CONN
*I lt_lp31:Z O
*I vs_63_31:A I
*I vs_62_31:A I
*I vs_61_31:A I
*I vs_60_31:A I
*I vs_59_31:A I
*I vs_58_31:A I
*I vs_55_31:A I
*I vs_53_31:A I
*I vs_52_31:A I
*I vs_51_31:A I
*I vs_48_31:A I
*I vs_45_31:A I
*I vs_43_31:A I
*I vs_42_31:A I
*I vs_37_31:A I
*I vs_36_31:A I
*I vs_33_31:A I
*I vs_31_31:A I
*I vs_28_31:A I
*I vs_26_31:A I
*I vs_25_31:A I
*I vs_23_31:A I
*I vs_22_31:A I
*I vs_21_31:A I
*I vs_19_31:A I
*I vs_11_31:A I
*I vs_9_31:A I
*I vs_8_31:A I
*I vs_7_31:A I
*I vs_4_31:A I
*I vs_1_31:A I
*I vs_0_31:A I
*CAP
1 pgm_lp31:1 1.107198e-01
*RES
1 lt_lp31:Z pgm_lp31:1 1.256428e+02
2 pgm_lp31:1 vs_63_31:A 1.000000e-03
3 pgm_lp31:1 vs_62_31:A 1.000000e-03
4 pgm_lp31:1 vs_61_31:A 1.000000e-03
5 pgm_lp31:1 vs_60_31:A 1.000000e-03
6 pgm_lp31:1 vs_59_31:A 1.000000e-03
7 pgm_lp31:1 vs_58_31:A 1.000000e-03
8 pgm_lp31:1 vs_55_31:A 1.000000e-03
9 pgm_lp31:1 vs_53_31:A 1.000000e-03
10 pgm_lp31:1 vs_52_31:A 1.000000e-03
11 pgm_lp31:1 vs_51_31:A 1.000000e-03
12 pgm_lp31:1 vs_48_31:A 1.000000e-03
13 pgm_lp31:1 vs_45_31:A 1.000000e-03
14 pgm_lp31:1 vs_43_31:A 1.000000e-03
15 pgm_lp31:1 vs_42_31:A 1.000000e-03
16 pgm_lp31:1 vs_37_31:A 1.000000e-03
17 pgm_lp31:1 vs_36_31:A 1.000000e-03
18 pgm_lp31:1 vs_33_31:A 1.000000e-03
19 pgm_lp31:1 vs_31_31:A 1.000000e-03
20 pgm_lp31:1 vs_28_31:A 1.000000e-03
21 pgm_lp31:1 vs_26_31:A 1.000000e-03
22 pgm_lp31:1 vs_25_31:A 1.000000e-03
23 pgm_lp31:1 vs_23_31:A 1.000000e-03
24 pgm_lp31:1 vs_22_31:A 1.000000e-03
25 pgm_lp31:1 vs_21_31:A 1.000000e-03
26 pgm_lp31:1 vs_19_31:A 1.000000e-03
27 pgm_lp31:1 vs_11_31:A 1.000000e-03
28 pgm_lp31:1 vs_9_31:A 1.000000e-03
29 pgm_lp31:1 vs_8_31:A 1.000000e-03
30 pgm_lp31:1 vs_7_31:A 1.000000e-03
31 pgm_lp31:1 vs_4_31:A 1.000000e-03
32 pgm_lp31:1 vs_1_31:A 1.000000e-03
33 pgm_lp31:1 vs_0_31:A 1.000000e-03
*END

*D_NET pgm_lp32 1.152232e-01
*CONN
*I lt_lp32:Z O
*I vs_60_32:A I
*I vs_59_32:A I
*I vs_57_32:A I
*I vs_55_32:A I
*I vs_52_32:A I
*I vs_51_32:A I
*I vs_49_32:A I
*I vs_48_32:A I
*I vs_47_32:A I
*I vs_45_32:A I
*I vs_44_32:A I
*I vs_41_32:A I
*I vs_39_32:A I
*I vs_38_32:A I
*I vs_36_32:A I
*I vs_35_32:A I
*I vs_33_32:A I
*I vs_27_32:A I
*I vs_26_32:A I
*I vs_23_32:A I
*I vs_22_32:A I
*I vs_13_32:A I
*I vs_11_32:A I
*I vs_10_32:A I
*I vs_8_32:A I
*I vs_0_32:A I
*CAP
1 pgm_lp32:1 1.152232e-01
*RES
1 lt_lp32:Z pgm_lp32:1 1.299009e+02
2 pgm_lp32:1 vs_60_32:A 1.000000e-03
3 pgm_lp32:1 vs_59_32:A 1.000000e-03
4 pgm_lp32:1 vs_57_32:A 1.000000e-03
5 pgm_lp32:1 vs_55_32:A 1.000000e-03
6 pgm_lp32:1 vs_52_32:A 1.000000e-03
7 pgm_lp32:1 vs_51_32:A 1.000000e-03
8 pgm_lp32:1 vs_49_32:A 1.000000e-03
9 pgm_lp32:1 vs_48_32:A 1.000000e-03
10 pgm_lp32:1 vs_47_32:A 1.000000e-03
11 pgm_lp32:1 vs_45_32:A 1.000000e-03
12 pgm_lp32:1 vs_44_32:A 1.000000e-03
13 pgm_lp32:1 vs_41_32:A 1.000000e-03
14 pgm_lp32:1 vs_39_32:A 1.000000e-03
15 pgm_lp32:1 vs_38_32:A 1.000000e-03
16 pgm_lp32:1 vs_36_32:A 1.000000e-03
17 pgm_lp32:1 vs_35_32:A 1.000000e-03
18 pgm_lp32:1 vs_33_32:A 1.000000e-03
19 pgm_lp32:1 vs_27_32:A 1.000000e-03
20 pgm_lp32:1 vs_26_32:A 1.000000e-03
21 pgm_lp32:1 vs_23_32:A 1.000000e-03
22 pgm_lp32:1 vs_22_32:A 1.000000e-03
23 pgm_lp32:1 vs_13_32:A 1.000000e-03
24 pgm_lp32:1 vs_11_32:A 1.000000e-03
25 pgm_lp32:1 vs_10_32:A 1.000000e-03
26 pgm_lp32:1 vs_8_32:A 1.000000e-03
27 pgm_lp32:1 vs_0_32:A 1.000000e-03
*END

*D_NET pgm_lp33 1.152586e-01
*CONN
*I lt_lp33:Z O
*I vs_63_33:A I
*I vs_62_33:A I
*I vs_58_33:A I
*I vs_57_33:A I
*I vs_55_33:A I
*I vs_52_33:A I
*I vs_51_33:A I
*I vs_50_33:A I
*I vs_49_33:A I
*I vs_48_33:A I
*I vs_47_33:A I
*I vs_45_33:A I
*I vs_42_33:A I
*I vs_41_33:A I
*I vs_37_33:A I
*I vs_35_33:A I
*I vs_32_33:A I
*I vs_31_33:A I
*I vs_27_33:A I
*I vs_26_33:A I
*I vs_24_33:A I
*I vs_20_33:A I
*I vs_19_33:A I
*I vs_17_33:A I
*I vs_15_33:A I
*I vs_14_33:A I
*I vs_13_33:A I
*I vs_12_33:A I
*I vs_10_33:A I
*I vs_9_33:A I
*I vs_7_33:A I
*I vs_4_33:A I
*I vs_3_33:A I
*I vs_2_33:A I
*I vs_1_33:A I
*I vs_0_33:A I
*CAP
1 pgm_lp33:1 1.152586e-01
*RES
1 lt_lp33:Z pgm_lp33:1 1.291649e+02
2 pgm_lp33:1 vs_63_33:A 1.000000e-03
3 pgm_lp33:1 vs_62_33:A 1.000000e-03
4 pgm_lp33:1 vs_58_33:A 1.000000e-03
5 pgm_lp33:1 vs_57_33:A 1.000000e-03
6 pgm_lp33:1 vs_55_33:A 1.000000e-03
7 pgm_lp33:1 vs_52_33:A 1.000000e-03
8 pgm_lp33:1 vs_51_33:A 1.000000e-03
9 pgm_lp33:1 vs_50_33:A 1.000000e-03
10 pgm_lp33:1 vs_49_33:A 1.000000e-03
11 pgm_lp33:1 vs_48_33:A 1.000000e-03
12 pgm_lp33:1 vs_47_33:A 1.000000e-03
13 pgm_lp33:1 vs_45_33:A 1.000000e-03
14 pgm_lp33:1 vs_42_33:A 1.000000e-03
15 pgm_lp33:1 vs_41_33:A 1.000000e-03
16 pgm_lp33:1 vs_37_33:A 1.000000e-03
17 pgm_lp33:1 vs_35_33:A 1.000000e-03
18 pgm_lp33:1 vs_32_33:A 1.000000e-03
19 pgm_lp33:1 vs_31_33:A 1.000000e-03
20 pgm_lp33:1 vs_27_33:A 1.000000e-03
21 pgm_lp33:1 vs_26_33:A 1.000000e-03
22 pgm_lp33:1 vs_24_33:A 1.000000e-03
23 pgm_lp33:1 vs_20_33:A 1.000000e-03
24 pgm_lp33:1 vs_19_33:A 1.000000e-03
25 pgm_lp33:1 vs_17_33:A 1.000000e-03
26 pgm_lp33:1 vs_15_33:A 1.000000e-03
27 pgm_lp33:1 vs_14_33:A 1.000000e-03
28 pgm_lp33:1 vs_13_33:A 1.000000e-03
29 pgm_lp33:1 vs_12_33:A 1.000000e-03
30 pgm_lp33:1 vs_10_33:A 1.000000e-03
31 pgm_lp33:1 vs_9_33:A 1.000000e-03
32 pgm_lp33:1 vs_7_33:A 1.000000e-03
33 pgm_lp33:1 vs_4_33:A 1.000000e-03
34 pgm_lp33:1 vs_3_33:A 1.000000e-03
35 pgm_lp33:1 vs_2_33:A 1.000000e-03
36 pgm_lp33:1 vs_1_33:A 1.000000e-03
37 pgm_lp33:1 vs_0_33:A 1.000000e-03
*END

*D_NET pgm_lp34 1.125719e-01
*CONN
*I lt_lp34:Z O
*I vs_62_34:A I
*I vs_59_34:A I
*I vs_58_34:A I
*I vs_57_34:A I
*I vs_56_34:A I
*I vs_54_34:A I
*I vs_53_34:A I
*I vs_50_34:A I
*I vs_47_34:A I
*I vs_46_34:A I
*I vs_45_34:A I
*I vs_44_34:A I
*I vs_43_34:A I
*I vs_40_34:A I
*I vs_34_34:A I
*I vs_33_34:A I
*I vs_32_34:A I
*I vs_28_34:A I
*I vs_27_34:A I
*I vs_25_34:A I
*I vs_21_34:A I
*I vs_20_34:A I
*I vs_19_34:A I
*I vs_18_34:A I
*I vs_14_34:A I
*I vs_8_34:A I
*I vs_7_34:A I
*I vs_5_34:A I
*I vs_4_34:A I
*I vs_3_34:A I
*CAP
1 pgm_lp34:1 1.125719e-01
*RES
1 lt_lp34:Z pgm_lp34:1 1.220193e+02
2 pgm_lp34:1 vs_62_34:A 1.000000e-03
3 pgm_lp34:1 vs_59_34:A 1.000000e-03
4 pgm_lp34:1 vs_58_34:A 1.000000e-03
5 pgm_lp34:1 vs_57_34:A 1.000000e-03
6 pgm_lp34:1 vs_56_34:A 1.000000e-03
7 pgm_lp34:1 vs_54_34:A 1.000000e-03
8 pgm_lp34:1 vs_53_34:A 1.000000e-03
9 pgm_lp34:1 vs_50_34:A 1.000000e-03
10 pgm_lp34:1 vs_47_34:A 1.000000e-03
11 pgm_lp34:1 vs_46_34:A 1.000000e-03
12 pgm_lp34:1 vs_45_34:A 1.000000e-03
13 pgm_lp34:1 vs_44_34:A 1.000000e-03
14 pgm_lp34:1 vs_43_34:A 1.000000e-03
15 pgm_lp34:1 vs_40_34:A 1.000000e-03
16 pgm_lp34:1 vs_34_34:A 1.000000e-03
17 pgm_lp34:1 vs_33_34:A 1.000000e-03
18 pgm_lp34:1 vs_32_34:A 1.000000e-03
19 pgm_lp34:1 vs_28_34:A 1.000000e-03
20 pgm_lp34:1 vs_27_34:A 1.000000e-03
21 pgm_lp34:1 vs_25_34:A 1.000000e-03
22 pgm_lp34:1 vs_21_34:A 1.000000e-03
23 pgm_lp34:1 vs_20_34:A 1.000000e-03
24 pgm_lp34:1 vs_19_34:A 1.000000e-03
25 pgm_lp34:1 vs_18_34:A 1.000000e-03
26 pgm_lp34:1 vs_14_34:A 1.000000e-03
27 pgm_lp34:1 vs_8_34:A 1.000000e-03
28 pgm_lp34:1 vs_7_34:A 1.000000e-03
29 pgm_lp34:1 vs_5_34:A 1.000000e-03
30 pgm_lp34:1 vs_4_34:A 1.000000e-03
31 pgm_lp34:1 vs_3_34:A 1.000000e-03
*END

*D_NET pgm_lp35 1.078016e-01
*CONN
*I lt_lp35:Z O
*I vs_62_35:A I
*I vs_60_35:A I
*I vs_57_35:A I
*I vs_53_35:A I
*I vs_48_35:A I
*I vs_47_35:A I
*I vs_46_35:A I
*I vs_44_35:A I
*I vs_42_35:A I
*I vs_41_35:A I
*I vs_39_35:A I
*I vs_37_35:A I
*I vs_35_35:A I
*I vs_34_35:A I
*I vs_32_35:A I
*I vs_31_35:A I
*I vs_30_35:A I
*I vs_29_35:A I
*I vs_28_35:A I
*I vs_27_35:A I
*I vs_26_35:A I
*I vs_24_35:A I
*I vs_23_35:A I
*I vs_22_35:A I
*I vs_21_35:A I
*I vs_18_35:A I
*I vs_16_35:A I
*I vs_13_35:A I
*I vs_10_35:A I
*I vs_8_35:A I
*I vs_7_35:A I
*I vs_6_35:A I
*I vs_3_35:A I
*CAP
1 pgm_lp35:1 1.078016e-01
*RES
1 lt_lp35:Z pgm_lp35:1 1.223314e+02
2 pgm_lp35:1 vs_62_35:A 1.000000e-03
3 pgm_lp35:1 vs_60_35:A 1.000000e-03
4 pgm_lp35:1 vs_57_35:A 1.000000e-03
5 pgm_lp35:1 vs_53_35:A 1.000000e-03
6 pgm_lp35:1 vs_48_35:A 1.000000e-03
7 pgm_lp35:1 vs_47_35:A 1.000000e-03
8 pgm_lp35:1 vs_46_35:A 1.000000e-03
9 pgm_lp35:1 vs_44_35:A 1.000000e-03
10 pgm_lp35:1 vs_42_35:A 1.000000e-03
11 pgm_lp35:1 vs_41_35:A 1.000000e-03
12 pgm_lp35:1 vs_39_35:A 1.000000e-03
13 pgm_lp35:1 vs_37_35:A 1.000000e-03
14 pgm_lp35:1 vs_35_35:A 1.000000e-03
15 pgm_lp35:1 vs_34_35:A 1.000000e-03
16 pgm_lp35:1 vs_32_35:A 1.000000e-03
17 pgm_lp35:1 vs_31_35:A 1.000000e-03
18 pgm_lp35:1 vs_30_35:A 1.000000e-03
19 pgm_lp35:1 vs_29_35:A 1.000000e-03
20 pgm_lp35:1 vs_28_35:A 1.000000e-03
21 pgm_lp35:1 vs_27_35:A 1.000000e-03
22 pgm_lp35:1 vs_26_35:A 1.000000e-03
23 pgm_lp35:1 vs_24_35:A 1.000000e-03
24 pgm_lp35:1 vs_23_35:A 1.000000e-03
25 pgm_lp35:1 vs_22_35:A 1.000000e-03
26 pgm_lp35:1 vs_21_35:A 1.000000e-03
27 pgm_lp35:1 vs_18_35:A 1.000000e-03
28 pgm_lp35:1 vs_16_35:A 1.000000e-03
29 pgm_lp35:1 vs_13_35:A 1.000000e-03
30 pgm_lp35:1 vs_10_35:A 1.000000e-03
31 pgm_lp35:1 vs_8_35:A 1.000000e-03
32 pgm_lp35:1 vs_7_35:A 1.000000e-03
33 pgm_lp35:1 vs_6_35:A 1.000000e-03
34 pgm_lp35:1 vs_3_35:A 1.000000e-03
*END

*D_NET pgm_lp36 1.095340e-01
*CONN
*I lt_lp36:Z O
*I vs_62_36:A I
*I vs_61_36:A I
*I vs_58_36:A I
*I vs_55_36:A I
*I vs_51_36:A I
*I vs_48_36:A I
*I vs_46_36:A I
*I vs_45_36:A I
*I vs_44_36:A I
*I vs_41_36:A I
*I vs_39_36:A I
*I vs_37_36:A I
*I vs_34_36:A I
*I vs_33_36:A I
*I vs_28_36:A I
*I vs_27_36:A I
*I vs_26_36:A I
*I vs_22_36:A I
*I vs_21_36:A I
*I vs_19_36:A I
*I vs_16_36:A I
*I vs_11_36:A I
*I vs_6_36:A I
*I vs_5_36:A I
*I vs_3_36:A I
*CAP
1 pgm_lp36:1 1.095340e-01
*RES
1 lt_lp36:Z pgm_lp36:1 1.221723e+02
2 pgm_lp36:1 vs_62_36:A 1.000000e-03
3 pgm_lp36:1 vs_61_36:A 1.000000e-03
4 pgm_lp36:1 vs_58_36:A 1.000000e-03
5 pgm_lp36:1 vs_55_36:A 1.000000e-03
6 pgm_lp36:1 vs_51_36:A 1.000000e-03
7 pgm_lp36:1 vs_48_36:A 1.000000e-03
8 pgm_lp36:1 vs_46_36:A 1.000000e-03
9 pgm_lp36:1 vs_45_36:A 1.000000e-03
10 pgm_lp36:1 vs_44_36:A 1.000000e-03
11 pgm_lp36:1 vs_41_36:A 1.000000e-03
12 pgm_lp36:1 vs_39_36:A 1.000000e-03
13 pgm_lp36:1 vs_37_36:A 1.000000e-03
14 pgm_lp36:1 vs_34_36:A 1.000000e-03
15 pgm_lp36:1 vs_33_36:A 1.000000e-03
16 pgm_lp36:1 vs_28_36:A 1.000000e-03
17 pgm_lp36:1 vs_27_36:A 1.000000e-03
18 pgm_lp36:1 vs_26_36:A 1.000000e-03
19 pgm_lp36:1 vs_22_36:A 1.000000e-03
20 pgm_lp36:1 vs_21_36:A 1.000000e-03
21 pgm_lp36:1 vs_19_36:A 1.000000e-03
22 pgm_lp36:1 vs_16_36:A 1.000000e-03
23 pgm_lp36:1 vs_11_36:A 1.000000e-03
24 pgm_lp36:1 vs_6_36:A 1.000000e-03
25 pgm_lp36:1 vs_5_36:A 1.000000e-03
26 pgm_lp36:1 vs_3_36:A 1.000000e-03
*END

*D_NET pgm_lp37 9.854098e-02
*CONN
*I lt_lp37:Z O
*I vs_56_37:A I
*I vs_55_37:A I
*I vs_53_37:A I
*I vs_52_37:A I
*I vs_51_37:A I
*I vs_50_37:A I
*I vs_49_37:A I
*I vs_48_37:A I
*I vs_47_37:A I
*I vs_46_37:A I
*I vs_45_37:A I
*I vs_41_37:A I
*I vs_40_37:A I
*I vs_39_37:A I
*I vs_37_37:A I
*I vs_31_37:A I
*I vs_29_37:A I
*I vs_28_37:A I
*I vs_26_37:A I
*I vs_25_37:A I
*I vs_22_37:A I
*I vs_17_37:A I
*I vs_16_37:A I
*I vs_11_37:A I
*I vs_8_37:A I
*I vs_5_37:A I
*I vs_4_37:A I
*I vs_3_37:A I
*I vs_2_37:A I
*I vs_1_37:A I
*I vs_0_37:A I
*CAP
1 pgm_lp37:1 9.854098e-02
*RES
1 lt_lp37:Z pgm_lp37:1 1.109703e+02
2 pgm_lp37:1 vs_56_37:A 1.000000e-03
3 pgm_lp37:1 vs_55_37:A 1.000000e-03
4 pgm_lp37:1 vs_53_37:A 1.000000e-03
5 pgm_lp37:1 vs_52_37:A 1.000000e-03
6 pgm_lp37:1 vs_51_37:A 1.000000e-03
7 pgm_lp37:1 vs_50_37:A 1.000000e-03
8 pgm_lp37:1 vs_49_37:A 1.000000e-03
9 pgm_lp37:1 vs_48_37:A 1.000000e-03
10 pgm_lp37:1 vs_47_37:A 1.000000e-03
11 pgm_lp37:1 vs_46_37:A 1.000000e-03
12 pgm_lp37:1 vs_45_37:A 1.000000e-03
13 pgm_lp37:1 vs_41_37:A 1.000000e-03
14 pgm_lp37:1 vs_40_37:A 1.000000e-03
15 pgm_lp37:1 vs_39_37:A 1.000000e-03
16 pgm_lp37:1 vs_37_37:A 1.000000e-03
17 pgm_lp37:1 vs_31_37:A 1.000000e-03
18 pgm_lp37:1 vs_29_37:A 1.000000e-03
19 pgm_lp37:1 vs_28_37:A 1.000000e-03
20 pgm_lp37:1 vs_26_37:A 1.000000e-03
21 pgm_lp37:1 vs_25_37:A 1.000000e-03
22 pgm_lp37:1 vs_22_37:A 1.000000e-03
23 pgm_lp37:1 vs_17_37:A 1.000000e-03
24 pgm_lp37:1 vs_16_37:A 1.000000e-03
25 pgm_lp37:1 vs_11_37:A 1.000000e-03
26 pgm_lp37:1 vs_8_37:A 1.000000e-03
27 pgm_lp37:1 vs_5_37:A 1.000000e-03
28 pgm_lp37:1 vs_4_37:A 1.000000e-03
29 pgm_lp37:1 vs_3_37:A 1.000000e-03
30 pgm_lp37:1 vs_2_37:A 1.000000e-03
31 pgm_lp37:1 vs_1_37:A 1.000000e-03
32 pgm_lp37:1 vs_0_37:A 1.000000e-03
*END

*D_NET pgm_lp38 1.095268e-01
*CONN
*I lt_lp38:Z O
*I vs_62_38:A I
*I vs_61_38:A I
*I vs_59_38:A I
*I vs_55_38:A I
*I vs_54_38:A I
*I vs_53_38:A I
*I vs_51_38:A I
*I vs_49_38:A I
*I vs_48_38:A I
*I vs_46_38:A I
*I vs_45_38:A I
*I vs_44_38:A I
*I vs_41_38:A I
*I vs_40_38:A I
*I vs_36_38:A I
*I vs_34_38:A I
*I vs_31_38:A I
*I vs_29_38:A I
*I vs_27_38:A I
*I vs_26_38:A I
*I vs_25_38:A I
*I vs_23_38:A I
*I vs_18_38:A I
*I vs_16_38:A I
*I vs_12_38:A I
*I vs_11_38:A I
*I vs_10_38:A I
*I vs_6_38:A I
*I vs_5_38:A I
*I vs_4_38:A I
*I vs_0_38:A I
*CAP
1 pgm_lp38:1 1.095268e-01
*RES
1 lt_lp38:Z pgm_lp38:1 1.215641e+02
2 pgm_lp38:1 vs_62_38:A 1.000000e-03
3 pgm_lp38:1 vs_61_38:A 1.000000e-03
4 pgm_lp38:1 vs_59_38:A 1.000000e-03
5 pgm_lp38:1 vs_55_38:A 1.000000e-03
6 pgm_lp38:1 vs_54_38:A 1.000000e-03
7 pgm_lp38:1 vs_53_38:A 1.000000e-03
8 pgm_lp38:1 vs_51_38:A 1.000000e-03
9 pgm_lp38:1 vs_49_38:A 1.000000e-03
10 pgm_lp38:1 vs_48_38:A 1.000000e-03
11 pgm_lp38:1 vs_46_38:A 1.000000e-03
12 pgm_lp38:1 vs_45_38:A 1.000000e-03
13 pgm_lp38:1 vs_44_38:A 1.000000e-03
14 pgm_lp38:1 vs_41_38:A 1.000000e-03
15 pgm_lp38:1 vs_40_38:A 1.000000e-03
16 pgm_lp38:1 vs_36_38:A 1.000000e-03
17 pgm_lp38:1 vs_34_38:A 1.000000e-03
18 pgm_lp38:1 vs_31_38:A 1.000000e-03
19 pgm_lp38:1 vs_29_38:A 1.000000e-03
20 pgm_lp38:1 vs_27_38:A 1.000000e-03
21 pgm_lp38:1 vs_26_38:A 1.000000e-03
22 pgm_lp38:1 vs_25_38:A 1.000000e-03
23 pgm_lp38:1 vs_23_38:A 1.000000e-03
24 pgm_lp38:1 vs_18_38:A 1.000000e-03
25 pgm_lp38:1 vs_16_38:A 1.000000e-03
26 pgm_lp38:1 vs_12_38:A 1.000000e-03
27 pgm_lp38:1 vs_11_38:A 1.000000e-03
28 pgm_lp38:1 vs_10_38:A 1.000000e-03
29 pgm_lp38:1 vs_6_38:A 1.000000e-03
30 pgm_lp38:1 vs_5_38:A 1.000000e-03
31 pgm_lp38:1 vs_4_38:A 1.000000e-03
32 pgm_lp38:1 vs_0_38:A 1.000000e-03
*END

*D_NET pgm_lp39 1.178707e-01
*CONN
*I lt_lp39:Z O
*I vs_62_39:A I
*I vs_61_39:A I
*I vs_60_39:A I
*I vs_57_39:A I
*I vs_56_39:A I
*I vs_55_39:A I
*I vs_52_39:A I
*I vs_51_39:A I
*I vs_50_39:A I
*I vs_49_39:A I
*I vs_47_39:A I
*I vs_43_39:A I
*I vs_42_39:A I
*I vs_41_39:A I
*I vs_40_39:A I
*I vs_37_39:A I
*I vs_35_39:A I
*I vs_34_39:A I
*I vs_32_39:A I
*I vs_28_39:A I
*I vs_24_39:A I
*I vs_23_39:A I
*I vs_20_39:A I
*I vs_17_39:A I
*I vs_16_39:A I
*I vs_13_39:A I
*I vs_12_39:A I
*I vs_11_39:A I
*I vs_10_39:A I
*I vs_9_39:A I
*I vs_8_39:A I
*I vs_4_39:A I
*I vs_1_39:A I
*CAP
1 pgm_lp39:1 1.178707e-01
*RES
1 lt_lp39:Z pgm_lp39:1 1.318527e+02
2 pgm_lp39:1 vs_62_39:A 1.000000e-03
3 pgm_lp39:1 vs_61_39:A 1.000000e-03
4 pgm_lp39:1 vs_60_39:A 1.000000e-03
5 pgm_lp39:1 vs_57_39:A 1.000000e-03
6 pgm_lp39:1 vs_56_39:A 1.000000e-03
7 pgm_lp39:1 vs_55_39:A 1.000000e-03
8 pgm_lp39:1 vs_52_39:A 1.000000e-03
9 pgm_lp39:1 vs_51_39:A 1.000000e-03
10 pgm_lp39:1 vs_50_39:A 1.000000e-03
11 pgm_lp39:1 vs_49_39:A 1.000000e-03
12 pgm_lp39:1 vs_47_39:A 1.000000e-03
13 pgm_lp39:1 vs_43_39:A 1.000000e-03
14 pgm_lp39:1 vs_42_39:A 1.000000e-03
15 pgm_lp39:1 vs_41_39:A 1.000000e-03
16 pgm_lp39:1 vs_40_39:A 1.000000e-03
17 pgm_lp39:1 vs_37_39:A 1.000000e-03
18 pgm_lp39:1 vs_35_39:A 1.000000e-03
19 pgm_lp39:1 vs_34_39:A 1.000000e-03
20 pgm_lp39:1 vs_32_39:A 1.000000e-03
21 pgm_lp39:1 vs_28_39:A 1.000000e-03
22 pgm_lp39:1 vs_24_39:A 1.000000e-03
23 pgm_lp39:1 vs_23_39:A 1.000000e-03
24 pgm_lp39:1 vs_20_39:A 1.000000e-03
25 pgm_lp39:1 vs_17_39:A 1.000000e-03
26 pgm_lp39:1 vs_16_39:A 1.000000e-03
27 pgm_lp39:1 vs_13_39:A 1.000000e-03
28 pgm_lp39:1 vs_12_39:A 1.000000e-03
29 pgm_lp39:1 vs_11_39:A 1.000000e-03
30 pgm_lp39:1 vs_10_39:A 1.000000e-03
31 pgm_lp39:1 vs_9_39:A 1.000000e-03
32 pgm_lp39:1 vs_8_39:A 1.000000e-03
33 pgm_lp39:1 vs_4_39:A 1.000000e-03
34 pgm_lp39:1 vs_1_39:A 1.000000e-03
*END

*D_NET pgm_lp4 1.069880e-01
*CONN
*I lt_lp4:Z O
*I vs_62_4:A I
*I vs_61_4:A I
*I vs_59_4:A I
*I vs_57_4:A I
*I vs_54_4:A I
*I vs_51_4:A I
*I vs_50_4:A I
*I vs_49_4:A I
*I vs_48_4:A I
*I vs_45_4:A I
*I vs_44_4:A I
*I vs_42_4:A I
*I vs_40_4:A I
*I vs_36_4:A I
*I vs_30_4:A I
*I vs_29_4:A I
*I vs_28_4:A I
*I vs_25_4:A I
*I vs_21_4:A I
*I vs_20_4:A I
*I vs_16_4:A I
*I vs_13_4:A I
*I vs_9_4:A I
*I vs_8_4:A I
*I vs_5_4:A I
*I vs_3_4:A I
*I vs_0_4:A I
*CAP
1 pgm_lp4:1 1.069880e-01
*RES
1 lt_lp4:Z pgm_lp4:1 1.198475e+02
2 pgm_lp4:1 vs_62_4:A 1.000000e-03
3 pgm_lp4:1 vs_61_4:A 1.000000e-03
4 pgm_lp4:1 vs_59_4:A 1.000000e-03
5 pgm_lp4:1 vs_57_4:A 1.000000e-03
6 pgm_lp4:1 vs_54_4:A 1.000000e-03
7 pgm_lp4:1 vs_51_4:A 1.000000e-03
8 pgm_lp4:1 vs_50_4:A 1.000000e-03
9 pgm_lp4:1 vs_49_4:A 1.000000e-03
10 pgm_lp4:1 vs_48_4:A 1.000000e-03
11 pgm_lp4:1 vs_45_4:A 1.000000e-03
12 pgm_lp4:1 vs_44_4:A 1.000000e-03
13 pgm_lp4:1 vs_42_4:A 1.000000e-03
14 pgm_lp4:1 vs_40_4:A 1.000000e-03
15 pgm_lp4:1 vs_36_4:A 1.000000e-03
16 pgm_lp4:1 vs_30_4:A 1.000000e-03
17 pgm_lp4:1 vs_29_4:A 1.000000e-03
18 pgm_lp4:1 vs_28_4:A 1.000000e-03
19 pgm_lp4:1 vs_25_4:A 1.000000e-03
20 pgm_lp4:1 vs_21_4:A 1.000000e-03
21 pgm_lp4:1 vs_20_4:A 1.000000e-03
22 pgm_lp4:1 vs_16_4:A 1.000000e-03
23 pgm_lp4:1 vs_13_4:A 1.000000e-03
24 pgm_lp4:1 vs_9_4:A 1.000000e-03
25 pgm_lp4:1 vs_8_4:A 1.000000e-03
26 pgm_lp4:1 vs_5_4:A 1.000000e-03
27 pgm_lp4:1 vs_3_4:A 1.000000e-03
28 pgm_lp4:1 vs_0_4:A 1.000000e-03
*END

*D_NET pgm_lp40 9.612172e-02
*CONN
*I lt_lp40:Z O
*I vs_61_40:A I
*I vs_58_40:A I
*I vs_57_40:A I
*I vs_55_40:A I
*I vs_54_40:A I
*I vs_52_40:A I
*I vs_47_40:A I
*I vs_46_40:A I
*I vs_42_40:A I
*I vs_40_40:A I
*I vs_38_40:A I
*I vs_37_40:A I
*I vs_35_40:A I
*I vs_34_40:A I
*I vs_31_40:A I
*I vs_30_40:A I
*I vs_28_40:A I
*I vs_20_40:A I
*I vs_19_40:A I
*I vs_17_40:A I
*I vs_16_40:A I
*I vs_13_40:A I
*I vs_10_40:A I
*I vs_9_40:A I
*I vs_7_40:A I
*CAP
1 pgm_lp40:1 9.612172e-02
*RES
1 lt_lp40:Z pgm_lp40:1 1.072725e+02
2 pgm_lp40:1 vs_61_40:A 1.000000e-03
3 pgm_lp40:1 vs_58_40:A 1.000000e-03
4 pgm_lp40:1 vs_57_40:A 1.000000e-03
5 pgm_lp40:1 vs_55_40:A 1.000000e-03
6 pgm_lp40:1 vs_54_40:A 1.000000e-03
7 pgm_lp40:1 vs_52_40:A 1.000000e-03
8 pgm_lp40:1 vs_47_40:A 1.000000e-03
9 pgm_lp40:1 vs_46_40:A 1.000000e-03
10 pgm_lp40:1 vs_42_40:A 1.000000e-03
11 pgm_lp40:1 vs_40_40:A 1.000000e-03
12 pgm_lp40:1 vs_38_40:A 1.000000e-03
13 pgm_lp40:1 vs_37_40:A 1.000000e-03
14 pgm_lp40:1 vs_35_40:A 1.000000e-03
15 pgm_lp40:1 vs_34_40:A 1.000000e-03
16 pgm_lp40:1 vs_31_40:A 1.000000e-03
17 pgm_lp40:1 vs_30_40:A 1.000000e-03
18 pgm_lp40:1 vs_28_40:A 1.000000e-03
19 pgm_lp40:1 vs_20_40:A 1.000000e-03
20 pgm_lp40:1 vs_19_40:A 1.000000e-03
21 pgm_lp40:1 vs_17_40:A 1.000000e-03
22 pgm_lp40:1 vs_16_40:A 1.000000e-03
23 pgm_lp40:1 vs_13_40:A 1.000000e-03
24 pgm_lp40:1 vs_10_40:A 1.000000e-03
25 pgm_lp40:1 vs_9_40:A 1.000000e-03
26 pgm_lp40:1 vs_7_40:A 1.000000e-03
*END

*D_NET pgm_lp41 9.367097e-02
*CONN
*I lt_lp41:Z O
*I vs_57_41:A I
*I vs_56_41:A I
*I vs_55_41:A I
*I vs_52_41:A I
*I vs_47_41:A I
*I vs_46_41:A I
*I vs_44_41:A I
*I vs_43_41:A I
*I vs_41_41:A I
*I vs_39_41:A I
*I vs_37_41:A I
*I vs_35_41:A I
*I vs_34_41:A I
*I vs_29_41:A I
*I vs_28_41:A I
*I vs_27_41:A I
*I vs_23_41:A I
*I vs_17_41:A I
*I vs_16_41:A I
*I vs_13_41:A I
*I vs_12_41:A I
*I vs_11_41:A I
*I vs_10_41:A I
*I vs_8_41:A I
*I vs_7_41:A I
*CAP
1 pgm_lp41:1 9.367097e-02
*RES
1 lt_lp41:Z pgm_lp41:1 1.055994e+02
2 pgm_lp41:1 vs_57_41:A 1.000000e-03
3 pgm_lp41:1 vs_56_41:A 1.000000e-03
4 pgm_lp41:1 vs_55_41:A 1.000000e-03
5 pgm_lp41:1 vs_52_41:A 1.000000e-03
6 pgm_lp41:1 vs_47_41:A 1.000000e-03
7 pgm_lp41:1 vs_46_41:A 1.000000e-03
8 pgm_lp41:1 vs_44_41:A 1.000000e-03
9 pgm_lp41:1 vs_43_41:A 1.000000e-03
10 pgm_lp41:1 vs_41_41:A 1.000000e-03
11 pgm_lp41:1 vs_39_41:A 1.000000e-03
12 pgm_lp41:1 vs_37_41:A 1.000000e-03
13 pgm_lp41:1 vs_35_41:A 1.000000e-03
14 pgm_lp41:1 vs_34_41:A 1.000000e-03
15 pgm_lp41:1 vs_29_41:A 1.000000e-03
16 pgm_lp41:1 vs_28_41:A 1.000000e-03
17 pgm_lp41:1 vs_27_41:A 1.000000e-03
18 pgm_lp41:1 vs_23_41:A 1.000000e-03
19 pgm_lp41:1 vs_17_41:A 1.000000e-03
20 pgm_lp41:1 vs_16_41:A 1.000000e-03
21 pgm_lp41:1 vs_13_41:A 1.000000e-03
22 pgm_lp41:1 vs_12_41:A 1.000000e-03
23 pgm_lp41:1 vs_11_41:A 1.000000e-03
24 pgm_lp41:1 vs_10_41:A 1.000000e-03
25 pgm_lp41:1 vs_8_41:A 1.000000e-03
26 pgm_lp41:1 vs_7_41:A 1.000000e-03
*END

*D_NET pgm_lp42 1.082428e-01
*CONN
*I lt_lp42:Z O
*I vs_60_42:A I
*I vs_58_42:A I
*I vs_57_42:A I
*I vs_56_42:A I
*I vs_55_42:A I
*I vs_54_42:A I
*I vs_51_42:A I
*I vs_50_42:A I
*I vs_45_42:A I
*I vs_44_42:A I
*I vs_43_42:A I
*I vs_42_42:A I
*I vs_40_42:A I
*I vs_38_42:A I
*I vs_33_42:A I
*I vs_31_42:A I
*I vs_30_42:A I
*I vs_28_42:A I
*I vs_27_42:A I
*I vs_26_42:A I
*I vs_23_42:A I
*I vs_19_42:A I
*I vs_17_42:A I
*I vs_11_42:A I
*I vs_6_42:A I
*I vs_4_42:A I
*I vs_2_42:A I
*I vs_1_42:A I
*CAP
1 pgm_lp42:1 1.082428e-01
*RES
1 lt_lp42:Z pgm_lp42:1 1.208511e+02
2 pgm_lp42:1 vs_60_42:A 1.000000e-03
3 pgm_lp42:1 vs_58_42:A 1.000000e-03
4 pgm_lp42:1 vs_57_42:A 1.000000e-03
5 pgm_lp42:1 vs_56_42:A 1.000000e-03
6 pgm_lp42:1 vs_55_42:A 1.000000e-03
7 pgm_lp42:1 vs_54_42:A 1.000000e-03
8 pgm_lp42:1 vs_51_42:A 1.000000e-03
9 pgm_lp42:1 vs_50_42:A 1.000000e-03
10 pgm_lp42:1 vs_45_42:A 1.000000e-03
11 pgm_lp42:1 vs_44_42:A 1.000000e-03
12 pgm_lp42:1 vs_43_42:A 1.000000e-03
13 pgm_lp42:1 vs_42_42:A 1.000000e-03
14 pgm_lp42:1 vs_40_42:A 1.000000e-03
15 pgm_lp42:1 vs_38_42:A 1.000000e-03
16 pgm_lp42:1 vs_33_42:A 1.000000e-03
17 pgm_lp42:1 vs_31_42:A 1.000000e-03
18 pgm_lp42:1 vs_30_42:A 1.000000e-03
19 pgm_lp42:1 vs_28_42:A 1.000000e-03
20 pgm_lp42:1 vs_27_42:A 1.000000e-03
21 pgm_lp42:1 vs_26_42:A 1.000000e-03
22 pgm_lp42:1 vs_23_42:A 1.000000e-03
23 pgm_lp42:1 vs_19_42:A 1.000000e-03
24 pgm_lp42:1 vs_17_42:A 1.000000e-03
25 pgm_lp42:1 vs_11_42:A 1.000000e-03
26 pgm_lp42:1 vs_6_42:A 1.000000e-03
27 pgm_lp42:1 vs_4_42:A 1.000000e-03
28 pgm_lp42:1 vs_2_42:A 1.000000e-03
29 pgm_lp42:1 vs_1_42:A 1.000000e-03
*END

*D_NET pgm_lp43 1.189339e-01
*CONN
*I lt_lp43:Z O
*I vs_62_43:A I
*I vs_58_43:A I
*I vs_55_43:A I
*I vs_53_43:A I
*I vs_51_43:A I
*I vs_50_43:A I
*I vs_48_43:A I
*I vs_47_43:A I
*I vs_45_43:A I
*I vs_43_43:A I
*I vs_42_43:A I
*I vs_39_43:A I
*I vs_38_43:A I
*I vs_33_43:A I
*I vs_28_43:A I
*I vs_27_43:A I
*I vs_26_43:A I
*I vs_25_43:A I
*I vs_24_43:A I
*I vs_23_43:A I
*I vs_22_43:A I
*I vs_20_43:A I
*I vs_19_43:A I
*I vs_16_43:A I
*I vs_12_43:A I
*I vs_11_43:A I
*I vs_9_43:A I
*I vs_5_43:A I
*I vs_3_43:A I
*I vs_0_43:A I
*CAP
1 pgm_lp43:1 1.189339e-01
*RES
1 lt_lp43:Z pgm_lp43:1 1.336915e+02
2 pgm_lp43:1 vs_62_43:A 1.000000e-03
3 pgm_lp43:1 vs_58_43:A 1.000000e-03
4 pgm_lp43:1 vs_55_43:A 1.000000e-03
5 pgm_lp43:1 vs_53_43:A 1.000000e-03
6 pgm_lp43:1 vs_51_43:A 1.000000e-03
7 pgm_lp43:1 vs_50_43:A 1.000000e-03
8 pgm_lp43:1 vs_48_43:A 1.000000e-03
9 pgm_lp43:1 vs_47_43:A 1.000000e-03
10 pgm_lp43:1 vs_45_43:A 1.000000e-03
11 pgm_lp43:1 vs_43_43:A 1.000000e-03
12 pgm_lp43:1 vs_42_43:A 1.000000e-03
13 pgm_lp43:1 vs_39_43:A 1.000000e-03
14 pgm_lp43:1 vs_38_43:A 1.000000e-03
15 pgm_lp43:1 vs_33_43:A 1.000000e-03
16 pgm_lp43:1 vs_28_43:A 1.000000e-03
17 pgm_lp43:1 vs_27_43:A 1.000000e-03
18 pgm_lp43:1 vs_26_43:A 1.000000e-03
19 pgm_lp43:1 vs_25_43:A 1.000000e-03
20 pgm_lp43:1 vs_24_43:A 1.000000e-03
21 pgm_lp43:1 vs_23_43:A 1.000000e-03
22 pgm_lp43:1 vs_22_43:A 1.000000e-03
23 pgm_lp43:1 vs_20_43:A 1.000000e-03
24 pgm_lp43:1 vs_19_43:A 1.000000e-03
25 pgm_lp43:1 vs_16_43:A 1.000000e-03
26 pgm_lp43:1 vs_12_43:A 1.000000e-03
27 pgm_lp43:1 vs_11_43:A 1.000000e-03
28 pgm_lp43:1 vs_9_43:A 1.000000e-03
29 pgm_lp43:1 vs_5_43:A 1.000000e-03
30 pgm_lp43:1 vs_3_43:A 1.000000e-03
31 pgm_lp43:1 vs_0_43:A 1.000000e-03
*END

*D_NET pgm_lp44 1.044895e-01
*CONN
*I lt_lp44:Z O
*I vs_62_44:A I
*I vs_61_44:A I
*I vs_59_44:A I
*I vs_56_44:A I
*I vs_55_44:A I
*I vs_54_44:A I
*I vs_52_44:A I
*I vs_48_44:A I
*I vs_47_44:A I
*I vs_39_44:A I
*I vs_38_44:A I
*I vs_36_44:A I
*I vs_31_44:A I
*I vs_30_44:A I
*I vs_29_44:A I
*I vs_26_44:A I
*I vs_17_44:A I
*I vs_10_44:A I
*I vs_9_44:A I
*I vs_6_44:A I
*I vs_1_44:A I
*CAP
1 pgm_lp44:1 1.044895e-01
*RES
1 lt_lp44:Z pgm_lp44:1 1.185728e+02
2 pgm_lp44:1 vs_62_44:A 1.000000e-03
3 pgm_lp44:1 vs_61_44:A 1.000000e-03
4 pgm_lp44:1 vs_59_44:A 1.000000e-03
5 pgm_lp44:1 vs_56_44:A 1.000000e-03
6 pgm_lp44:1 vs_55_44:A 1.000000e-03
7 pgm_lp44:1 vs_54_44:A 1.000000e-03
8 pgm_lp44:1 vs_52_44:A 1.000000e-03
9 pgm_lp44:1 vs_48_44:A 1.000000e-03
10 pgm_lp44:1 vs_47_44:A 1.000000e-03
11 pgm_lp44:1 vs_39_44:A 1.000000e-03
12 pgm_lp44:1 vs_38_44:A 1.000000e-03
13 pgm_lp44:1 vs_36_44:A 1.000000e-03
14 pgm_lp44:1 vs_31_44:A 1.000000e-03
15 pgm_lp44:1 vs_30_44:A 1.000000e-03
16 pgm_lp44:1 vs_29_44:A 1.000000e-03
17 pgm_lp44:1 vs_26_44:A 1.000000e-03
18 pgm_lp44:1 vs_17_44:A 1.000000e-03
19 pgm_lp44:1 vs_10_44:A 1.000000e-03
20 pgm_lp44:1 vs_9_44:A 1.000000e-03
21 pgm_lp44:1 vs_6_44:A 1.000000e-03
22 pgm_lp44:1 vs_1_44:A 1.000000e-03
*END

*D_NET pgm_lp45 1.162918e-01
*CONN
*I lt_lp45:Z O
*I vs_63_45:A I
*I vs_59_45:A I
*I vs_57_45:A I
*I vs_52_45:A I
*I vs_51_45:A I
*I vs_50_45:A I
*I vs_49_45:A I
*I vs_48_45:A I
*I vs_46_45:A I
*I vs_44_45:A I
*I vs_43_45:A I
*I vs_40_45:A I
*I vs_38_45:A I
*I vs_37_45:A I
*I vs_34_45:A I
*I vs_32_45:A I
*I vs_29_45:A I
*I vs_28_45:A I
*I vs_24_45:A I
*I vs_22_45:A I
*I vs_20_45:A I
*I vs_17_45:A I
*I vs_16_45:A I
*I vs_15_45:A I
*I vs_14_45:A I
*I vs_12_45:A I
*I vs_10_45:A I
*I vs_8_45:A I
*I vs_7_45:A I
*I vs_4_45:A I
*I vs_3_45:A I
*I vs_1_45:A I
*I vs_0_45:A I
*CAP
1 pgm_lp45:1 1.162918e-01
*RES
1 lt_lp45:Z pgm_lp45:1 1.308372e+02
2 pgm_lp45:1 vs_63_45:A 1.000000e-03
3 pgm_lp45:1 vs_59_45:A 1.000000e-03
4 pgm_lp45:1 vs_57_45:A 1.000000e-03
5 pgm_lp45:1 vs_52_45:A 1.000000e-03
6 pgm_lp45:1 vs_51_45:A 1.000000e-03
7 pgm_lp45:1 vs_50_45:A 1.000000e-03
8 pgm_lp45:1 vs_49_45:A 1.000000e-03
9 pgm_lp45:1 vs_48_45:A 1.000000e-03
10 pgm_lp45:1 vs_46_45:A 1.000000e-03
11 pgm_lp45:1 vs_44_45:A 1.000000e-03
12 pgm_lp45:1 vs_43_45:A 1.000000e-03
13 pgm_lp45:1 vs_40_45:A 1.000000e-03
14 pgm_lp45:1 vs_38_45:A 1.000000e-03
15 pgm_lp45:1 vs_37_45:A 1.000000e-03
16 pgm_lp45:1 vs_34_45:A 1.000000e-03
17 pgm_lp45:1 vs_32_45:A 1.000000e-03
18 pgm_lp45:1 vs_29_45:A 1.000000e-03
19 pgm_lp45:1 vs_28_45:A 1.000000e-03
20 pgm_lp45:1 vs_24_45:A 1.000000e-03
21 pgm_lp45:1 vs_22_45:A 1.000000e-03
22 pgm_lp45:1 vs_20_45:A 1.000000e-03
23 pgm_lp45:1 vs_17_45:A 1.000000e-03
24 pgm_lp45:1 vs_16_45:A 1.000000e-03
25 pgm_lp45:1 vs_15_45:A 1.000000e-03
26 pgm_lp45:1 vs_14_45:A 1.000000e-03
27 pgm_lp45:1 vs_12_45:A 1.000000e-03
28 pgm_lp45:1 vs_10_45:A 1.000000e-03
29 pgm_lp45:1 vs_8_45:A 1.000000e-03
30 pgm_lp45:1 vs_7_45:A 1.000000e-03
31 pgm_lp45:1 vs_4_45:A 1.000000e-03
32 pgm_lp45:1 vs_3_45:A 1.000000e-03
33 pgm_lp45:1 vs_1_45:A 1.000000e-03
34 pgm_lp45:1 vs_0_45:A 1.000000e-03
*END

*D_NET pgm_lp46 1.165080e-01
*CONN
*I lt_lp46:Z O
*I vs_62_46:A I
*I vs_58_46:A I
*I vs_55_46:A I
*I vs_53_46:A I
*I vs_50_46:A I
*I vs_47_46:A I
*I vs_45_46:A I
*I vs_44_46:A I
*I vs_43_46:A I
*I vs_40_46:A I
*I vs_37_46:A I
*I vs_36_46:A I
*I vs_34_46:A I
*I vs_33_46:A I
*I vs_30_46:A I
*I vs_29_46:A I
*I vs_28_46:A I
*I vs_25_46:A I
*I vs_21_46:A I
*I vs_12_46:A I
*I vs_10_46:A I
*I vs_7_46:A I
*I vs_6_46:A I
*I vs_2_46:A I
*I vs_1_46:A I
*I vs_0_46:A I
*CAP
1 pgm_lp46:1 1.165080e-01
*RES
1 lt_lp46:Z pgm_lp46:1 1.282262e+02
2 pgm_lp46:1 vs_62_46:A 1.000000e-03
3 pgm_lp46:1 vs_58_46:A 1.000000e-03
4 pgm_lp46:1 vs_55_46:A 1.000000e-03
5 pgm_lp46:1 vs_53_46:A 1.000000e-03
6 pgm_lp46:1 vs_50_46:A 1.000000e-03
7 pgm_lp46:1 vs_47_46:A 1.000000e-03
8 pgm_lp46:1 vs_45_46:A 1.000000e-03
9 pgm_lp46:1 vs_44_46:A 1.000000e-03
10 pgm_lp46:1 vs_43_46:A 1.000000e-03
11 pgm_lp46:1 vs_40_46:A 1.000000e-03
12 pgm_lp46:1 vs_37_46:A 1.000000e-03
13 pgm_lp46:1 vs_36_46:A 1.000000e-03
14 pgm_lp46:1 vs_34_46:A 1.000000e-03
15 pgm_lp46:1 vs_33_46:A 1.000000e-03
16 pgm_lp46:1 vs_30_46:A 1.000000e-03
17 pgm_lp46:1 vs_29_46:A 1.000000e-03
18 pgm_lp46:1 vs_28_46:A 1.000000e-03
19 pgm_lp46:1 vs_25_46:A 1.000000e-03
20 pgm_lp46:1 vs_21_46:A 1.000000e-03
21 pgm_lp46:1 vs_12_46:A 1.000000e-03
22 pgm_lp46:1 vs_10_46:A 1.000000e-03
23 pgm_lp46:1 vs_7_46:A 1.000000e-03
24 pgm_lp46:1 vs_6_46:A 1.000000e-03
25 pgm_lp46:1 vs_2_46:A 1.000000e-03
26 pgm_lp46:1 vs_1_46:A 1.000000e-03
27 pgm_lp46:1 vs_0_46:A 1.000000e-03
*END

*D_NET pgm_lp47 1.147025e-01
*CONN
*I lt_lp47:Z O
*I vs_63_47:A I
*I vs_59_47:A I
*I vs_55_47:A I
*I vs_54_47:A I
*I vs_52_47:A I
*I vs_49_47:A I
*I vs_48_47:A I
*I vs_47_47:A I
*I vs_41_47:A I
*I vs_39_47:A I
*I vs_38_47:A I
*I vs_35_47:A I
*I vs_29_47:A I
*I vs_27_47:A I
*I vs_24_47:A I
*I vs_22_47:A I
*I vs_21_47:A I
*I vs_20_47:A I
*I vs_15_47:A I
*I vs_13_47:A I
*I vs_11_47:A I
*I vs_10_47:A I
*I vs_9_47:A I
*I vs_7_47:A I
*I vs_6_47:A I
*I vs_5_47:A I
*I vs_3_47:A I
*I vs_2_47:A I
*I vs_0_47:A I
*CAP
1 pgm_lp47:1 1.147025e-01
*RES
1 lt_lp47:Z pgm_lp47:1 1.286018e+02
2 pgm_lp47:1 vs_63_47:A 1.000000e-03
3 pgm_lp47:1 vs_59_47:A 1.000000e-03
4 pgm_lp47:1 vs_55_47:A 1.000000e-03
5 pgm_lp47:1 vs_54_47:A 1.000000e-03
6 pgm_lp47:1 vs_52_47:A 1.000000e-03
7 pgm_lp47:1 vs_49_47:A 1.000000e-03
8 pgm_lp47:1 vs_48_47:A 1.000000e-03
9 pgm_lp47:1 vs_47_47:A 1.000000e-03
10 pgm_lp47:1 vs_41_47:A 1.000000e-03
11 pgm_lp47:1 vs_39_47:A 1.000000e-03
12 pgm_lp47:1 vs_38_47:A 1.000000e-03
13 pgm_lp47:1 vs_35_47:A 1.000000e-03
14 pgm_lp47:1 vs_29_47:A 1.000000e-03
15 pgm_lp47:1 vs_27_47:A 1.000000e-03
16 pgm_lp47:1 vs_24_47:A 1.000000e-03
17 pgm_lp47:1 vs_22_47:A 1.000000e-03
18 pgm_lp47:1 vs_21_47:A 1.000000e-03
19 pgm_lp47:1 vs_20_47:A 1.000000e-03
20 pgm_lp47:1 vs_15_47:A 1.000000e-03
21 pgm_lp47:1 vs_13_47:A 1.000000e-03
22 pgm_lp47:1 vs_11_47:A 1.000000e-03
23 pgm_lp47:1 vs_10_47:A 1.000000e-03
24 pgm_lp47:1 vs_9_47:A 1.000000e-03
25 pgm_lp47:1 vs_7_47:A 1.000000e-03
26 pgm_lp47:1 vs_6_47:A 1.000000e-03
27 pgm_lp47:1 vs_5_47:A 1.000000e-03
28 pgm_lp47:1 vs_3_47:A 1.000000e-03
29 pgm_lp47:1 vs_2_47:A 1.000000e-03
30 pgm_lp47:1 vs_0_47:A 1.000000e-03
*END

*D_NET pgm_lp48 1.224905e-01
*CONN
*I lt_lp48:Z O
*I vs_62_48:A I
*I vs_60_48:A I
*I vs_57_48:A I
*I vs_56_48:A I
*I vs_55_48:A I
*I vs_52_48:A I
*I vs_51_48:A I
*I vs_50_48:A I
*I vs_47_48:A I
*I vs_46_48:A I
*I vs_45_48:A I
*I vs_42_48:A I
*I vs_41_48:A I
*I vs_38_48:A I
*I vs_36_48:A I
*I vs_34_48:A I
*I vs_32_48:A I
*I vs_30_48:A I
*I vs_29_48:A I
*I vs_28_48:A I
*I vs_25_48:A I
*I vs_24_48:A I
*I vs_23_48:A I
*I vs_22_48:A I
*I vs_17_48:A I
*I vs_16_48:A I
*I vs_15_48:A I
*I vs_12_48:A I
*I vs_11_48:A I
*I vs_10_48:A I
*I vs_8_48:A I
*I vs_7_48:A I
*I vs_6_48:A I
*I vs_4_48:A I
*I vs_3_48:A I
*I vs_1_48:A I
*I vs_0_48:A I
*CAP
1 pgm_lp48:1 1.224905e-01
*RES
1 lt_lp48:Z pgm_lp48:1 1.365193e+02
2 pgm_lp48:1 vs_62_48:A 1.000000e-03
3 pgm_lp48:1 vs_60_48:A 1.000000e-03
4 pgm_lp48:1 vs_57_48:A 1.000000e-03
5 pgm_lp48:1 vs_56_48:A 1.000000e-03
6 pgm_lp48:1 vs_55_48:A 1.000000e-03
7 pgm_lp48:1 vs_52_48:A 1.000000e-03
8 pgm_lp48:1 vs_51_48:A 1.000000e-03
9 pgm_lp48:1 vs_50_48:A 1.000000e-03
10 pgm_lp48:1 vs_47_48:A 1.000000e-03
11 pgm_lp48:1 vs_46_48:A 1.000000e-03
12 pgm_lp48:1 vs_45_48:A 1.000000e-03
13 pgm_lp48:1 vs_42_48:A 1.000000e-03
14 pgm_lp48:1 vs_41_48:A 1.000000e-03
15 pgm_lp48:1 vs_38_48:A 1.000000e-03
16 pgm_lp48:1 vs_36_48:A 1.000000e-03
17 pgm_lp48:1 vs_34_48:A 1.000000e-03
18 pgm_lp48:1 vs_32_48:A 1.000000e-03
19 pgm_lp48:1 vs_30_48:A 1.000000e-03
20 pgm_lp48:1 vs_29_48:A 1.000000e-03
21 pgm_lp48:1 vs_28_48:A 1.000000e-03
22 pgm_lp48:1 vs_25_48:A 1.000000e-03
23 pgm_lp48:1 vs_24_48:A 1.000000e-03
24 pgm_lp48:1 vs_23_48:A 1.000000e-03
25 pgm_lp48:1 vs_22_48:A 1.000000e-03
26 pgm_lp48:1 vs_17_48:A 1.000000e-03
27 pgm_lp48:1 vs_16_48:A 1.000000e-03
28 pgm_lp48:1 vs_15_48:A 1.000000e-03
29 pgm_lp48:1 vs_12_48:A 1.000000e-03
30 pgm_lp48:1 vs_11_48:A 1.000000e-03
31 pgm_lp48:1 vs_10_48:A 1.000000e-03
32 pgm_lp48:1 vs_8_48:A 1.000000e-03
33 pgm_lp48:1 vs_7_48:A 1.000000e-03
34 pgm_lp48:1 vs_6_48:A 1.000000e-03
35 pgm_lp48:1 vs_4_48:A 1.000000e-03
36 pgm_lp48:1 vs_3_48:A 1.000000e-03
37 pgm_lp48:1 vs_1_48:A 1.000000e-03
38 pgm_lp48:1 vs_0_48:A 1.000000e-03
*END

*D_NET pgm_lp49 1.070373e-01
*CONN
*I lt_lp49:Z O
*I vs_62_49:A I
*I vs_60_49:A I
*I vs_59_49:A I
*I vs_58_49:A I
*I vs_57_49:A I
*I vs_54_49:A I
*I vs_52_49:A I
*I vs_51_49:A I
*I vs_50_49:A I
*I vs_49_49:A I
*I vs_46_49:A I
*I vs_45_49:A I
*I vs_42_49:A I
*I vs_32_49:A I
*I vs_31_49:A I
*I vs_30_49:A I
*I vs_25_49:A I
*I vs_22_49:A I
*I vs_18_49:A I
*I vs_16_49:A I
*I vs_6_49:A I
*I vs_5_49:A I
*I vs_2_49:A I
*I vs_0_49:A I
*CAP
1 pgm_lp49:1 1.070373e-01
*RES
1 lt_lp49:Z pgm_lp49:1 1.214640e+02
2 pgm_lp49:1 vs_62_49:A 1.000000e-03
3 pgm_lp49:1 vs_60_49:A 1.000000e-03
4 pgm_lp49:1 vs_59_49:A 1.000000e-03
5 pgm_lp49:1 vs_58_49:A 1.000000e-03
6 pgm_lp49:1 vs_57_49:A 1.000000e-03
7 pgm_lp49:1 vs_54_49:A 1.000000e-03
8 pgm_lp49:1 vs_52_49:A 1.000000e-03
9 pgm_lp49:1 vs_51_49:A 1.000000e-03
10 pgm_lp49:1 vs_50_49:A 1.000000e-03
11 pgm_lp49:1 vs_49_49:A 1.000000e-03
12 pgm_lp49:1 vs_46_49:A 1.000000e-03
13 pgm_lp49:1 vs_45_49:A 1.000000e-03
14 pgm_lp49:1 vs_42_49:A 1.000000e-03
15 pgm_lp49:1 vs_32_49:A 1.000000e-03
16 pgm_lp49:1 vs_31_49:A 1.000000e-03
17 pgm_lp49:1 vs_30_49:A 1.000000e-03
18 pgm_lp49:1 vs_25_49:A 1.000000e-03
19 pgm_lp49:1 vs_22_49:A 1.000000e-03
20 pgm_lp49:1 vs_18_49:A 1.000000e-03
21 pgm_lp49:1 vs_16_49:A 1.000000e-03
22 pgm_lp49:1 vs_6_49:A 1.000000e-03
23 pgm_lp49:1 vs_5_49:A 1.000000e-03
24 pgm_lp49:1 vs_2_49:A 1.000000e-03
25 pgm_lp49:1 vs_0_49:A 1.000000e-03
*END

*D_NET pgm_lp5 1.129479e-01
*CONN
*I lt_lp5:Z O
*I vs_63_5:A I
*I vs_61_5:A I
*I vs_57_5:A I
*I vs_56_5:A I
*I vs_55_5:A I
*I vs_54_5:A I
*I vs_53_5:A I
*I vs_52_5:A I
*I vs_51_5:A I
*I vs_50_5:A I
*I vs_49_5:A I
*I vs_46_5:A I
*I vs_45_5:A I
*I vs_44_5:A I
*I vs_43_5:A I
*I vs_42_5:A I
*I vs_40_5:A I
*I vs_39_5:A I
*I vs_36_5:A I
*I vs_35_5:A I
*I vs_34_5:A I
*I vs_32_5:A I
*I vs_31_5:A I
*I vs_26_5:A I
*I vs_25_5:A I
*I vs_24_5:A I
*I vs_21_5:A I
*I vs_19_5:A I
*I vs_18_5:A I
*I vs_16_5:A I
*I vs_14_5:A I
*I vs_10_5:A I
*I vs_9_5:A I
*I vs_7_5:A I
*I vs_4_5:A I
*I vs_2_5:A I
*I vs_1_5:A I
*I vs_0_5:A I
*CAP
1 pgm_lp5:1 1.129479e-01
*RES
1 lt_lp5:Z pgm_lp5:1 1.273190e+02
2 pgm_lp5:1 vs_63_5:A 1.000000e-03
3 pgm_lp5:1 vs_61_5:A 1.000000e-03
4 pgm_lp5:1 vs_57_5:A 1.000000e-03
5 pgm_lp5:1 vs_56_5:A 1.000000e-03
6 pgm_lp5:1 vs_55_5:A 1.000000e-03
7 pgm_lp5:1 vs_54_5:A 1.000000e-03
8 pgm_lp5:1 vs_53_5:A 1.000000e-03
9 pgm_lp5:1 vs_52_5:A 1.000000e-03
10 pgm_lp5:1 vs_51_5:A 1.000000e-03
11 pgm_lp5:1 vs_50_5:A 1.000000e-03
12 pgm_lp5:1 vs_49_5:A 1.000000e-03
13 pgm_lp5:1 vs_46_5:A 1.000000e-03
14 pgm_lp5:1 vs_45_5:A 1.000000e-03
15 pgm_lp5:1 vs_44_5:A 1.000000e-03
16 pgm_lp5:1 vs_43_5:A 1.000000e-03
17 pgm_lp5:1 vs_42_5:A 1.000000e-03
18 pgm_lp5:1 vs_40_5:A 1.000000e-03
19 pgm_lp5:1 vs_39_5:A 1.000000e-03
20 pgm_lp5:1 vs_36_5:A 1.000000e-03
21 pgm_lp5:1 vs_35_5:A 1.000000e-03
22 pgm_lp5:1 vs_34_5:A 1.000000e-03
23 pgm_lp5:1 vs_32_5:A 1.000000e-03
24 pgm_lp5:1 vs_31_5:A 1.000000e-03
25 pgm_lp5:1 vs_26_5:A 1.000000e-03
26 pgm_lp5:1 vs_25_5:A 1.000000e-03
27 pgm_lp5:1 vs_24_5:A 1.000000e-03
28 pgm_lp5:1 vs_21_5:A 1.000000e-03
29 pgm_lp5:1 vs_19_5:A 1.000000e-03
30 pgm_lp5:1 vs_18_5:A 1.000000e-03
31 pgm_lp5:1 vs_16_5:A 1.000000e-03
32 pgm_lp5:1 vs_14_5:A 1.000000e-03
33 pgm_lp5:1 vs_10_5:A 1.000000e-03
34 pgm_lp5:1 vs_9_5:A 1.000000e-03
35 pgm_lp5:1 vs_7_5:A 1.000000e-03
36 pgm_lp5:1 vs_4_5:A 1.000000e-03
37 pgm_lp5:1 vs_2_5:A 1.000000e-03
38 pgm_lp5:1 vs_1_5:A 1.000000e-03
39 pgm_lp5:1 vs_0_5:A 1.000000e-03
*END

*D_NET pgm_lp50 1.077376e-01
*CONN
*I lt_lp50:Z O
*I vs_61_50:A I
*I vs_60_50:A I
*I vs_57_50:A I
*I vs_56_50:A I
*I vs_55_50:A I
*I vs_54_50:A I
*I vs_49_50:A I
*I vs_48_50:A I
*I vs_45_50:A I
*I vs_44_50:A I
*I vs_41_50:A I
*I vs_40_50:A I
*I vs_39_50:A I
*I vs_38_50:A I
*I vs_36_50:A I
*I vs_33_50:A I
*I vs_32_50:A I
*I vs_31_50:A I
*I vs_30_50:A I
*I vs_29_50:A I
*I vs_27_50:A I
*I vs_25_50:A I
*I vs_24_50:A I
*I vs_21_50:A I
*I vs_20_50:A I
*I vs_18_50:A I
*I vs_16_50:A I
*I vs_14_50:A I
*I vs_13_50:A I
*I vs_12_50:A I
*I vs_8_50:A I
*I vs_7_50:A I
*I vs_6_50:A I
*I vs_4_50:A I
*I vs_3_50:A I
*I vs_2_50:A I
*I vs_1_50:A I
*CAP
1 pgm_lp50:1 1.077376e-01
*RES
1 lt_lp50:Z pgm_lp50:1 1.216944e+02
2 pgm_lp50:1 vs_61_50:A 1.000000e-03
3 pgm_lp50:1 vs_60_50:A 1.000000e-03
4 pgm_lp50:1 vs_57_50:A 1.000000e-03
5 pgm_lp50:1 vs_56_50:A 1.000000e-03
6 pgm_lp50:1 vs_55_50:A 1.000000e-03
7 pgm_lp50:1 vs_54_50:A 1.000000e-03
8 pgm_lp50:1 vs_49_50:A 1.000000e-03
9 pgm_lp50:1 vs_48_50:A 1.000000e-03
10 pgm_lp50:1 vs_45_50:A 1.000000e-03
11 pgm_lp50:1 vs_44_50:A 1.000000e-03
12 pgm_lp50:1 vs_41_50:A 1.000000e-03
13 pgm_lp50:1 vs_40_50:A 1.000000e-03
14 pgm_lp50:1 vs_39_50:A 1.000000e-03
15 pgm_lp50:1 vs_38_50:A 1.000000e-03
16 pgm_lp50:1 vs_36_50:A 1.000000e-03
17 pgm_lp50:1 vs_33_50:A 1.000000e-03
18 pgm_lp50:1 vs_32_50:A 1.000000e-03
19 pgm_lp50:1 vs_31_50:A 1.000000e-03
20 pgm_lp50:1 vs_30_50:A 1.000000e-03
21 pgm_lp50:1 vs_29_50:A 1.000000e-03
22 pgm_lp50:1 vs_27_50:A 1.000000e-03
23 pgm_lp50:1 vs_25_50:A 1.000000e-03
24 pgm_lp50:1 vs_24_50:A 1.000000e-03
25 pgm_lp50:1 vs_21_50:A 1.000000e-03
26 pgm_lp50:1 vs_20_50:A 1.000000e-03
27 pgm_lp50:1 vs_18_50:A 1.000000e-03
28 pgm_lp50:1 vs_16_50:A 1.000000e-03
29 pgm_lp50:1 vs_14_50:A 1.000000e-03
30 pgm_lp50:1 vs_13_50:A 1.000000e-03
31 pgm_lp50:1 vs_12_50:A 1.000000e-03
32 pgm_lp50:1 vs_8_50:A 1.000000e-03
33 pgm_lp50:1 vs_7_50:A 1.000000e-03
34 pgm_lp50:1 vs_6_50:A 1.000000e-03
35 pgm_lp50:1 vs_4_50:A 1.000000e-03
36 pgm_lp50:1 vs_3_50:A 1.000000e-03
37 pgm_lp50:1 vs_2_50:A 1.000000e-03
38 pgm_lp50:1 vs_1_50:A 1.000000e-03
*END

*D_NET pgm_lp51 1.118618e-01
*CONN
*I lt_lp51:Z O
*I vs_63_51:A I
*I vs_61_51:A I
*I vs_59_51:A I
*I vs_58_51:A I
*I vs_53_51:A I
*I vs_48_51:A I
*I vs_47_51:A I
*I vs_46_51:A I
*I vs_45_51:A I
*I vs_44_51:A I
*I vs_43_51:A I
*I vs_38_51:A I
*I vs_37_51:A I
*I vs_36_51:A I
*I vs_35_51:A I
*I vs_30_51:A I
*I vs_26_51:A I
*I vs_25_51:A I
*I vs_21_51:A I
*I vs_19_51:A I
*I vs_18_51:A I
*I vs_12_51:A I
*I vs_11_51:A I
*I vs_10_51:A I
*I vs_9_51:A I
*I vs_4_51:A I
*I vs_2_51:A I
*CAP
1 pgm_lp51:1 1.118618e-01
*RES
1 lt_lp51:Z pgm_lp51:1 1.255222e+02
2 pgm_lp51:1 vs_63_51:A 1.000000e-03
3 pgm_lp51:1 vs_61_51:A 1.000000e-03
4 pgm_lp51:1 vs_59_51:A 1.000000e-03
5 pgm_lp51:1 vs_58_51:A 1.000000e-03
6 pgm_lp51:1 vs_53_51:A 1.000000e-03
7 pgm_lp51:1 vs_48_51:A 1.000000e-03
8 pgm_lp51:1 vs_47_51:A 1.000000e-03
9 pgm_lp51:1 vs_46_51:A 1.000000e-03
10 pgm_lp51:1 vs_45_51:A 1.000000e-03
11 pgm_lp51:1 vs_44_51:A 1.000000e-03
12 pgm_lp51:1 vs_43_51:A 1.000000e-03
13 pgm_lp51:1 vs_38_51:A 1.000000e-03
14 pgm_lp51:1 vs_37_51:A 1.000000e-03
15 pgm_lp51:1 vs_36_51:A 1.000000e-03
16 pgm_lp51:1 vs_35_51:A 1.000000e-03
17 pgm_lp51:1 vs_30_51:A 1.000000e-03
18 pgm_lp51:1 vs_26_51:A 1.000000e-03
19 pgm_lp51:1 vs_25_51:A 1.000000e-03
20 pgm_lp51:1 vs_21_51:A 1.000000e-03
21 pgm_lp51:1 vs_19_51:A 1.000000e-03
22 pgm_lp51:1 vs_18_51:A 1.000000e-03
23 pgm_lp51:1 vs_12_51:A 1.000000e-03
24 pgm_lp51:1 vs_11_51:A 1.000000e-03
25 pgm_lp51:1 vs_10_51:A 1.000000e-03
26 pgm_lp51:1 vs_9_51:A 1.000000e-03
27 pgm_lp51:1 vs_4_51:A 1.000000e-03
28 pgm_lp51:1 vs_2_51:A 1.000000e-03
*END

*D_NET pgm_lp52 1.202837e-01
*CONN
*I lt_lp52:Z O
*I vs_62_52:A I
*I vs_60_52:A I
*I vs_59_52:A I
*I vs_57_52:A I
*I vs_55_52:A I
*I vs_52_52:A I
*I vs_51_52:A I
*I vs_50_52:A I
*I vs_48_52:A I
*I vs_46_52:A I
*I vs_45_52:A I
*I vs_44_52:A I
*I vs_41_52:A I
*I vs_39_52:A I
*I vs_37_52:A I
*I vs_33_52:A I
*I vs_31_52:A I
*I vs_30_52:A I
*I vs_29_52:A I
*I vs_26_52:A I
*I vs_24_52:A I
*I vs_23_52:A I
*I vs_22_52:A I
*I vs_20_52:A I
*I vs_19_52:A I
*I vs_16_52:A I
*I vs_15_52:A I
*I vs_13_52:A I
*I vs_12_52:A I
*I vs_10_52:A I
*I vs_9_52:A I
*I vs_8_52:A I
*I vs_4_52:A I
*I vs_2_52:A I
*I vs_1_52:A I
*I vs_0_52:A I
*CAP
1 pgm_lp52:1 1.202837e-01
*RES
1 lt_lp52:Z pgm_lp52:1 1.348633e+02
2 pgm_lp52:1 vs_62_52:A 1.000000e-03
3 pgm_lp52:1 vs_60_52:A 1.000000e-03
4 pgm_lp52:1 vs_59_52:A 1.000000e-03
5 pgm_lp52:1 vs_57_52:A 1.000000e-03
6 pgm_lp52:1 vs_55_52:A 1.000000e-03
7 pgm_lp52:1 vs_52_52:A 1.000000e-03
8 pgm_lp52:1 vs_51_52:A 1.000000e-03
9 pgm_lp52:1 vs_50_52:A 1.000000e-03
10 pgm_lp52:1 vs_48_52:A 1.000000e-03
11 pgm_lp52:1 vs_46_52:A 1.000000e-03
12 pgm_lp52:1 vs_45_52:A 1.000000e-03
13 pgm_lp52:1 vs_44_52:A 1.000000e-03
14 pgm_lp52:1 vs_41_52:A 1.000000e-03
15 pgm_lp52:1 vs_39_52:A 1.000000e-03
16 pgm_lp52:1 vs_37_52:A 1.000000e-03
17 pgm_lp52:1 vs_33_52:A 1.000000e-03
18 pgm_lp52:1 vs_31_52:A 1.000000e-03
19 pgm_lp52:1 vs_30_52:A 1.000000e-03
20 pgm_lp52:1 vs_29_52:A 1.000000e-03
21 pgm_lp52:1 vs_26_52:A 1.000000e-03
22 pgm_lp52:1 vs_24_52:A 1.000000e-03
23 pgm_lp52:1 vs_23_52:A 1.000000e-03
24 pgm_lp52:1 vs_22_52:A 1.000000e-03
25 pgm_lp52:1 vs_20_52:A 1.000000e-03
26 pgm_lp52:1 vs_19_52:A 1.000000e-03
27 pgm_lp52:1 vs_16_52:A 1.000000e-03
28 pgm_lp52:1 vs_15_52:A 1.000000e-03
29 pgm_lp52:1 vs_13_52:A 1.000000e-03
30 pgm_lp52:1 vs_12_52:A 1.000000e-03
31 pgm_lp52:1 vs_10_52:A 1.000000e-03
32 pgm_lp52:1 vs_9_52:A 1.000000e-03
33 pgm_lp52:1 vs_8_52:A 1.000000e-03
34 pgm_lp52:1 vs_4_52:A 1.000000e-03
35 pgm_lp52:1 vs_2_52:A 1.000000e-03
36 pgm_lp52:1 vs_1_52:A 1.000000e-03
37 pgm_lp52:1 vs_0_52:A 1.000000e-03
*END

*D_NET pgm_lp53 1.074287e-01
*CONN
*I lt_lp53:Z O
*I vs_61_53:A I
*I vs_60_53:A I
*I vs_59_53:A I
*I vs_57_53:A I
*I vs_55_53:A I
*I vs_54_53:A I
*I vs_53_53:A I
*I vs_52_53:A I
*I vs_51_53:A I
*I vs_49_53:A I
*I vs_48_53:A I
*I vs_42_53:A I
*I vs_40_53:A I
*I vs_38_53:A I
*I vs_37_53:A I
*I vs_35_53:A I
*I vs_29_53:A I
*I vs_27_53:A I
*I vs_26_53:A I
*I vs_22_53:A I
*I vs_21_53:A I
*I vs_20_53:A I
*I vs_19_53:A I
*I vs_15_53:A I
*I vs_13_53:A I
*I vs_10_53:A I
*I vs_6_53:A I
*I vs_1_53:A I
*I vs_0_53:A I
*CAP
1 pgm_lp53:1 1.074287e-01
*RES
1 lt_lp53:Z pgm_lp53:1 1.210558e+02
2 pgm_lp53:1 vs_61_53:A 1.000000e-03
3 pgm_lp53:1 vs_60_53:A 1.000000e-03
4 pgm_lp53:1 vs_59_53:A 1.000000e-03
5 pgm_lp53:1 vs_57_53:A 1.000000e-03
6 pgm_lp53:1 vs_55_53:A 1.000000e-03
7 pgm_lp53:1 vs_54_53:A 1.000000e-03
8 pgm_lp53:1 vs_53_53:A 1.000000e-03
9 pgm_lp53:1 vs_52_53:A 1.000000e-03
10 pgm_lp53:1 vs_51_53:A 1.000000e-03
11 pgm_lp53:1 vs_49_53:A 1.000000e-03
12 pgm_lp53:1 vs_48_53:A 1.000000e-03
13 pgm_lp53:1 vs_42_53:A 1.000000e-03
14 pgm_lp53:1 vs_40_53:A 1.000000e-03
15 pgm_lp53:1 vs_38_53:A 1.000000e-03
16 pgm_lp53:1 vs_37_53:A 1.000000e-03
17 pgm_lp53:1 vs_35_53:A 1.000000e-03
18 pgm_lp53:1 vs_29_53:A 1.000000e-03
19 pgm_lp53:1 vs_27_53:A 1.000000e-03
20 pgm_lp53:1 vs_26_53:A 1.000000e-03
21 pgm_lp53:1 vs_22_53:A 1.000000e-03
22 pgm_lp53:1 vs_21_53:A 1.000000e-03
23 pgm_lp53:1 vs_20_53:A 1.000000e-03
24 pgm_lp53:1 vs_19_53:A 1.000000e-03
25 pgm_lp53:1 vs_15_53:A 1.000000e-03
26 pgm_lp53:1 vs_13_53:A 1.000000e-03
27 pgm_lp53:1 vs_10_53:A 1.000000e-03
28 pgm_lp53:1 vs_6_53:A 1.000000e-03
29 pgm_lp53:1 vs_1_53:A 1.000000e-03
30 pgm_lp53:1 vs_0_53:A 1.000000e-03
*END

*D_NET pgm_lp54 1.043218e-01
*CONN
*I lt_lp54:Z O
*I vs_62_54:A I
*I vs_56_54:A I
*I vs_53_54:A I
*I vs_52_54:A I
*I vs_50_54:A I
*I vs_46_54:A I
*I vs_45_54:A I
*I vs_44_54:A I
*I vs_42_54:A I
*I vs_41_54:A I
*I vs_40_54:A I
*I vs_38_54:A I
*I vs_34_54:A I
*I vs_33_54:A I
*I vs_31_54:A I
*I vs_30_54:A I
*I vs_28_54:A I
*I vs_25_54:A I
*I vs_20_54:A I
*I vs_13_54:A I
*I vs_12_54:A I
*I vs_10_54:A I
*I vs_8_54:A I
*I vs_7_54:A I
*I vs_6_54:A I
*I vs_2_54:A I
*I vs_0_54:A I
*CAP
1 pgm_lp54:1 1.043218e-01
*RES
1 lt_lp54:Z pgm_lp54:1 1.178182e+02
2 pgm_lp54:1 vs_62_54:A 1.000000e-03
3 pgm_lp54:1 vs_56_54:A 1.000000e-03
4 pgm_lp54:1 vs_53_54:A 1.000000e-03
5 pgm_lp54:1 vs_52_54:A 1.000000e-03
6 pgm_lp54:1 vs_50_54:A 1.000000e-03
7 pgm_lp54:1 vs_46_54:A 1.000000e-03
8 pgm_lp54:1 vs_45_54:A 1.000000e-03
9 pgm_lp54:1 vs_44_54:A 1.000000e-03
10 pgm_lp54:1 vs_42_54:A 1.000000e-03
11 pgm_lp54:1 vs_41_54:A 1.000000e-03
12 pgm_lp54:1 vs_40_54:A 1.000000e-03
13 pgm_lp54:1 vs_38_54:A 1.000000e-03
14 pgm_lp54:1 vs_34_54:A 1.000000e-03
15 pgm_lp54:1 vs_33_54:A 1.000000e-03
16 pgm_lp54:1 vs_31_54:A 1.000000e-03
17 pgm_lp54:1 vs_30_54:A 1.000000e-03
18 pgm_lp54:1 vs_28_54:A 1.000000e-03
19 pgm_lp54:1 vs_25_54:A 1.000000e-03
20 pgm_lp54:1 vs_20_54:A 1.000000e-03
21 pgm_lp54:1 vs_13_54:A 1.000000e-03
22 pgm_lp54:1 vs_12_54:A 1.000000e-03
23 pgm_lp54:1 vs_10_54:A 1.000000e-03
24 pgm_lp54:1 vs_8_54:A 1.000000e-03
25 pgm_lp54:1 vs_7_54:A 1.000000e-03
26 pgm_lp54:1 vs_6_54:A 1.000000e-03
27 pgm_lp54:1 vs_2_54:A 1.000000e-03
28 pgm_lp54:1 vs_0_54:A 1.000000e-03
*END

*D_NET pgm_lp55 1.168074e-01
*CONN
*I lt_lp55:Z O
*I vs_59_55:A I
*I vs_57_55:A I
*I vs_53_55:A I
*I vs_52_55:A I
*I vs_50_55:A I
*I vs_48_55:A I
*I vs_47_55:A I
*I vs_45_55:A I
*I vs_44_55:A I
*I vs_40_55:A I
*I vs_39_55:A I
*I vs_38_55:A I
*I vs_36_55:A I
*I vs_35_55:A I
*I vs_33_55:A I
*I vs_32_55:A I
*I vs_26_55:A I
*I vs_24_55:A I
*I vs_23_55:A I
*I vs_21_55:A I
*I vs_20_55:A I
*I vs_19_55:A I
*I vs_18_55:A I
*I vs_15_55:A I
*I vs_13_55:A I
*I vs_11_55:A I
*I vs_10_55:A I
*I vs_4_55:A I
*I vs_3_55:A I
*I vs_0_55:A I
*CAP
1 pgm_lp55:1 1.168074e-01
*RES
1 lt_lp55:Z pgm_lp55:1 1.295622e+02
2 pgm_lp55:1 vs_59_55:A 1.000000e-03
3 pgm_lp55:1 vs_57_55:A 1.000000e-03
4 pgm_lp55:1 vs_53_55:A 1.000000e-03
5 pgm_lp55:1 vs_52_55:A 1.000000e-03
6 pgm_lp55:1 vs_50_55:A 1.000000e-03
7 pgm_lp55:1 vs_48_55:A 1.000000e-03
8 pgm_lp55:1 vs_47_55:A 1.000000e-03
9 pgm_lp55:1 vs_45_55:A 1.000000e-03
10 pgm_lp55:1 vs_44_55:A 1.000000e-03
11 pgm_lp55:1 vs_40_55:A 1.000000e-03
12 pgm_lp55:1 vs_39_55:A 1.000000e-03
13 pgm_lp55:1 vs_38_55:A 1.000000e-03
14 pgm_lp55:1 vs_36_55:A 1.000000e-03
15 pgm_lp55:1 vs_35_55:A 1.000000e-03
16 pgm_lp55:1 vs_33_55:A 1.000000e-03
17 pgm_lp55:1 vs_32_55:A 1.000000e-03
18 pgm_lp55:1 vs_26_55:A 1.000000e-03
19 pgm_lp55:1 vs_24_55:A 1.000000e-03
20 pgm_lp55:1 vs_23_55:A 1.000000e-03
21 pgm_lp55:1 vs_21_55:A 1.000000e-03
22 pgm_lp55:1 vs_20_55:A 1.000000e-03
23 pgm_lp55:1 vs_19_55:A 1.000000e-03
24 pgm_lp55:1 vs_18_55:A 1.000000e-03
25 pgm_lp55:1 vs_15_55:A 1.000000e-03
26 pgm_lp55:1 vs_13_55:A 1.000000e-03
27 pgm_lp55:1 vs_11_55:A 1.000000e-03
28 pgm_lp55:1 vs_10_55:A 1.000000e-03
29 pgm_lp55:1 vs_4_55:A 1.000000e-03
30 pgm_lp55:1 vs_3_55:A 1.000000e-03
31 pgm_lp55:1 vs_0_55:A 1.000000e-03
*END

*D_NET pgm_lp56 1.018103e-01
*CONN
*I lt_lp56:Z O
*I vs_63_56:A I
*I vs_60_56:A I
*I vs_59_56:A I
*I vs_58_56:A I
*I vs_57_56:A I
*I vs_56_56:A I
*I vs_54_56:A I
*I vs_51_56:A I
*I vs_50_56:A I
*I vs_47_56:A I
*I vs_44_56:A I
*I vs_42_56:A I
*I vs_40_56:A I
*I vs_38_56:A I
*I vs_37_56:A I
*I vs_35_56:A I
*I vs_34_56:A I
*I vs_30_56:A I
*I vs_22_56:A I
*I vs_21_56:A I
*I vs_19_56:A I
*I vs_18_56:A I
*I vs_17_56:A I
*I vs_15_56:A I
*I vs_14_56:A I
*I vs_9_56:A I
*I vs_7_56:A I
*CAP
1 pgm_lp56:1 1.018103e-01
*RES
1 lt_lp56:Z pgm_lp56:1 1.142541e+02
2 pgm_lp56:1 vs_63_56:A 1.000000e-03
3 pgm_lp56:1 vs_60_56:A 1.000000e-03
4 pgm_lp56:1 vs_59_56:A 1.000000e-03
5 pgm_lp56:1 vs_58_56:A 1.000000e-03
6 pgm_lp56:1 vs_57_56:A 1.000000e-03
7 pgm_lp56:1 vs_56_56:A 1.000000e-03
8 pgm_lp56:1 vs_54_56:A 1.000000e-03
9 pgm_lp56:1 vs_51_56:A 1.000000e-03
10 pgm_lp56:1 vs_50_56:A 1.000000e-03
11 pgm_lp56:1 vs_47_56:A 1.000000e-03
12 pgm_lp56:1 vs_44_56:A 1.000000e-03
13 pgm_lp56:1 vs_42_56:A 1.000000e-03
14 pgm_lp56:1 vs_40_56:A 1.000000e-03
15 pgm_lp56:1 vs_38_56:A 1.000000e-03
16 pgm_lp56:1 vs_37_56:A 1.000000e-03
17 pgm_lp56:1 vs_35_56:A 1.000000e-03
18 pgm_lp56:1 vs_34_56:A 1.000000e-03
19 pgm_lp56:1 vs_30_56:A 1.000000e-03
20 pgm_lp56:1 vs_22_56:A 1.000000e-03
21 pgm_lp56:1 vs_21_56:A 1.000000e-03
22 pgm_lp56:1 vs_19_56:A 1.000000e-03
23 pgm_lp56:1 vs_18_56:A 1.000000e-03
24 pgm_lp56:1 vs_17_56:A 1.000000e-03
25 pgm_lp56:1 vs_15_56:A 1.000000e-03
26 pgm_lp56:1 vs_14_56:A 1.000000e-03
27 pgm_lp56:1 vs_9_56:A 1.000000e-03
28 pgm_lp56:1 vs_7_56:A 1.000000e-03
*END

*D_NET pgm_lp57 1.168109e-01
*CONN
*I lt_lp57:Z O
*I vs_63_57:A I
*I vs_62_57:A I
*I vs_60_57:A I
*I vs_59_57:A I
*I vs_58_57:A I
*I vs_57_57:A I
*I vs_55_57:A I
*I vs_54_57:A I
*I vs_47_57:A I
*I vs_44_57:A I
*I vs_43_57:A I
*I vs_42_57:A I
*I vs_41_57:A I
*I vs_39_57:A I
*I vs_33_57:A I
*I vs_30_57:A I
*I vs_27_57:A I
*I vs_26_57:A I
*I vs_21_57:A I
*I vs_20_57:A I
*I vs_18_57:A I
*I vs_15_57:A I
*I vs_14_57:A I
*I vs_13_57:A I
*I vs_11_57:A I
*I vs_9_57:A I
*I vs_7_57:A I
*I vs_6_57:A I
*I vs_5_57:A I
*I vs_4_57:A I
*I vs_3_57:A I
*I vs_0_57:A I
*CAP
1 pgm_lp57:1 1.168109e-01
*RES
1 lt_lp57:Z pgm_lp57:1 1.307064e+02
2 pgm_lp57:1 vs_63_57:A 1.000000e-03
3 pgm_lp57:1 vs_62_57:A 1.000000e-03
4 pgm_lp57:1 vs_60_57:A 1.000000e-03
5 pgm_lp57:1 vs_59_57:A 1.000000e-03
6 pgm_lp57:1 vs_58_57:A 1.000000e-03
7 pgm_lp57:1 vs_57_57:A 1.000000e-03
8 pgm_lp57:1 vs_55_57:A 1.000000e-03
9 pgm_lp57:1 vs_54_57:A 1.000000e-03
10 pgm_lp57:1 vs_47_57:A 1.000000e-03
11 pgm_lp57:1 vs_44_57:A 1.000000e-03
12 pgm_lp57:1 vs_43_57:A 1.000000e-03
13 pgm_lp57:1 vs_42_57:A 1.000000e-03
14 pgm_lp57:1 vs_41_57:A 1.000000e-03
15 pgm_lp57:1 vs_39_57:A 1.000000e-03
16 pgm_lp57:1 vs_33_57:A 1.000000e-03
17 pgm_lp57:1 vs_30_57:A 1.000000e-03
18 pgm_lp57:1 vs_27_57:A 1.000000e-03
19 pgm_lp57:1 vs_26_57:A 1.000000e-03
20 pgm_lp57:1 vs_21_57:A 1.000000e-03
21 pgm_lp57:1 vs_20_57:A 1.000000e-03
22 pgm_lp57:1 vs_18_57:A 1.000000e-03
23 pgm_lp57:1 vs_15_57:A 1.000000e-03
24 pgm_lp57:1 vs_14_57:A 1.000000e-03
25 pgm_lp57:1 vs_13_57:A 1.000000e-03
26 pgm_lp57:1 vs_11_57:A 1.000000e-03
27 pgm_lp57:1 vs_9_57:A 1.000000e-03
28 pgm_lp57:1 vs_7_57:A 1.000000e-03
29 pgm_lp57:1 vs_6_57:A 1.000000e-03
30 pgm_lp57:1 vs_5_57:A 1.000000e-03
31 pgm_lp57:1 vs_4_57:A 1.000000e-03
32 pgm_lp57:1 vs_3_57:A 1.000000e-03
33 pgm_lp57:1 vs_0_57:A 1.000000e-03
*END

*D_NET pgm_lp58 1.083586e-01
*CONN
*I lt_lp58:Z O
*I vs_62_58:A I
*I vs_59_58:A I
*I vs_58_58:A I
*I vs_56_58:A I
*I vs_53_58:A I
*I vs_48_58:A I
*I vs_44_58:A I
*I vs_42_58:A I
*I vs_41_58:A I
*I vs_38_58:A I
*I vs_37_58:A I
*I vs_32_58:A I
*I vs_31_58:A I
*I vs_27_58:A I
*I vs_24_58:A I
*I vs_23_58:A I
*I vs_14_58:A I
*I vs_13_58:A I
*I vs_9_58:A I
*I vs_8_58:A I
*I vs_7_58:A I
*I vs_5_58:A I
*I vs_1_58:A I
*I vs_0_58:A I
*CAP
1 pgm_lp58:1 1.083586e-01
*RES
1 lt_lp58:Z pgm_lp58:1 1.229634e+02
2 pgm_lp58:1 vs_62_58:A 1.000000e-03
3 pgm_lp58:1 vs_59_58:A 1.000000e-03
4 pgm_lp58:1 vs_58_58:A 1.000000e-03
5 pgm_lp58:1 vs_56_58:A 1.000000e-03
6 pgm_lp58:1 vs_53_58:A 1.000000e-03
7 pgm_lp58:1 vs_48_58:A 1.000000e-03
8 pgm_lp58:1 vs_44_58:A 1.000000e-03
9 pgm_lp58:1 vs_42_58:A 1.000000e-03
10 pgm_lp58:1 vs_41_58:A 1.000000e-03
11 pgm_lp58:1 vs_38_58:A 1.000000e-03
12 pgm_lp58:1 vs_37_58:A 1.000000e-03
13 pgm_lp58:1 vs_32_58:A 1.000000e-03
14 pgm_lp58:1 vs_31_58:A 1.000000e-03
15 pgm_lp58:1 vs_27_58:A 1.000000e-03
16 pgm_lp58:1 vs_24_58:A 1.000000e-03
17 pgm_lp58:1 vs_23_58:A 1.000000e-03
18 pgm_lp58:1 vs_14_58:A 1.000000e-03
19 pgm_lp58:1 vs_13_58:A 1.000000e-03
20 pgm_lp58:1 vs_9_58:A 1.000000e-03
21 pgm_lp58:1 vs_8_58:A 1.000000e-03
22 pgm_lp58:1 vs_7_58:A 1.000000e-03
23 pgm_lp58:1 vs_5_58:A 1.000000e-03
24 pgm_lp58:1 vs_1_58:A 1.000000e-03
25 pgm_lp58:1 vs_0_58:A 1.000000e-03
*END

*D_NET pgm_lp59 1.132864e-01
*CONN
*I lt_lp59:Z O
*I vs_63_59:A I
*I vs_62_59:A I
*I vs_60_59:A I
*I vs_58_59:A I
*I vs_53_59:A I
*I vs_51_59:A I
*I vs_48_59:A I
*I vs_41_59:A I
*I vs_38_59:A I
*I vs_37_59:A I
*I vs_36_59:A I
*I vs_35_59:A I
*I vs_33_59:A I
*I vs_30_59:A I
*I vs_27_59:A I
*I vs_25_59:A I
*I vs_24_59:A I
*I vs_19_59:A I
*I vs_17_59:A I
*I vs_15_59:A I
*I vs_11_59:A I
*I vs_5_59:A I
*I vs_3_59:A I
*CAP
1 pgm_lp59:1 1.132864e-01
*RES
1 lt_lp59:Z pgm_lp59:1 1.269948e+02
2 pgm_lp59:1 vs_63_59:A 1.000000e-03
3 pgm_lp59:1 vs_62_59:A 1.000000e-03
4 pgm_lp59:1 vs_60_59:A 1.000000e-03
5 pgm_lp59:1 vs_58_59:A 1.000000e-03
6 pgm_lp59:1 vs_53_59:A 1.000000e-03
7 pgm_lp59:1 vs_51_59:A 1.000000e-03
8 pgm_lp59:1 vs_48_59:A 1.000000e-03
9 pgm_lp59:1 vs_41_59:A 1.000000e-03
10 pgm_lp59:1 vs_38_59:A 1.000000e-03
11 pgm_lp59:1 vs_37_59:A 1.000000e-03
12 pgm_lp59:1 vs_36_59:A 1.000000e-03
13 pgm_lp59:1 vs_35_59:A 1.000000e-03
14 pgm_lp59:1 vs_33_59:A 1.000000e-03
15 pgm_lp59:1 vs_30_59:A 1.000000e-03
16 pgm_lp59:1 vs_27_59:A 1.000000e-03
17 pgm_lp59:1 vs_25_59:A 1.000000e-03
18 pgm_lp59:1 vs_24_59:A 1.000000e-03
19 pgm_lp59:1 vs_19_59:A 1.000000e-03
20 pgm_lp59:1 vs_17_59:A 1.000000e-03
21 pgm_lp59:1 vs_15_59:A 1.000000e-03
22 pgm_lp59:1 vs_11_59:A 1.000000e-03
23 pgm_lp59:1 vs_5_59:A 1.000000e-03
24 pgm_lp59:1 vs_3_59:A 1.000000e-03
*END

*D_NET pgm_lp6 1.052401e-01
*CONN
*I lt_lp6:Z O
*I vs_59_6:A I
*I vs_58_6:A I
*I vs_57_6:A I
*I vs_56_6:A I
*I vs_53_6:A I
*I vs_51_6:A I
*I vs_49_6:A I
*I vs_47_6:A I
*I vs_46_6:A I
*I vs_42_6:A I
*I vs_40_6:A I
*I vs_34_6:A I
*I vs_32_6:A I
*I vs_29_6:A I
*I vs_28_6:A I
*I vs_23_6:A I
*I vs_20_6:A I
*I vs_18_6:A I
*I vs_16_6:A I
*I vs_15_6:A I
*I vs_12_6:A I
*I vs_11_6:A I
*I vs_8_6:A I
*I vs_7_6:A I
*I vs_6_6:A I
*I vs_2_6:A I
*CAP
1 pgm_lp6:1 1.052401e-01
*RES
1 lt_lp6:Z pgm_lp6:1 1.178640e+02
2 pgm_lp6:1 vs_59_6:A 1.000000e-03
3 pgm_lp6:1 vs_58_6:A 1.000000e-03
4 pgm_lp6:1 vs_57_6:A 1.000000e-03
5 pgm_lp6:1 vs_56_6:A 1.000000e-03
6 pgm_lp6:1 vs_53_6:A 1.000000e-03
7 pgm_lp6:1 vs_51_6:A 1.000000e-03
8 pgm_lp6:1 vs_49_6:A 1.000000e-03
9 pgm_lp6:1 vs_47_6:A 1.000000e-03
10 pgm_lp6:1 vs_46_6:A 1.000000e-03
11 pgm_lp6:1 vs_42_6:A 1.000000e-03
12 pgm_lp6:1 vs_40_6:A 1.000000e-03
13 pgm_lp6:1 vs_34_6:A 1.000000e-03
14 pgm_lp6:1 vs_32_6:A 1.000000e-03
15 pgm_lp6:1 vs_29_6:A 1.000000e-03
16 pgm_lp6:1 vs_28_6:A 1.000000e-03
17 pgm_lp6:1 vs_23_6:A 1.000000e-03
18 pgm_lp6:1 vs_20_6:A 1.000000e-03
19 pgm_lp6:1 vs_18_6:A 1.000000e-03
20 pgm_lp6:1 vs_16_6:A 1.000000e-03
21 pgm_lp6:1 vs_15_6:A 1.000000e-03
22 pgm_lp6:1 vs_12_6:A 1.000000e-03
23 pgm_lp6:1 vs_11_6:A 1.000000e-03
24 pgm_lp6:1 vs_8_6:A 1.000000e-03
25 pgm_lp6:1 vs_7_6:A 1.000000e-03
26 pgm_lp6:1 vs_6_6:A 1.000000e-03
27 pgm_lp6:1 vs_2_6:A 1.000000e-03
*END

*D_NET pgm_lp60 1.116989e-01
*CONN
*I lt_lp60:Z O
*I vs_63_60:A I
*I vs_62_60:A I
*I vs_61_60:A I
*I vs_60_60:A I
*I vs_59_60:A I
*I vs_57_60:A I
*I vs_56_60:A I
*I vs_54_60:A I
*I vs_53_60:A I
*I vs_49_60:A I
*I vs_44_60:A I
*I vs_42_60:A I
*I vs_41_60:A I
*I vs_39_60:A I
*I vs_28_60:A I
*I vs_26_60:A I
*I vs_24_60:A I
*I vs_21_60:A I
*I vs_20_60:A I
*I vs_19_60:A I
*I vs_17_60:A I
*I vs_14_60:A I
*I vs_13_60:A I
*I vs_12_60:A I
*I vs_10_60:A I
*I vs_7_60:A I
*I vs_3_60:A I
*I vs_2_60:A I
*I vs_1_60:A I
*CAP
1 pgm_lp60:1 1.116989e-01
*RES
1 lt_lp60:Z pgm_lp60:1 1.253373e+02
2 pgm_lp60:1 vs_63_60:A 1.000000e-03
3 pgm_lp60:1 vs_62_60:A 1.000000e-03
4 pgm_lp60:1 vs_61_60:A 1.000000e-03
5 pgm_lp60:1 vs_60_60:A 1.000000e-03
6 pgm_lp60:1 vs_59_60:A 1.000000e-03
7 pgm_lp60:1 vs_57_60:A 1.000000e-03
8 pgm_lp60:1 vs_56_60:A 1.000000e-03
9 pgm_lp60:1 vs_54_60:A 1.000000e-03
10 pgm_lp60:1 vs_53_60:A 1.000000e-03
11 pgm_lp60:1 vs_49_60:A 1.000000e-03
12 pgm_lp60:1 vs_44_60:A 1.000000e-03
13 pgm_lp60:1 vs_42_60:A 1.000000e-03
14 pgm_lp60:1 vs_41_60:A 1.000000e-03
15 pgm_lp60:1 vs_39_60:A 1.000000e-03
16 pgm_lp60:1 vs_28_60:A 1.000000e-03
17 pgm_lp60:1 vs_26_60:A 1.000000e-03
18 pgm_lp60:1 vs_24_60:A 1.000000e-03
19 pgm_lp60:1 vs_21_60:A 1.000000e-03
20 pgm_lp60:1 vs_20_60:A 1.000000e-03
21 pgm_lp60:1 vs_19_60:A 1.000000e-03
22 pgm_lp60:1 vs_17_60:A 1.000000e-03
23 pgm_lp60:1 vs_14_60:A 1.000000e-03
24 pgm_lp60:1 vs_13_60:A 1.000000e-03
25 pgm_lp60:1 vs_12_60:A 1.000000e-03
26 pgm_lp60:1 vs_10_60:A 1.000000e-03
27 pgm_lp60:1 vs_7_60:A 1.000000e-03
28 pgm_lp60:1 vs_3_60:A 1.000000e-03
29 pgm_lp60:1 vs_2_60:A 1.000000e-03
30 pgm_lp60:1 vs_1_60:A 1.000000e-03
*END

*D_NET pgm_lp61 1.140981e-01
*CONN
*I lt_lp61:Z O
*I vs_63_61:A I
*I vs_61_61:A I
*I vs_59_61:A I
*I vs_51_61:A I
*I vs_49_61:A I
*I vs_46_61:A I
*I vs_45_61:A I
*I vs_42_61:A I
*I vs_41_61:A I
*I vs_39_61:A I
*I vs_37_61:A I
*I vs_31_61:A I
*I vs_30_61:A I
*I vs_29_61:A I
*I vs_27_61:A I
*I vs_24_61:A I
*I vs_21_61:A I
*I vs_20_61:A I
*I vs_19_61:A I
*I vs_15_61:A I
*I vs_13_61:A I
*I vs_9_61:A I
*I vs_7_61:A I
*I vs_4_61:A I
*I vs_3_61:A I
*I vs_2_61:A I
*CAP
1 pgm_lp61:1 1.140981e-01
*RES
1 lt_lp61:Z pgm_lp61:1 1.279159e+02
2 pgm_lp61:1 vs_63_61:A 1.000000e-03
3 pgm_lp61:1 vs_61_61:A 1.000000e-03
4 pgm_lp61:1 vs_59_61:A 1.000000e-03
5 pgm_lp61:1 vs_51_61:A 1.000000e-03
6 pgm_lp61:1 vs_49_61:A 1.000000e-03
7 pgm_lp61:1 vs_46_61:A 1.000000e-03
8 pgm_lp61:1 vs_45_61:A 1.000000e-03
9 pgm_lp61:1 vs_42_61:A 1.000000e-03
10 pgm_lp61:1 vs_41_61:A 1.000000e-03
11 pgm_lp61:1 vs_39_61:A 1.000000e-03
12 pgm_lp61:1 vs_37_61:A 1.000000e-03
13 pgm_lp61:1 vs_31_61:A 1.000000e-03
14 pgm_lp61:1 vs_30_61:A 1.000000e-03
15 pgm_lp61:1 vs_29_61:A 1.000000e-03
16 pgm_lp61:1 vs_27_61:A 1.000000e-03
17 pgm_lp61:1 vs_24_61:A 1.000000e-03
18 pgm_lp61:1 vs_21_61:A 1.000000e-03
19 pgm_lp61:1 vs_20_61:A 1.000000e-03
20 pgm_lp61:1 vs_19_61:A 1.000000e-03
21 pgm_lp61:1 vs_15_61:A 1.000000e-03
22 pgm_lp61:1 vs_13_61:A 1.000000e-03
23 pgm_lp61:1 vs_9_61:A 1.000000e-03
24 pgm_lp61:1 vs_7_61:A 1.000000e-03
25 pgm_lp61:1 vs_4_61:A 1.000000e-03
26 pgm_lp61:1 vs_3_61:A 1.000000e-03
27 pgm_lp61:1 vs_2_61:A 1.000000e-03
*END

*D_NET pgm_lp62 1.112028e-01
*CONN
*I lt_lp62:Z O
*I vs_56_62:A I
*I vs_54_62:A I
*I vs_52_62:A I
*I vs_50_62:A I
*I vs_49_62:A I
*I vs_47_62:A I
*I vs_44_62:A I
*I vs_41_62:A I
*I vs_39_62:A I
*I vs_35_62:A I
*I vs_32_62:A I
*I vs_30_62:A I
*I vs_29_62:A I
*I vs_26_62:A I
*I vs_25_62:A I
*I vs_23_62:A I
*I vs_22_62:A I
*I vs_21_62:A I
*I vs_20_62:A I
*I vs_19_62:A I
*I vs_18_62:A I
*I vs_17_62:A I
*I vs_16_62:A I
*I vs_13_62:A I
*I vs_8_62:A I
*I vs_5_62:A I
*I vs_4_62:A I
*I vs_3_62:A I
*I vs_2_62:A I
*I vs_0_62:A I
*CAP
1 pgm_lp62:1 1.112028e-01
*RES
1 lt_lp62:Z pgm_lp62:1 1.239543e+02
2 pgm_lp62:1 vs_56_62:A 1.000000e-03
3 pgm_lp62:1 vs_54_62:A 1.000000e-03
4 pgm_lp62:1 vs_52_62:A 1.000000e-03
5 pgm_lp62:1 vs_50_62:A 1.000000e-03
6 pgm_lp62:1 vs_49_62:A 1.000000e-03
7 pgm_lp62:1 vs_47_62:A 1.000000e-03
8 pgm_lp62:1 vs_44_62:A 1.000000e-03
9 pgm_lp62:1 vs_41_62:A 1.000000e-03
10 pgm_lp62:1 vs_39_62:A 1.000000e-03
11 pgm_lp62:1 vs_35_62:A 1.000000e-03
12 pgm_lp62:1 vs_32_62:A 1.000000e-03
13 pgm_lp62:1 vs_30_62:A 1.000000e-03
14 pgm_lp62:1 vs_29_62:A 1.000000e-03
15 pgm_lp62:1 vs_26_62:A 1.000000e-03
16 pgm_lp62:1 vs_25_62:A 1.000000e-03
17 pgm_lp62:1 vs_23_62:A 1.000000e-03
18 pgm_lp62:1 vs_22_62:A 1.000000e-03
19 pgm_lp62:1 vs_21_62:A 1.000000e-03
20 pgm_lp62:1 vs_20_62:A 1.000000e-03
21 pgm_lp62:1 vs_19_62:A 1.000000e-03
22 pgm_lp62:1 vs_18_62:A 1.000000e-03
23 pgm_lp62:1 vs_17_62:A 1.000000e-03
24 pgm_lp62:1 vs_16_62:A 1.000000e-03
25 pgm_lp62:1 vs_13_62:A 1.000000e-03
26 pgm_lp62:1 vs_8_62:A 1.000000e-03
27 pgm_lp62:1 vs_5_62:A 1.000000e-03
28 pgm_lp62:1 vs_4_62:A 1.000000e-03
29 pgm_lp62:1 vs_3_62:A 1.000000e-03
30 pgm_lp62:1 vs_2_62:A 1.000000e-03
31 pgm_lp62:1 vs_0_62:A 1.000000e-03
*END

*D_NET pgm_lp63 1.147478e-01
*CONN
*I lt_lp63:Z O
*I vs_62_63:A I
*I vs_61_63:A I
*I vs_56_63:A I
*I vs_53_63:A I
*I vs_50_63:A I
*I vs_48_63:A I
*I vs_47_63:A I
*I vs_39_63:A I
*I vs_38_63:A I
*I vs_36_63:A I
*I vs_34_63:A I
*I vs_33_63:A I
*I vs_31_63:A I
*I vs_30_63:A I
*I vs_28_63:A I
*I vs_27_63:A I
*I vs_24_63:A I
*I vs_23_63:A I
*I vs_22_63:A I
*I vs_21_63:A I
*I vs_18_63:A I
*I vs_17_63:A I
*I vs_16_63:A I
*I vs_15_63:A I
*I vs_13_63:A I
*I vs_9_63:A I
*I vs_6_63:A I
*I vs_5_63:A I
*I vs_1_63:A I
*I vs_0_63:A I
*CAP
1 pgm_lp63:1 1.147478e-01
*RES
1 lt_lp63:Z pgm_lp63:1 1.289411e+02
2 pgm_lp63:1 vs_62_63:A 1.000000e-03
3 pgm_lp63:1 vs_61_63:A 1.000000e-03
4 pgm_lp63:1 vs_56_63:A 1.000000e-03
5 pgm_lp63:1 vs_53_63:A 1.000000e-03
6 pgm_lp63:1 vs_50_63:A 1.000000e-03
7 pgm_lp63:1 vs_48_63:A 1.000000e-03
8 pgm_lp63:1 vs_47_63:A 1.000000e-03
9 pgm_lp63:1 vs_39_63:A 1.000000e-03
10 pgm_lp63:1 vs_38_63:A 1.000000e-03
11 pgm_lp63:1 vs_36_63:A 1.000000e-03
12 pgm_lp63:1 vs_34_63:A 1.000000e-03
13 pgm_lp63:1 vs_33_63:A 1.000000e-03
14 pgm_lp63:1 vs_31_63:A 1.000000e-03
15 pgm_lp63:1 vs_30_63:A 1.000000e-03
16 pgm_lp63:1 vs_28_63:A 1.000000e-03
17 pgm_lp63:1 vs_27_63:A 1.000000e-03
18 pgm_lp63:1 vs_24_63:A 1.000000e-03
19 pgm_lp63:1 vs_23_63:A 1.000000e-03
20 pgm_lp63:1 vs_22_63:A 1.000000e-03
21 pgm_lp63:1 vs_21_63:A 1.000000e-03
22 pgm_lp63:1 vs_18_63:A 1.000000e-03
23 pgm_lp63:1 vs_17_63:A 1.000000e-03
24 pgm_lp63:1 vs_16_63:A 1.000000e-03
25 pgm_lp63:1 vs_15_63:A 1.000000e-03
26 pgm_lp63:1 vs_13_63:A 1.000000e-03
27 pgm_lp63:1 vs_9_63:A 1.000000e-03
28 pgm_lp63:1 vs_6_63:A 1.000000e-03
29 pgm_lp63:1 vs_5_63:A 1.000000e-03
30 pgm_lp63:1 vs_1_63:A 1.000000e-03
31 pgm_lp63:1 vs_0_63:A 1.000000e-03
*END

*D_NET pgm_lp7 1.162685e-01
*CONN
*I lt_lp7:Z O
*I vs_63_7:A I
*I vs_62_7:A I
*I vs_61_7:A I
*I vs_60_7:A I
*I vs_59_7:A I
*I vs_58_7:A I
*I vs_53_7:A I
*I vs_51_7:A I
*I vs_49_7:A I
*I vs_48_7:A I
*I vs_47_7:A I
*I vs_46_7:A I
*I vs_44_7:A I
*I vs_43_7:A I
*I vs_42_7:A I
*I vs_41_7:A I
*I vs_40_7:A I
*I vs_39_7:A I
*I vs_38_7:A I
*I vs_36_7:A I
*I vs_34_7:A I
*I vs_32_7:A I
*I vs_29_7:A I
*I vs_28_7:A I
*I vs_27_7:A I
*I vs_25_7:A I
*I vs_24_7:A I
*I vs_23_7:A I
*I vs_21_7:A I
*I vs_20_7:A I
*I vs_19_7:A I
*I vs_15_7:A I
*I vs_14_7:A I
*I vs_10_7:A I
*I vs_8_7:A I
*I vs_7_7:A I
*I vs_4_7:A I
*I vs_0_7:A I
*CAP
1 pgm_lp7:1 1.162685e-01
*RES
1 lt_lp7:Z pgm_lp7:1 1.309431e+02
2 pgm_lp7:1 vs_63_7:A 1.000000e-03
3 pgm_lp7:1 vs_62_7:A 1.000000e-03
4 pgm_lp7:1 vs_61_7:A 1.000000e-03
5 pgm_lp7:1 vs_60_7:A 1.000000e-03
6 pgm_lp7:1 vs_59_7:A 1.000000e-03
7 pgm_lp7:1 vs_58_7:A 1.000000e-03
8 pgm_lp7:1 vs_53_7:A 1.000000e-03
9 pgm_lp7:1 vs_51_7:A 1.000000e-03
10 pgm_lp7:1 vs_49_7:A 1.000000e-03
11 pgm_lp7:1 vs_48_7:A 1.000000e-03
12 pgm_lp7:1 vs_47_7:A 1.000000e-03
13 pgm_lp7:1 vs_46_7:A 1.000000e-03
14 pgm_lp7:1 vs_44_7:A 1.000000e-03
15 pgm_lp7:1 vs_43_7:A 1.000000e-03
16 pgm_lp7:1 vs_42_7:A 1.000000e-03
17 pgm_lp7:1 vs_41_7:A 1.000000e-03
18 pgm_lp7:1 vs_40_7:A 1.000000e-03
19 pgm_lp7:1 vs_39_7:A 1.000000e-03
20 pgm_lp7:1 vs_38_7:A 1.000000e-03
21 pgm_lp7:1 vs_36_7:A 1.000000e-03
22 pgm_lp7:1 vs_34_7:A 1.000000e-03
23 pgm_lp7:1 vs_32_7:A 1.000000e-03
24 pgm_lp7:1 vs_29_7:A 1.000000e-03
25 pgm_lp7:1 vs_28_7:A 1.000000e-03
26 pgm_lp7:1 vs_27_7:A 1.000000e-03
27 pgm_lp7:1 vs_25_7:A 1.000000e-03
28 pgm_lp7:1 vs_24_7:A 1.000000e-03
29 pgm_lp7:1 vs_23_7:A 1.000000e-03
30 pgm_lp7:1 vs_21_7:A 1.000000e-03
31 pgm_lp7:1 vs_20_7:A 1.000000e-03
32 pgm_lp7:1 vs_19_7:A 1.000000e-03
33 pgm_lp7:1 vs_15_7:A 1.000000e-03
34 pgm_lp7:1 vs_14_7:A 1.000000e-03
35 pgm_lp7:1 vs_10_7:A 1.000000e-03
36 pgm_lp7:1 vs_8_7:A 1.000000e-03
37 pgm_lp7:1 vs_7_7:A 1.000000e-03
38 pgm_lp7:1 vs_4_7:A 1.000000e-03
39 pgm_lp7:1 vs_0_7:A 1.000000e-03
*END

*D_NET pgm_lp8 1.029263e-01
*CONN
*I lt_lp8:Z O
*I vs_63_8:A I
*I vs_61_8:A I
*I vs_59_8:A I
*I vs_57_8:A I
*I vs_53_8:A I
*I vs_52_8:A I
*I vs_50_8:A I
*I vs_47_8:A I
*I vs_45_8:A I
*I vs_39_8:A I
*I vs_38_8:A I
*I vs_34_8:A I
*I vs_29_8:A I
*I vs_25_8:A I
*I vs_24_8:A I
*I vs_22_8:A I
*I vs_21_8:A I
*I vs_20_8:A I
*I vs_17_8:A I
*I vs_14_8:A I
*I vs_12_8:A I
*I vs_10_8:A I
*I vs_8_8:A I
*I vs_4_8:A I
*CAP
1 pgm_lp8:1 1.029263e-01
*RES
1 lt_lp8:Z pgm_lp8:1 1.152500e+02
2 pgm_lp8:1 vs_63_8:A 1.000000e-03
3 pgm_lp8:1 vs_61_8:A 1.000000e-03
4 pgm_lp8:1 vs_59_8:A 1.000000e-03
5 pgm_lp8:1 vs_57_8:A 1.000000e-03
6 pgm_lp8:1 vs_53_8:A 1.000000e-03
7 pgm_lp8:1 vs_52_8:A 1.000000e-03
8 pgm_lp8:1 vs_50_8:A 1.000000e-03
9 pgm_lp8:1 vs_47_8:A 1.000000e-03
10 pgm_lp8:1 vs_45_8:A 1.000000e-03
11 pgm_lp8:1 vs_39_8:A 1.000000e-03
12 pgm_lp8:1 vs_38_8:A 1.000000e-03
13 pgm_lp8:1 vs_34_8:A 1.000000e-03
14 pgm_lp8:1 vs_29_8:A 1.000000e-03
15 pgm_lp8:1 vs_25_8:A 1.000000e-03
16 pgm_lp8:1 vs_24_8:A 1.000000e-03
17 pgm_lp8:1 vs_22_8:A 1.000000e-03
18 pgm_lp8:1 vs_21_8:A 1.000000e-03
19 pgm_lp8:1 vs_20_8:A 1.000000e-03
20 pgm_lp8:1 vs_17_8:A 1.000000e-03
21 pgm_lp8:1 vs_14_8:A 1.000000e-03
22 pgm_lp8:1 vs_12_8:A 1.000000e-03
23 pgm_lp8:1 vs_10_8:A 1.000000e-03
24 pgm_lp8:1 vs_8_8:A 1.000000e-03
25 pgm_lp8:1 vs_4_8:A 1.000000e-03
*END

*D_NET pgm_lp9 1.168585e-01
*CONN
*I lt_lp9:Z O
*I vs_63_9:A I
*I vs_59_9:A I
*I vs_56_9:A I
*I vs_55_9:A I
*I vs_53_9:A I
*I vs_50_9:A I
*I vs_45_9:A I
*I vs_44_9:A I
*I vs_41_9:A I
*I vs_39_9:A I
*I vs_38_9:A I
*I vs_36_9:A I
*I vs_35_9:A I
*I vs_34_9:A I
*I vs_30_9:A I
*I vs_28_9:A I
*I vs_24_9:A I
*I vs_21_9:A I
*I vs_20_9:A I
*I vs_19_9:A I
*I vs_15_9:A I
*I vs_13_9:A I
*I vs_10_9:A I
*I vs_9_9:A I
*I vs_7_9:A I
*I vs_5_9:A I
*I vs_3_9:A I
*I vs_1_9:A I
*I vs_0_9:A I
*CAP
1 pgm_lp9:1 1.168585e-01
*RES
1 lt_lp9:Z pgm_lp9:1 1.317566e+02
2 pgm_lp9:1 vs_63_9:A 1.000000e-03
3 pgm_lp9:1 vs_59_9:A 1.000000e-03
4 pgm_lp9:1 vs_56_9:A 1.000000e-03
5 pgm_lp9:1 vs_55_9:A 1.000000e-03
6 pgm_lp9:1 vs_53_9:A 1.000000e-03
7 pgm_lp9:1 vs_50_9:A 1.000000e-03
8 pgm_lp9:1 vs_45_9:A 1.000000e-03
9 pgm_lp9:1 vs_44_9:A 1.000000e-03
10 pgm_lp9:1 vs_41_9:A 1.000000e-03
11 pgm_lp9:1 vs_39_9:A 1.000000e-03
12 pgm_lp9:1 vs_38_9:A 1.000000e-03
13 pgm_lp9:1 vs_36_9:A 1.000000e-03
14 pgm_lp9:1 vs_35_9:A 1.000000e-03
15 pgm_lp9:1 vs_34_9:A 1.000000e-03
16 pgm_lp9:1 vs_30_9:A 1.000000e-03
17 pgm_lp9:1 vs_28_9:A 1.000000e-03
18 pgm_lp9:1 vs_24_9:A 1.000000e-03
19 pgm_lp9:1 vs_21_9:A 1.000000e-03
20 pgm_lp9:1 vs_20_9:A 1.000000e-03
21 pgm_lp9:1 vs_19_9:A 1.000000e-03
22 pgm_lp9:1 vs_15_9:A 1.000000e-03
23 pgm_lp9:1 vs_13_9:A 1.000000e-03
24 pgm_lp9:1 vs_10_9:A 1.000000e-03
25 pgm_lp9:1 vs_9_9:A 1.000000e-03
26 pgm_lp9:1 vs_7_9:A 1.000000e-03
27 pgm_lp9:1 vs_5_9:A 1.000000e-03
28 pgm_lp9:1 vs_3_9:A 1.000000e-03
29 pgm_lp9:1 vs_1_9:A 1.000000e-03
30 pgm_lp9:1 vs_0_9:A 1.000000e-03
*END

