*SPEF "ieee 1481-1999"
*DESIGN "top"
*DATE "r3"
*VENDOR "r3_prog_spef"
*PROGRAM "r3_prog_spef.py"
*VERSION "1"
*DESIGN_FLOW "NAME_SCOPE LOCAL" "PIN_CAP NONE"
*DIVIDER /
*DELIMITER :
*BUS_DELIMITER []
*T_UNIT 1 NS
*C_UNIT 1 PF
*R_UNIT 1 OHM
*L_UNIT 1 HENRY

*D_NET pgm_ln0 8.795279e-02
*CONN
*I lt_ln0:Z O
*I vs_52_0:A I
*I vs_51_0:A I
*I vs_47_0:A I
*I vs_45_0:A I
*I vs_43_0:A I
*I vs_42_0:A I
*I vs_38_0:A I
*I vs_36_0:A I
*I vs_35_0:A I
*I vs_33_0:A I
*I vs_31_0:A I
*I vs_27_0:A I
*I vs_18_0:A I
*I vs_11_0:A I
*I vs_4_0:A I
*CAP
1 pgm_ln0:1 8.795279e-02
*RES
1 lt_ln0:Z pgm_ln0:1 9.895497e+01
2 pgm_ln0:1 vs_52_0:A 1.000000e-03
3 pgm_ln0:1 vs_51_0:A 1.000000e-03
4 pgm_ln0:1 vs_47_0:A 1.000000e-03
5 pgm_ln0:1 vs_45_0:A 1.000000e-03
6 pgm_ln0:1 vs_43_0:A 1.000000e-03
7 pgm_ln0:1 vs_42_0:A 1.000000e-03
8 pgm_ln0:1 vs_38_0:A 1.000000e-03
9 pgm_ln0:1 vs_36_0:A 1.000000e-03
10 pgm_ln0:1 vs_35_0:A 1.000000e-03
11 pgm_ln0:1 vs_33_0:A 1.000000e-03
12 pgm_ln0:1 vs_31_0:A 1.000000e-03
13 pgm_ln0:1 vs_27_0:A 1.000000e-03
14 pgm_ln0:1 vs_18_0:A 1.000000e-03
15 pgm_ln0:1 vs_11_0:A 1.000000e-03
16 pgm_ln0:1 vs_4_0:A 1.000000e-03
*END

*D_NET pgm_ln1 1.090788e-01
*CONN
*I lt_ln1:Z O
*I vs_63_1:A I
*I vs_60_1:A I
*I vs_55_1:A I
*I vs_53_1:A I
*I vs_41_1:A I
*I vs_36_1:A I
*I vs_30_1:A I
*I vs_23_1:A I
*I vs_20_1:A I
*I vs_17_1:A I
*I vs_12_1:A I
*I vs_11_1:A I
*I vs_7_1:A I
*I vs_4_1:A I
*I vs_3_1:A I
*I vs_2_1:A I
*I vs_0_1:A I
*CAP
1 pgm_ln1:1 1.090788e-01
*RES
1 lt_ln1:Z pgm_ln1:1 1.229284e+02
2 pgm_ln1:1 vs_63_1:A 1.000000e-03
3 pgm_ln1:1 vs_60_1:A 1.000000e-03
4 pgm_ln1:1 vs_55_1:A 1.000000e-03
5 pgm_ln1:1 vs_53_1:A 1.000000e-03
6 pgm_ln1:1 vs_41_1:A 1.000000e-03
7 pgm_ln1:1 vs_36_1:A 1.000000e-03
8 pgm_ln1:1 vs_30_1:A 1.000000e-03
9 pgm_ln1:1 vs_23_1:A 1.000000e-03
10 pgm_ln1:1 vs_20_1:A 1.000000e-03
11 pgm_ln1:1 vs_17_1:A 1.000000e-03
12 pgm_ln1:1 vs_12_1:A 1.000000e-03
13 pgm_ln1:1 vs_11_1:A 1.000000e-03
14 pgm_ln1:1 vs_7_1:A 1.000000e-03
15 pgm_ln1:1 vs_4_1:A 1.000000e-03
16 pgm_ln1:1 vs_3_1:A 1.000000e-03
17 pgm_ln1:1 vs_2_1:A 1.000000e-03
18 pgm_ln1:1 vs_0_1:A 1.000000e-03
*END

*D_NET pgm_ln10 1.142111e-01
*CONN
*I lt_ln10:Z O
*I vs_63_10:A I
*I vs_62_10:A I
*I vs_61_10:A I
*I vs_60_10:A I
*I vs_59_10:A I
*I vs_57_10:A I
*I vs_51_10:A I
*I vs_49_10:A I
*I vs_43_10:A I
*I vs_42_10:A I
*I vs_33_10:A I
*I vs_30_10:A I
*I vs_29_10:A I
*I vs_27_10:A I
*I vs_24_10:A I
*I vs_15_10:A I
*I vs_11_10:A I
*I vs_9_10:A I
*I vs_8_10:A I
*I vs_5_10:A I
*I vs_1_10:A I
*I vs_0_10:A I
*CAP
1 pgm_ln10:1 1.142111e-01
*RES
1 lt_ln10:Z pgm_ln10:1 1.278000e+02
2 pgm_ln10:1 vs_63_10:A 1.000000e-03
3 pgm_ln10:1 vs_62_10:A 1.000000e-03
4 pgm_ln10:1 vs_61_10:A 1.000000e-03
5 pgm_ln10:1 vs_60_10:A 1.000000e-03
6 pgm_ln10:1 vs_59_10:A 1.000000e-03
7 pgm_ln10:1 vs_57_10:A 1.000000e-03
8 pgm_ln10:1 vs_51_10:A 1.000000e-03
9 pgm_ln10:1 vs_49_10:A 1.000000e-03
10 pgm_ln10:1 vs_43_10:A 1.000000e-03
11 pgm_ln10:1 vs_42_10:A 1.000000e-03
12 pgm_ln10:1 vs_33_10:A 1.000000e-03
13 pgm_ln10:1 vs_30_10:A 1.000000e-03
14 pgm_ln10:1 vs_29_10:A 1.000000e-03
15 pgm_ln10:1 vs_27_10:A 1.000000e-03
16 pgm_ln10:1 vs_24_10:A 1.000000e-03
17 pgm_ln10:1 vs_15_10:A 1.000000e-03
18 pgm_ln10:1 vs_11_10:A 1.000000e-03
19 pgm_ln10:1 vs_9_10:A 1.000000e-03
20 pgm_ln10:1 vs_8_10:A 1.000000e-03
21 pgm_ln10:1 vs_5_10:A 1.000000e-03
22 pgm_ln10:1 vs_1_10:A 1.000000e-03
23 pgm_ln10:1 vs_0_10:A 1.000000e-03
*END

*D_NET pgm_ln11 9.804282e-02
*CONN
*I lt_ln11:Z O
*I vs_61_11:A I
*I vs_60_11:A I
*I vs_58_11:A I
*I vs_57_11:A I
*I vs_55_11:A I
*I vs_54_11:A I
*I vs_52_11:A I
*I vs_51_11:A I
*I vs_50_11:A I
*I vs_45_11:A I
*I vs_41_11:A I
*I vs_34_11:A I
*I vs_32_11:A I
*I vs_28_11:A I
*I vs_27_11:A I
*I vs_22_11:A I
*I vs_21_11:A I
*I vs_20_11:A I
*I vs_19_11:A I
*I vs_18_11:A I
*I vs_16_11:A I
*I vs_15_11:A I
*I vs_12_11:A I
*I vs_11_11:A I
*I vs_8_11:A I
*CAP
1 pgm_ln11:1 9.804282e-02
*RES
1 lt_ln11:Z pgm_ln11:1 1.102610e+02
2 pgm_ln11:1 vs_61_11:A 1.000000e-03
3 pgm_ln11:1 vs_60_11:A 1.000000e-03
4 pgm_ln11:1 vs_58_11:A 1.000000e-03
5 pgm_ln11:1 vs_57_11:A 1.000000e-03
6 pgm_ln11:1 vs_55_11:A 1.000000e-03
7 pgm_ln11:1 vs_54_11:A 1.000000e-03
8 pgm_ln11:1 vs_52_11:A 1.000000e-03
9 pgm_ln11:1 vs_51_11:A 1.000000e-03
10 pgm_ln11:1 vs_50_11:A 1.000000e-03
11 pgm_ln11:1 vs_45_11:A 1.000000e-03
12 pgm_ln11:1 vs_41_11:A 1.000000e-03
13 pgm_ln11:1 vs_34_11:A 1.000000e-03
14 pgm_ln11:1 vs_32_11:A 1.000000e-03
15 pgm_ln11:1 vs_28_11:A 1.000000e-03
16 pgm_ln11:1 vs_27_11:A 1.000000e-03
17 pgm_ln11:1 vs_22_11:A 1.000000e-03
18 pgm_ln11:1 vs_21_11:A 1.000000e-03
19 pgm_ln11:1 vs_20_11:A 1.000000e-03
20 pgm_ln11:1 vs_19_11:A 1.000000e-03
21 pgm_ln11:1 vs_18_11:A 1.000000e-03
22 pgm_ln11:1 vs_16_11:A 1.000000e-03
23 pgm_ln11:1 vs_15_11:A 1.000000e-03
24 pgm_ln11:1 vs_12_11:A 1.000000e-03
25 pgm_ln11:1 vs_11_11:A 1.000000e-03
26 pgm_ln11:1 vs_8_11:A 1.000000e-03
*END

*D_NET pgm_ln12 1.108267e-01
*CONN
*I lt_ln12:Z O
*I vs_63_12:A I
*I vs_57_12:A I
*I vs_53_12:A I
*I vs_52_12:A I
*I vs_47_12:A I
*I vs_45_12:A I
*I vs_44_12:A I
*I vs_42_12:A I
*I vs_36_12:A I
*I vs_32_12:A I
*I vs_31_12:A I
*I vs_25_12:A I
*I vs_19_12:A I
*I vs_18_12:A I
*I vs_15_12:A I
*I vs_10_12:A I
*I vs_7_12:A I
*I vs_3_12:A I
*I vs_2_12:A I
*I vs_1_12:A I
*CAP
1 pgm_ln12:1 1.108267e-01
*RES
1 lt_ln12:Z pgm_ln12:1 1.249119e+02
2 pgm_ln12:1 vs_63_12:A 1.000000e-03
3 pgm_ln12:1 vs_57_12:A 1.000000e-03
4 pgm_ln12:1 vs_53_12:A 1.000000e-03
5 pgm_ln12:1 vs_52_12:A 1.000000e-03
6 pgm_ln12:1 vs_47_12:A 1.000000e-03
7 pgm_ln12:1 vs_45_12:A 1.000000e-03
8 pgm_ln12:1 vs_44_12:A 1.000000e-03
9 pgm_ln12:1 vs_42_12:A 1.000000e-03
10 pgm_ln12:1 vs_36_12:A 1.000000e-03
11 pgm_ln12:1 vs_32_12:A 1.000000e-03
12 pgm_ln12:1 vs_31_12:A 1.000000e-03
13 pgm_ln12:1 vs_25_12:A 1.000000e-03
14 pgm_ln12:1 vs_19_12:A 1.000000e-03
15 pgm_ln12:1 vs_18_12:A 1.000000e-03
16 pgm_ln12:1 vs_15_12:A 1.000000e-03
17 pgm_ln12:1 vs_10_12:A 1.000000e-03
18 pgm_ln12:1 vs_7_12:A 1.000000e-03
19 pgm_ln12:1 vs_3_12:A 1.000000e-03
20 pgm_ln12:1 vs_2_12:A 1.000000e-03
21 pgm_ln12:1 vs_1_12:A 1.000000e-03
*END

*D_NET pgm_ln13 1.078993e-01
*CONN
*I lt_ln13:Z O
*I vs_62_13:A I
*I vs_61_13:A I
*I vs_60_13:A I
*I vs_54_13:A I
*I vs_51_13:A I
*I vs_49_13:A I
*I vs_39_13:A I
*I vs_35_13:A I
*I vs_33_13:A I
*I vs_32_13:A I
*I vs_30_13:A I
*I vs_29_13:A I
*I vs_26_13:A I
*I vs_25_13:A I
*I vs_23_13:A I
*I vs_19_13:A I
*I vs_9_13:A I
*I vs_0_13:A I
*CAP
1 pgm_ln13:1 1.078993e-01
*RES
1 lt_ln13:Z pgm_ln13:1 1.214459e+02
2 pgm_ln13:1 vs_62_13:A 1.000000e-03
3 pgm_ln13:1 vs_61_13:A 1.000000e-03
4 pgm_ln13:1 vs_60_13:A 1.000000e-03
5 pgm_ln13:1 vs_54_13:A 1.000000e-03
6 pgm_ln13:1 vs_51_13:A 1.000000e-03
7 pgm_ln13:1 vs_49_13:A 1.000000e-03
8 pgm_ln13:1 vs_39_13:A 1.000000e-03
9 pgm_ln13:1 vs_35_13:A 1.000000e-03
10 pgm_ln13:1 vs_33_13:A 1.000000e-03
11 pgm_ln13:1 vs_32_13:A 1.000000e-03
12 pgm_ln13:1 vs_30_13:A 1.000000e-03
13 pgm_ln13:1 vs_29_13:A 1.000000e-03
14 pgm_ln13:1 vs_26_13:A 1.000000e-03
15 pgm_ln13:1 vs_25_13:A 1.000000e-03
16 pgm_ln13:1 vs_23_13:A 1.000000e-03
17 pgm_ln13:1 vs_19_13:A 1.000000e-03
18 pgm_ln13:1 vs_9_13:A 1.000000e-03
19 pgm_ln13:1 vs_0_13:A 1.000000e-03
*END

*D_NET pgm_ln14 1.078434e-01
*CONN
*I lt_ln14:Z O
*I vs_60_14:A I
*I vs_52_14:A I
*I vs_50_14:A I
*I vs_49_14:A I
*I vs_41_14:A I
*I vs_38_14:A I
*I vs_34_14:A I
*I vs_28_14:A I
*I vs_24_14:A I
*I vs_21_14:A I
*I vs_18_14:A I
*I vs_13_14:A I
*I vs_12_14:A I
*I vs_3_14:A I
*I vs_2_14:A I
*CAP
1 pgm_ln14:1 1.078434e-01
*RES
1 lt_ln14:Z pgm_ln14:1 1.215265e+02
2 pgm_ln14:1 vs_60_14:A 1.000000e-03
3 pgm_ln14:1 vs_52_14:A 1.000000e-03
4 pgm_ln14:1 vs_50_14:A 1.000000e-03
5 pgm_ln14:1 vs_49_14:A 1.000000e-03
6 pgm_ln14:1 vs_41_14:A 1.000000e-03
7 pgm_ln14:1 vs_38_14:A 1.000000e-03
8 pgm_ln14:1 vs_34_14:A 1.000000e-03
9 pgm_ln14:1 vs_28_14:A 1.000000e-03
10 pgm_ln14:1 vs_24_14:A 1.000000e-03
11 pgm_ln14:1 vs_21_14:A 1.000000e-03
12 pgm_ln14:1 vs_18_14:A 1.000000e-03
13 pgm_ln14:1 vs_13_14:A 1.000000e-03
14 pgm_ln14:1 vs_12_14:A 1.000000e-03
15 pgm_ln14:1 vs_3_14:A 1.000000e-03
16 pgm_ln14:1 vs_2_14:A 1.000000e-03
*END

*D_NET pgm_ln15 1.075235e-01
*CONN
*I lt_ln15:Z O
*I vs_63_15:A I
*I vs_61_15:A I
*I vs_59_15:A I
*I vs_56_15:A I
*I vs_53_15:A I
*I vs_48_15:A I
*I vs_43_15:A I
*I vs_41_15:A I
*I vs_39_15:A I
*I vs_31_15:A I
*I vs_30_15:A I
*I vs_29_15:A I
*I vs_28_15:A I
*I vs_23_15:A I
*I vs_19_15:A I
*I vs_14_15:A I
*I vs_12_15:A I
*I vs_11_15:A I
*I vs_6_15:A I
*I vs_5_15:A I
*I vs_3_15:A I
*I vs_1_15:A I
*I vs_0_15:A I
*CAP
1 pgm_ln15:1 1.075235e-01
*RES
1 lt_ln15:Z pgm_ln15:1 1.211634e+02
2 pgm_ln15:1 vs_63_15:A 1.000000e-03
3 pgm_ln15:1 vs_61_15:A 1.000000e-03
4 pgm_ln15:1 vs_59_15:A 1.000000e-03
5 pgm_ln15:1 vs_56_15:A 1.000000e-03
6 pgm_ln15:1 vs_53_15:A 1.000000e-03
7 pgm_ln15:1 vs_48_15:A 1.000000e-03
8 pgm_ln15:1 vs_43_15:A 1.000000e-03
9 pgm_ln15:1 vs_41_15:A 1.000000e-03
10 pgm_ln15:1 vs_39_15:A 1.000000e-03
11 pgm_ln15:1 vs_31_15:A 1.000000e-03
12 pgm_ln15:1 vs_30_15:A 1.000000e-03
13 pgm_ln15:1 vs_29_15:A 1.000000e-03
14 pgm_ln15:1 vs_28_15:A 1.000000e-03
15 pgm_ln15:1 vs_23_15:A 1.000000e-03
16 pgm_ln15:1 vs_19_15:A 1.000000e-03
17 pgm_ln15:1 vs_14_15:A 1.000000e-03
18 pgm_ln15:1 vs_12_15:A 1.000000e-03
19 pgm_ln15:1 vs_11_15:A 1.000000e-03
20 pgm_ln15:1 vs_6_15:A 1.000000e-03
21 pgm_ln15:1 vs_5_15:A 1.000000e-03
22 pgm_ln15:1 vs_3_15:A 1.000000e-03
23 pgm_ln15:1 vs_1_15:A 1.000000e-03
24 pgm_ln15:1 vs_0_15:A 1.000000e-03
*END

*D_NET pgm_ln16 1.098726e-01
*CONN
*I lt_ln16:Z O
*I vs_62_16:A I
*I vs_58_16:A I
*I vs_56_16:A I
*I vs_54_16:A I
*I vs_48_16:A I
*I vs_45_16:A I
*I vs_43_16:A I
*I vs_41_16:A I
*I vs_36_16:A I
*I vs_34_16:A I
*I vs_33_16:A I
*I vs_31_16:A I
*I vs_29_16:A I
*I vs_28_16:A I
*I vs_27_16:A I
*I vs_26_16:A I
*I vs_25_16:A I
*I vs_20_16:A I
*I vs_18_16:A I
*I vs_17_16:A I
*I vs_12_16:A I
*I vs_3_16:A I
*CAP
1 pgm_ln16:1 1.098726e-01
*RES
1 lt_ln16:Z pgm_ln16:1 1.228330e+02
2 pgm_ln16:1 vs_62_16:A 1.000000e-03
3 pgm_ln16:1 vs_58_16:A 1.000000e-03
4 pgm_ln16:1 vs_56_16:A 1.000000e-03
5 pgm_ln16:1 vs_54_16:A 1.000000e-03
6 pgm_ln16:1 vs_48_16:A 1.000000e-03
7 pgm_ln16:1 vs_45_16:A 1.000000e-03
8 pgm_ln16:1 vs_43_16:A 1.000000e-03
9 pgm_ln16:1 vs_41_16:A 1.000000e-03
10 pgm_ln16:1 vs_36_16:A 1.000000e-03
11 pgm_ln16:1 vs_34_16:A 1.000000e-03
12 pgm_ln16:1 vs_33_16:A 1.000000e-03
13 pgm_ln16:1 vs_31_16:A 1.000000e-03
14 pgm_ln16:1 vs_29_16:A 1.000000e-03
15 pgm_ln16:1 vs_28_16:A 1.000000e-03
16 pgm_ln16:1 vs_27_16:A 1.000000e-03
17 pgm_ln16:1 vs_26_16:A 1.000000e-03
18 pgm_ln16:1 vs_25_16:A 1.000000e-03
19 pgm_ln16:1 vs_20_16:A 1.000000e-03
20 pgm_ln16:1 vs_18_16:A 1.000000e-03
21 pgm_ln16:1 vs_17_16:A 1.000000e-03
22 pgm_ln16:1 vs_12_16:A 1.000000e-03
23 pgm_ln16:1 vs_3_16:A 1.000000e-03
*END

*D_NET pgm_ln17 9.067034e-02
*CONN
*I lt_ln17:Z O
*I vs_61_17:A I
*I vs_60_17:A I
*I vs_58_17:A I
*I vs_54_17:A I
*I vs_50_17:A I
*I vs_49_17:A I
*I vs_47_17:A I
*I vs_44_17:A I
*I vs_43_17:A I
*I vs_39_17:A I
*I vs_37_17:A I
*I vs_30_17:A I
*I vs_29_17:A I
*I vs_25_17:A I
*I vs_22_17:A I
*I vs_21_17:A I
*I vs_16_17:A I
*I vs_15_17:A I
*I vs_9_17:A I
*I vs_8_17:A I
*CAP
1 pgm_ln17:1 9.067034e-02
*RES
1 lt_ln17:Z pgm_ln17:1 1.023268e+02
2 pgm_ln17:1 vs_61_17:A 1.000000e-03
3 pgm_ln17:1 vs_60_17:A 1.000000e-03
4 pgm_ln17:1 vs_58_17:A 1.000000e-03
5 pgm_ln17:1 vs_54_17:A 1.000000e-03
6 pgm_ln17:1 vs_50_17:A 1.000000e-03
7 pgm_ln17:1 vs_49_17:A 1.000000e-03
8 pgm_ln17:1 vs_47_17:A 1.000000e-03
9 pgm_ln17:1 vs_44_17:A 1.000000e-03
10 pgm_ln17:1 vs_43_17:A 1.000000e-03
11 pgm_ln17:1 vs_39_17:A 1.000000e-03
12 pgm_ln17:1 vs_37_17:A 1.000000e-03
13 pgm_ln17:1 vs_30_17:A 1.000000e-03
14 pgm_ln17:1 vs_29_17:A 1.000000e-03
15 pgm_ln17:1 vs_25_17:A 1.000000e-03
16 pgm_ln17:1 vs_22_17:A 1.000000e-03
17 pgm_ln17:1 vs_21_17:A 1.000000e-03
18 pgm_ln17:1 vs_16_17:A 1.000000e-03
19 pgm_ln17:1 vs_15_17:A 1.000000e-03
20 pgm_ln17:1 vs_9_17:A 1.000000e-03
21 pgm_ln17:1 vs_8_17:A 1.000000e-03
*END

*D_NET pgm_ln18 1.081282e-01
*CONN
*I lt_ln18:Z O
*I vs_62_18:A I
*I vs_61_18:A I
*I vs_60_18:A I
*I vs_52_18:A I
*I vs_51_18:A I
*I vs_46_18:A I
*I vs_44_18:A I
*I vs_43_18:A I
*I vs_42_18:A I
*I vs_39_18:A I
*I vs_36_18:A I
*I vs_35_18:A I
*I vs_33_18:A I
*I vs_31_18:A I
*I vs_30_18:A I
*I vs_26_18:A I
*I vs_25_18:A I
*I vs_23_18:A I
*I vs_22_18:A I
*I vs_19_18:A I
*I vs_17_18:A I
*I vs_11_18:A I
*I vs_7_18:A I
*I vs_0_18:A I
*CAP
1 pgm_ln18:1 1.081282e-01
*RES
1 lt_ln18:Z pgm_ln18:1 1.212174e+02
2 pgm_ln18:1 vs_62_18:A 1.000000e-03
3 pgm_ln18:1 vs_61_18:A 1.000000e-03
4 pgm_ln18:1 vs_60_18:A 1.000000e-03
5 pgm_ln18:1 vs_52_18:A 1.000000e-03
6 pgm_ln18:1 vs_51_18:A 1.000000e-03
7 pgm_ln18:1 vs_46_18:A 1.000000e-03
8 pgm_ln18:1 vs_44_18:A 1.000000e-03
9 pgm_ln18:1 vs_43_18:A 1.000000e-03
10 pgm_ln18:1 vs_42_18:A 1.000000e-03
11 pgm_ln18:1 vs_39_18:A 1.000000e-03
12 pgm_ln18:1 vs_36_18:A 1.000000e-03
13 pgm_ln18:1 vs_35_18:A 1.000000e-03
14 pgm_ln18:1 vs_33_18:A 1.000000e-03
15 pgm_ln18:1 vs_31_18:A 1.000000e-03
16 pgm_ln18:1 vs_30_18:A 1.000000e-03
17 pgm_ln18:1 vs_26_18:A 1.000000e-03
18 pgm_ln18:1 vs_25_18:A 1.000000e-03
19 pgm_ln18:1 vs_23_18:A 1.000000e-03
20 pgm_ln18:1 vs_22_18:A 1.000000e-03
21 pgm_ln18:1 vs_19_18:A 1.000000e-03
22 pgm_ln18:1 vs_17_18:A 1.000000e-03
23 pgm_ln18:1 vs_11_18:A 1.000000e-03
24 pgm_ln18:1 vs_7_18:A 1.000000e-03
25 pgm_ln18:1 vs_0_18:A 1.000000e-03
*END

*D_NET pgm_ln19 1.095765e-01
*CONN
*I lt_ln19:Z O
*I vs_60_19:A I
*I vs_58_19:A I
*I vs_51_19:A I
*I vs_50_19:A I
*I vs_48_19:A I
*I vs_47_19:A I
*I vs_44_19:A I
*I vs_38_19:A I
*I vs_36_19:A I
*I vs_35_19:A I
*I vs_32_19:A I
*I vs_29_19:A I
*I vs_20_19:A I
*I vs_17_19:A I
*I vs_12_19:A I
*I vs_8_19:A I
*I vs_7_19:A I
*I vs_6_19:A I
*I vs_4_19:A I
*I vs_3_19:A I
*I vs_2_19:A I
*I vs_0_19:A I
*CAP
1 pgm_ln19:1 1.095765e-01
*RES
1 lt_ln19:Z pgm_ln19:1 1.234932e+02
2 pgm_ln19:1 vs_60_19:A 1.000000e-03
3 pgm_ln19:1 vs_58_19:A 1.000000e-03
4 pgm_ln19:1 vs_51_19:A 1.000000e-03
5 pgm_ln19:1 vs_50_19:A 1.000000e-03
6 pgm_ln19:1 vs_48_19:A 1.000000e-03
7 pgm_ln19:1 vs_47_19:A 1.000000e-03
8 pgm_ln19:1 vs_44_19:A 1.000000e-03
9 pgm_ln19:1 vs_38_19:A 1.000000e-03
10 pgm_ln19:1 vs_36_19:A 1.000000e-03
11 pgm_ln19:1 vs_35_19:A 1.000000e-03
12 pgm_ln19:1 vs_32_19:A 1.000000e-03
13 pgm_ln19:1 vs_29_19:A 1.000000e-03
14 pgm_ln19:1 vs_20_19:A 1.000000e-03
15 pgm_ln19:1 vs_17_19:A 1.000000e-03
16 pgm_ln19:1 vs_12_19:A 1.000000e-03
17 pgm_ln19:1 vs_8_19:A 1.000000e-03
18 pgm_ln19:1 vs_7_19:A 1.000000e-03
19 pgm_ln19:1 vs_6_19:A 1.000000e-03
20 pgm_ln19:1 vs_4_19:A 1.000000e-03
21 pgm_ln19:1 vs_3_19:A 1.000000e-03
22 pgm_ln19:1 vs_2_19:A 1.000000e-03
23 pgm_ln19:1 vs_0_19:A 1.000000e-03
*END

*D_NET pgm_ln2 1.076386e-01
*CONN
*I lt_ln2:Z O
*I vs_59_2:A I
*I vs_56_2:A I
*I vs_46_2:A I
*I vs_40_2:A I
*I vs_37_2:A I
*I vs_27_2:A I
*I vs_26_2:A I
*I vs_25_2:A I
*I vs_23_2:A I
*I vs_21_2:A I
*I vs_10_2:A I
*I vs_9_2:A I
*I vs_6_2:A I
*I vs_4_2:A I
*I vs_0_2:A I
*CAP
1 pgm_ln2:1 1.076386e-01
*RES
1 lt_ln2:Z pgm_ln2:1 1.211500e+02
2 pgm_ln2:1 vs_59_2:A 1.000000e-03
3 pgm_ln2:1 vs_56_2:A 1.000000e-03
4 pgm_ln2:1 vs_46_2:A 1.000000e-03
5 pgm_ln2:1 vs_40_2:A 1.000000e-03
6 pgm_ln2:1 vs_37_2:A 1.000000e-03
7 pgm_ln2:1 vs_27_2:A 1.000000e-03
8 pgm_ln2:1 vs_26_2:A 1.000000e-03
9 pgm_ln2:1 vs_25_2:A 1.000000e-03
10 pgm_ln2:1 vs_23_2:A 1.000000e-03
11 pgm_ln2:1 vs_21_2:A 1.000000e-03
12 pgm_ln2:1 vs_10_2:A 1.000000e-03
13 pgm_ln2:1 vs_9_2:A 1.000000e-03
14 pgm_ln2:1 vs_6_2:A 1.000000e-03
15 pgm_ln2:1 vs_4_2:A 1.000000e-03
16 pgm_ln2:1 vs_0_2:A 1.000000e-03
*END

*D_NET pgm_ln20 9.530947e-02
*CONN
*I lt_ln20:Z O
*I vs_53_20:A I
*I vs_52_20:A I
*I vs_51_20:A I
*I vs_49_20:A I
*I vs_47_20:A I
*I vs_42_20:A I
*I vs_40_20:A I
*I vs_38_20:A I
*I vs_36_20:A I
*I vs_35_20:A I
*I vs_34_20:A I
*I vs_33_20:A I
*I vs_23_20:A I
*I vs_20_20:A I
*I vs_17_20:A I
*I vs_16_20:A I
*I vs_14_20:A I
*I vs_10_20:A I
*I vs_8_20:A I
*I vs_3_20:A I
*I vs_2_20:A I
*I vs_0_20:A I
*CAP
1 pgm_ln20:1 9.530947e-02
*RES
1 lt_ln20:Z pgm_ln20:1 1.054305e+02
2 pgm_ln20:1 vs_53_20:A 1.000000e-03
3 pgm_ln20:1 vs_52_20:A 1.000000e-03
4 pgm_ln20:1 vs_51_20:A 1.000000e-03
5 pgm_ln20:1 vs_49_20:A 1.000000e-03
6 pgm_ln20:1 vs_47_20:A 1.000000e-03
7 pgm_ln20:1 vs_42_20:A 1.000000e-03
8 pgm_ln20:1 vs_40_20:A 1.000000e-03
9 pgm_ln20:1 vs_38_20:A 1.000000e-03
10 pgm_ln20:1 vs_36_20:A 1.000000e-03
11 pgm_ln20:1 vs_35_20:A 1.000000e-03
12 pgm_ln20:1 vs_34_20:A 1.000000e-03
13 pgm_ln20:1 vs_33_20:A 1.000000e-03
14 pgm_ln20:1 vs_23_20:A 1.000000e-03
15 pgm_ln20:1 vs_20_20:A 1.000000e-03
16 pgm_ln20:1 vs_17_20:A 1.000000e-03
17 pgm_ln20:1 vs_16_20:A 1.000000e-03
18 pgm_ln20:1 vs_14_20:A 1.000000e-03
19 pgm_ln20:1 vs_10_20:A 1.000000e-03
20 pgm_ln20:1 vs_8_20:A 1.000000e-03
21 pgm_ln20:1 vs_3_20:A 1.000000e-03
22 pgm_ln20:1 vs_2_20:A 1.000000e-03
23 pgm_ln20:1 vs_0_20:A 1.000000e-03
*END

*D_NET pgm_ln21 1.078552e-01
*CONN
*I lt_ln21:Z O
*I vs_62_21:A I
*I vs_59_21:A I
*I vs_58_21:A I
*I vs_57_21:A I
*I vs_53_21:A I
*I vs_44_21:A I
*I vs_43_21:A I
*I vs_41_21:A I
*I vs_38_21:A I
*I vs_29_21:A I
*I vs_28_21:A I
*I vs_27_21:A I
*I vs_21_21:A I
*I vs_20_21:A I
*I vs_19_21:A I
*I vs_18_21:A I
*I vs_8_21:A I
*I vs_7_21:A I
*I vs_3_21:A I
*CAP
1 pgm_ln21:1 1.078552e-01
*RES
1 lt_ln21:Z pgm_ln21:1 1.211634e+02
2 pgm_ln21:1 vs_62_21:A 1.000000e-03
3 pgm_ln21:1 vs_59_21:A 1.000000e-03
4 pgm_ln21:1 vs_58_21:A 1.000000e-03
5 pgm_ln21:1 vs_57_21:A 1.000000e-03
6 pgm_ln21:1 vs_53_21:A 1.000000e-03
7 pgm_ln21:1 vs_44_21:A 1.000000e-03
8 pgm_ln21:1 vs_43_21:A 1.000000e-03
9 pgm_ln21:1 vs_41_21:A 1.000000e-03
10 pgm_ln21:1 vs_38_21:A 1.000000e-03
11 pgm_ln21:1 vs_29_21:A 1.000000e-03
12 pgm_ln21:1 vs_28_21:A 1.000000e-03
13 pgm_ln21:1 vs_27_21:A 1.000000e-03
14 pgm_ln21:1 vs_21_21:A 1.000000e-03
15 pgm_ln21:1 vs_20_21:A 1.000000e-03
16 pgm_ln21:1 vs_19_21:A 1.000000e-03
17 pgm_ln21:1 vs_18_21:A 1.000000e-03
18 pgm_ln21:1 vs_8_21:A 1.000000e-03
19 pgm_ln21:1 vs_7_21:A 1.000000e-03
20 pgm_ln21:1 vs_3_21:A 1.000000e-03
*END

*D_NET pgm_ln22 1.087050e-01
*CONN
*I lt_ln22:Z O
*I vs_63_22:A I
*I vs_62_22:A I
*I vs_60_22:A I
*I vs_53_22:A I
*I vs_52_22:A I
*I vs_46_22:A I
*I vs_43_22:A I
*I vs_39_22:A I
*I vs_38_22:A I
*I vs_37_22:A I
*I vs_35_22:A I
*I vs_25_22:A I
*I vs_24_22:A I
*I vs_22_22:A I
*I vs_19_22:A I
*I vs_16_22:A I
*I vs_13_22:A I
*I vs_12_22:A I
*I vs_11_22:A I
*I vs_10_22:A I
*I vs_9_22:A I
*I vs_5_22:A I
*I vs_2_22:A I
*CAP
1 pgm_ln22:1 1.087050e-01
*RES
1 lt_ln22:Z pgm_ln22:1 1.219722e+02
2 pgm_ln22:1 vs_63_22:A 1.000000e-03
3 pgm_ln22:1 vs_62_22:A 1.000000e-03
4 pgm_ln22:1 vs_60_22:A 1.000000e-03
5 pgm_ln22:1 vs_53_22:A 1.000000e-03
6 pgm_ln22:1 vs_52_22:A 1.000000e-03
7 pgm_ln22:1 vs_46_22:A 1.000000e-03
8 pgm_ln22:1 vs_43_22:A 1.000000e-03
9 pgm_ln22:1 vs_39_22:A 1.000000e-03
10 pgm_ln22:1 vs_38_22:A 1.000000e-03
11 pgm_ln22:1 vs_37_22:A 1.000000e-03
12 pgm_ln22:1 vs_35_22:A 1.000000e-03
13 pgm_ln22:1 vs_25_22:A 1.000000e-03
14 pgm_ln22:1 vs_24_22:A 1.000000e-03
15 pgm_ln22:1 vs_22_22:A 1.000000e-03
16 pgm_ln22:1 vs_19_22:A 1.000000e-03
17 pgm_ln22:1 vs_16_22:A 1.000000e-03
18 pgm_ln22:1 vs_13_22:A 1.000000e-03
19 pgm_ln22:1 vs_12_22:A 1.000000e-03
20 pgm_ln22:1 vs_11_22:A 1.000000e-03
21 pgm_ln22:1 vs_10_22:A 1.000000e-03
22 pgm_ln22:1 vs_9_22:A 1.000000e-03
23 pgm_ln22:1 vs_5_22:A 1.000000e-03
24 pgm_ln22:1 vs_2_22:A 1.000000e-03
*END

*D_NET pgm_ln23 1.128796e-01
*CONN
*I lt_ln23:Z O
*I vs_62_23:A I
*I vs_59_23:A I
*I vs_52_23:A I
*I vs_44_23:A I
*I vs_41_23:A I
*I vs_39_23:A I
*I vs_38_23:A I
*I vs_37_23:A I
*I vs_30_23:A I
*I vs_18_23:A I
*I vs_17_23:A I
*I vs_14_23:A I
*I vs_11_23:A I
*I vs_8_23:A I
*I vs_5_23:A I
*I vs_2_23:A I
*I vs_0_23:A I
*CAP
1 pgm_ln23:1 1.128796e-01
*RES
1 lt_ln23:Z pgm_ln23:1 1.262452e+02
2 pgm_ln23:1 vs_62_23:A 1.000000e-03
3 pgm_ln23:1 vs_59_23:A 1.000000e-03
4 pgm_ln23:1 vs_52_23:A 1.000000e-03
5 pgm_ln23:1 vs_44_23:A 1.000000e-03
6 pgm_ln23:1 vs_41_23:A 1.000000e-03
7 pgm_ln23:1 vs_39_23:A 1.000000e-03
8 pgm_ln23:1 vs_38_23:A 1.000000e-03
9 pgm_ln23:1 vs_37_23:A 1.000000e-03
10 pgm_ln23:1 vs_30_23:A 1.000000e-03
11 pgm_ln23:1 vs_18_23:A 1.000000e-03
12 pgm_ln23:1 vs_17_23:A 1.000000e-03
13 pgm_ln23:1 vs_14_23:A 1.000000e-03
14 pgm_ln23:1 vs_11_23:A 1.000000e-03
15 pgm_ln23:1 vs_8_23:A 1.000000e-03
16 pgm_ln23:1 vs_5_23:A 1.000000e-03
17 pgm_ln23:1 vs_2_23:A 1.000000e-03
18 pgm_ln23:1 vs_0_23:A 1.000000e-03
*END

*D_NET pgm_ln24 1.023110e-01
*CONN
*I lt_ln24:Z O
*I vs_62_24:A I
*I vs_58_24:A I
*I vs_55_24:A I
*I vs_47_24:A I
*I vs_43_24:A I
*I vs_41_24:A I
*I vs_39_24:A I
*I vs_36_24:A I
*I vs_35_24:A I
*I vs_34_24:A I
*I vs_33_24:A I
*I vs_27_24:A I
*I vs_15_24:A I
*I vs_12_24:A I
*I vs_10_24:A I
*I vs_4_24:A I
*I vs_2_24:A I
*CAP
1 pgm_ln24:1 1.023110e-01
*RES
1 lt_ln24:Z pgm_ln24:1 1.148223e+02
2 pgm_ln24:1 vs_62_24:A 1.000000e-03
3 pgm_ln24:1 vs_58_24:A 1.000000e-03
4 pgm_ln24:1 vs_55_24:A 1.000000e-03
5 pgm_ln24:1 vs_47_24:A 1.000000e-03
6 pgm_ln24:1 vs_43_24:A 1.000000e-03
7 pgm_ln24:1 vs_41_24:A 1.000000e-03
8 pgm_ln24:1 vs_39_24:A 1.000000e-03
9 pgm_ln24:1 vs_36_24:A 1.000000e-03
10 pgm_ln24:1 vs_35_24:A 1.000000e-03
11 pgm_ln24:1 vs_34_24:A 1.000000e-03
12 pgm_ln24:1 vs_33_24:A 1.000000e-03
13 pgm_ln24:1 vs_27_24:A 1.000000e-03
14 pgm_ln24:1 vs_15_24:A 1.000000e-03
15 pgm_ln24:1 vs_12_24:A 1.000000e-03
16 pgm_ln24:1 vs_10_24:A 1.000000e-03
17 pgm_ln24:1 vs_4_24:A 1.000000e-03
18 pgm_ln24:1 vs_2_24:A 1.000000e-03
*END

*D_NET pgm_ln25 1.064992e-01
*CONN
*I lt_ln25:Z O
*I vs_61_25:A I
*I vs_60_25:A I
*I vs_52_25:A I
*I vs_51_25:A I
*I vs_41_25:A I
*I vs_40_25:A I
*I vs_36_25:A I
*I vs_34_25:A I
*I vs_32_25:A I
*I vs_31_25:A I
*I vs_27_25:A I
*I vs_24_25:A I
*I vs_21_25:A I
*I vs_18_25:A I
*I vs_16_25:A I
*I vs_15_25:A I
*I vs_13_25:A I
*I vs_11_25:A I
*I vs_9_25:A I
*I vs_5_25:A I
*I vs_3_25:A I
*CAP
1 pgm_ln25:1 1.064992e-01
*RES
1 lt_ln25:Z pgm_ln25:1 1.192928e+02
2 pgm_ln25:1 vs_61_25:A 1.000000e-03
3 pgm_ln25:1 vs_60_25:A 1.000000e-03
4 pgm_ln25:1 vs_52_25:A 1.000000e-03
5 pgm_ln25:1 vs_51_25:A 1.000000e-03
6 pgm_ln25:1 vs_41_25:A 1.000000e-03
7 pgm_ln25:1 vs_40_25:A 1.000000e-03
8 pgm_ln25:1 vs_36_25:A 1.000000e-03
9 pgm_ln25:1 vs_34_25:A 1.000000e-03
10 pgm_ln25:1 vs_32_25:A 1.000000e-03
11 pgm_ln25:1 vs_31_25:A 1.000000e-03
12 pgm_ln25:1 vs_27_25:A 1.000000e-03
13 pgm_ln25:1 vs_24_25:A 1.000000e-03
14 pgm_ln25:1 vs_21_25:A 1.000000e-03
15 pgm_ln25:1 vs_18_25:A 1.000000e-03
16 pgm_ln25:1 vs_16_25:A 1.000000e-03
17 pgm_ln25:1 vs_15_25:A 1.000000e-03
18 pgm_ln25:1 vs_13_25:A 1.000000e-03
19 pgm_ln25:1 vs_11_25:A 1.000000e-03
20 pgm_ln25:1 vs_9_25:A 1.000000e-03
21 pgm_ln25:1 vs_5_25:A 1.000000e-03
22 pgm_ln25:1 vs_3_25:A 1.000000e-03
*END

*D_NET pgm_ln26 1.037175e-01
*CONN
*I lt_ln26:Z O
*I vs_61_26:A I
*I vs_59_26:A I
*I vs_58_26:A I
*I vs_48_26:A I
*I vs_40_26:A I
*I vs_35_26:A I
*I vs_31_26:A I
*I vs_27_26:A I
*I vs_24_26:A I
*I vs_21_26:A I
*I vs_11_26:A I
*I vs_10_26:A I
*I vs_6_26:A I
*I vs_2_26:A I
*I vs_1_26:A I
*CAP
1 pgm_ln26:1 1.037175e-01
*RES
1 lt_ln26:Z pgm_ln26:1 1.171324e+02
2 pgm_ln26:1 vs_61_26:A 1.000000e-03
3 pgm_ln26:1 vs_59_26:A 1.000000e-03
4 pgm_ln26:1 vs_58_26:A 1.000000e-03
5 pgm_ln26:1 vs_48_26:A 1.000000e-03
6 pgm_ln26:1 vs_40_26:A 1.000000e-03
7 pgm_ln26:1 vs_35_26:A 1.000000e-03
8 pgm_ln26:1 vs_31_26:A 1.000000e-03
9 pgm_ln26:1 vs_27_26:A 1.000000e-03
10 pgm_ln26:1 vs_24_26:A 1.000000e-03
11 pgm_ln26:1 vs_21_26:A 1.000000e-03
12 pgm_ln26:1 vs_11_26:A 1.000000e-03
13 pgm_ln26:1 vs_10_26:A 1.000000e-03
14 pgm_ln26:1 vs_6_26:A 1.000000e-03
15 pgm_ln26:1 vs_2_26:A 1.000000e-03
16 pgm_ln26:1 vs_1_26:A 1.000000e-03
*END

*D_NET pgm_ln27 1.030052e-01
*CONN
*I lt_ln27:Z O
*I vs_61_27:A I
*I vs_60_27:A I
*I vs_59_27:A I
*I vs_57_27:A I
*I vs_56_27:A I
*I vs_54_27:A I
*I vs_49_27:A I
*I vs_48_27:A I
*I vs_47_27:A I
*I vs_44_27:A I
*I vs_43_27:A I
*I vs_42_27:A I
*I vs_40_27:A I
*I vs_38_27:A I
*I vs_35_27:A I
*I vs_34_27:A I
*I vs_33_27:A I
*I vs_32_27:A I
*I vs_28_27:A I
*I vs_26_27:A I
*I vs_23_27:A I
*I vs_14_27:A I
*I vs_11_27:A I
*I vs_10_27:A I
*I vs_0_27:A I
*CAP
1 pgm_ln27:1 1.030052e-01
*RES
1 lt_ln27:Z pgm_ln27:1 1.168885e+02
2 pgm_ln27:1 vs_61_27:A 1.000000e-03
3 pgm_ln27:1 vs_60_27:A 1.000000e-03
4 pgm_ln27:1 vs_59_27:A 1.000000e-03
5 pgm_ln27:1 vs_57_27:A 1.000000e-03
6 pgm_ln27:1 vs_56_27:A 1.000000e-03
7 pgm_ln27:1 vs_54_27:A 1.000000e-03
8 pgm_ln27:1 vs_49_27:A 1.000000e-03
9 pgm_ln27:1 vs_48_27:A 1.000000e-03
10 pgm_ln27:1 vs_47_27:A 1.000000e-03
11 pgm_ln27:1 vs_44_27:A 1.000000e-03
12 pgm_ln27:1 vs_43_27:A 1.000000e-03
13 pgm_ln27:1 vs_42_27:A 1.000000e-03
14 pgm_ln27:1 vs_40_27:A 1.000000e-03
15 pgm_ln27:1 vs_38_27:A 1.000000e-03
16 pgm_ln27:1 vs_35_27:A 1.000000e-03
17 pgm_ln27:1 vs_34_27:A 1.000000e-03
18 pgm_ln27:1 vs_33_27:A 1.000000e-03
19 pgm_ln27:1 vs_32_27:A 1.000000e-03
20 pgm_ln27:1 vs_28_27:A 1.000000e-03
21 pgm_ln27:1 vs_26_27:A 1.000000e-03
22 pgm_ln27:1 vs_23_27:A 1.000000e-03
23 pgm_ln27:1 vs_14_27:A 1.000000e-03
24 pgm_ln27:1 vs_11_27:A 1.000000e-03
25 pgm_ln27:1 vs_10_27:A 1.000000e-03
26 pgm_ln27:1 vs_0_27:A 1.000000e-03
*END

*D_NET pgm_ln28 9.497375e-02
*CONN
*I lt_ln28:Z O
*I vs_62_28:A I
*I vs_57_28:A I
*I vs_56_28:A I
*I vs_52_28:A I
*I vs_49_28:A I
*I vs_45_28:A I
*I vs_43_28:A I
*I vs_37_28:A I
*I vs_36_28:A I
*I vs_35_28:A I
*I vs_28_28:A I
*I vs_26_28:A I
*I vs_25_28:A I
*I vs_21_28:A I
*I vs_10_28:A I
*CAP
1 pgm_ln28:1 9.497375e-02
*RES
1 lt_ln28:Z pgm_ln28:1 1.077745e+02
2 pgm_ln28:1 vs_62_28:A 1.000000e-03
3 pgm_ln28:1 vs_57_28:A 1.000000e-03
4 pgm_ln28:1 vs_56_28:A 1.000000e-03
5 pgm_ln28:1 vs_52_28:A 1.000000e-03
6 pgm_ln28:1 vs_49_28:A 1.000000e-03
7 pgm_ln28:1 vs_45_28:A 1.000000e-03
8 pgm_ln28:1 vs_43_28:A 1.000000e-03
9 pgm_ln28:1 vs_37_28:A 1.000000e-03
10 pgm_ln28:1 vs_36_28:A 1.000000e-03
11 pgm_ln28:1 vs_35_28:A 1.000000e-03
12 pgm_ln28:1 vs_28_28:A 1.000000e-03
13 pgm_ln28:1 vs_26_28:A 1.000000e-03
14 pgm_ln28:1 vs_25_28:A 1.000000e-03
15 pgm_ln28:1 vs_21_28:A 1.000000e-03
16 pgm_ln28:1 vs_10_28:A 1.000000e-03
*END

*D_NET pgm_ln29 9.964676e-02
*CONN
*I lt_ln29:Z O
*I vs_61_29:A I
*I vs_60_29:A I
*I vs_59_29:A I
*I vs_57_29:A I
*I vs_54_29:A I
*I vs_51_29:A I
*I vs_48_29:A I
*I vs_41_29:A I
*I vs_40_29:A I
*I vs_39_29:A I
*I vs_37_29:A I
*I vs_36_29:A I
*I vs_35_29:A I
*I vs_34_29:A I
*I vs_33_29:A I
*I vs_30_29:A I
*I vs_29_29:A I
*I vs_28_29:A I
*I vs_16_29:A I
*I vs_15_29:A I
*I vs_6_29:A I
*I vs_4_29:A I
*CAP
1 pgm_ln29:1 9.964676e-02
*RES
1 lt_ln29:Z pgm_ln29:1 1.115168e+02
2 pgm_ln29:1 vs_61_29:A 1.000000e-03
3 pgm_ln29:1 vs_60_29:A 1.000000e-03
4 pgm_ln29:1 vs_59_29:A 1.000000e-03
5 pgm_ln29:1 vs_57_29:A 1.000000e-03
6 pgm_ln29:1 vs_54_29:A 1.000000e-03
7 pgm_ln29:1 vs_51_29:A 1.000000e-03
8 pgm_ln29:1 vs_48_29:A 1.000000e-03
9 pgm_ln29:1 vs_41_29:A 1.000000e-03
10 pgm_ln29:1 vs_40_29:A 1.000000e-03
11 pgm_ln29:1 vs_39_29:A 1.000000e-03
12 pgm_ln29:1 vs_37_29:A 1.000000e-03
13 pgm_ln29:1 vs_36_29:A 1.000000e-03
14 pgm_ln29:1 vs_35_29:A 1.000000e-03
15 pgm_ln29:1 vs_34_29:A 1.000000e-03
16 pgm_ln29:1 vs_33_29:A 1.000000e-03
17 pgm_ln29:1 vs_30_29:A 1.000000e-03
18 pgm_ln29:1 vs_29_29:A 1.000000e-03
19 pgm_ln29:1 vs_28_29:A 1.000000e-03
20 pgm_ln29:1 vs_16_29:A 1.000000e-03
21 pgm_ln29:1 vs_15_29:A 1.000000e-03
22 pgm_ln29:1 vs_6_29:A 1.000000e-03
23 pgm_ln29:1 vs_4_29:A 1.000000e-03
*END

*D_NET pgm_ln3 9.830367e-02
*CONN
*I lt_ln3:Z O
*I vs_62_3:A I
*I vs_61_3:A I
*I vs_53_3:A I
*I vs_52_3:A I
*I vs_51_3:A I
*I vs_43_3:A I
*I vs_40_3:A I
*I vs_38_3:A I
*I vs_36_3:A I
*I vs_31_3:A I
*I vs_29_3:A I
*I vs_28_3:A I
*I vs_27_3:A I
*I vs_25_3:A I
*I vs_21_3:A I
*I vs_16_3:A I
*I vs_15_3:A I
*I vs_7_3:A I
*CAP
1 pgm_ln3:1 9.830367e-02
*RES
1 lt_ln3:Z pgm_ln3:1 1.115532e+02
2 pgm_ln3:1 vs_62_3:A 1.000000e-03
3 pgm_ln3:1 vs_61_3:A 1.000000e-03
4 pgm_ln3:1 vs_53_3:A 1.000000e-03
5 pgm_ln3:1 vs_52_3:A 1.000000e-03
6 pgm_ln3:1 vs_51_3:A 1.000000e-03
7 pgm_ln3:1 vs_43_3:A 1.000000e-03
8 pgm_ln3:1 vs_40_3:A 1.000000e-03
9 pgm_ln3:1 vs_38_3:A 1.000000e-03
10 pgm_ln3:1 vs_36_3:A 1.000000e-03
11 pgm_ln3:1 vs_31_3:A 1.000000e-03
12 pgm_ln3:1 vs_29_3:A 1.000000e-03
13 pgm_ln3:1 vs_28_3:A 1.000000e-03
14 pgm_ln3:1 vs_27_3:A 1.000000e-03
15 pgm_ln3:1 vs_25_3:A 1.000000e-03
16 pgm_ln3:1 vs_21_3:A 1.000000e-03
17 pgm_ln3:1 vs_16_3:A 1.000000e-03
18 pgm_ln3:1 vs_15_3:A 1.000000e-03
19 pgm_ln3:1 vs_7_3:A 1.000000e-03
*END

*D_NET pgm_ln30 1.124627e-01
*CONN
*I lt_ln30:Z O
*I vs_61_30:A I
*I vs_60_30:A I
*I vs_58_30:A I
*I vs_54_30:A I
*I vs_46_30:A I
*I vs_43_30:A I
*I vs_38_30:A I
*I vs_37_30:A I
*I vs_35_30:A I
*I vs_33_30:A I
*I vs_30_30:A I
*I vs_23_30:A I
*I vs_20_30:A I
*I vs_13_30:A I
*I vs_6_30:A I
*I vs_1_30:A I
*CAP
1 pgm_ln30:1 1.124627e-01
*RES
1 lt_ln30:Z pgm_ln30:1 1.269844e+02
2 pgm_ln30:1 vs_61_30:A 1.000000e-03
3 pgm_ln30:1 vs_60_30:A 1.000000e-03
4 pgm_ln30:1 vs_58_30:A 1.000000e-03
5 pgm_ln30:1 vs_54_30:A 1.000000e-03
6 pgm_ln30:1 vs_46_30:A 1.000000e-03
7 pgm_ln30:1 vs_43_30:A 1.000000e-03
8 pgm_ln30:1 vs_38_30:A 1.000000e-03
9 pgm_ln30:1 vs_37_30:A 1.000000e-03
10 pgm_ln30:1 vs_35_30:A 1.000000e-03
11 pgm_ln30:1 vs_33_30:A 1.000000e-03
12 pgm_ln30:1 vs_30_30:A 1.000000e-03
13 pgm_ln30:1 vs_23_30:A 1.000000e-03
14 pgm_ln30:1 vs_20_30:A 1.000000e-03
15 pgm_ln30:1 vs_13_30:A 1.000000e-03
16 pgm_ln30:1 vs_6_30:A 1.000000e-03
17 pgm_ln30:1 vs_1_30:A 1.000000e-03
*END

*D_NET pgm_ln31 1.014684e-01
*CONN
*I lt_ln31:Z O
*I vs_61_31:A I
*I vs_59_31:A I
*I vs_57_31:A I
*I vs_56_31:A I
*I vs_53_31:A I
*I vs_50_31:A I
*I vs_45_31:A I
*I vs_44_31:A I
*I vs_43_31:A I
*I vs_42_31:A I
*I vs_36_31:A I
*I vs_35_31:A I
*I vs_20_31:A I
*I vs_18_31:A I
*I vs_17_31:A I
*I vs_13_31:A I
*I vs_1_31:A I
*CAP
1 pgm_ln31:1 1.014684e-01
*RES
1 lt_ln31:Z pgm_ln31:1 1.144363e+02
2 pgm_ln31:1 vs_61_31:A 1.000000e-03
3 pgm_ln31:1 vs_59_31:A 1.000000e-03
4 pgm_ln31:1 vs_57_31:A 1.000000e-03
5 pgm_ln31:1 vs_56_31:A 1.000000e-03
6 pgm_ln31:1 vs_53_31:A 1.000000e-03
7 pgm_ln31:1 vs_50_31:A 1.000000e-03
8 pgm_ln31:1 vs_45_31:A 1.000000e-03
9 pgm_ln31:1 vs_44_31:A 1.000000e-03
10 pgm_ln31:1 vs_43_31:A 1.000000e-03
11 pgm_ln31:1 vs_42_31:A 1.000000e-03
12 pgm_ln31:1 vs_36_31:A 1.000000e-03
13 pgm_ln31:1 vs_35_31:A 1.000000e-03
14 pgm_ln31:1 vs_20_31:A 1.000000e-03
15 pgm_ln31:1 vs_18_31:A 1.000000e-03
16 pgm_ln31:1 vs_17_31:A 1.000000e-03
17 pgm_ln31:1 vs_13_31:A 1.000000e-03
18 pgm_ln31:1 vs_1_31:A 1.000000e-03
*END

*D_NET pgm_ln32 1.064688e-01
*CONN
*I lt_ln32:Z O
*I vs_63_32:A I
*I vs_61_32:A I
*I vs_51_32:A I
*I vs_50_32:A I
*I vs_47_32:A I
*I vs_46_32:A I
*I vs_39_32:A I
*I vs_37_32:A I
*I vs_35_32:A I
*I vs_34_32:A I
*I vs_33_32:A I
*I vs_30_32:A I
*I vs_28_32:A I
*I vs_27_32:A I
*I vs_21_32:A I
*I vs_20_32:A I
*I vs_17_32:A I
*I vs_13_32:A I
*I vs_11_32:A I
*I vs_8_32:A I
*I vs_7_32:A I
*I vs_6_32:A I
*CAP
1 pgm_ln32:1 1.064688e-01
*RES
1 lt_ln32:Z pgm_ln32:1 1.199666e+02
2 pgm_ln32:1 vs_63_32:A 1.000000e-03
3 pgm_ln32:1 vs_61_32:A 1.000000e-03
4 pgm_ln32:1 vs_51_32:A 1.000000e-03
5 pgm_ln32:1 vs_50_32:A 1.000000e-03
6 pgm_ln32:1 vs_47_32:A 1.000000e-03
7 pgm_ln32:1 vs_46_32:A 1.000000e-03
8 pgm_ln32:1 vs_39_32:A 1.000000e-03
9 pgm_ln32:1 vs_37_32:A 1.000000e-03
10 pgm_ln32:1 vs_35_32:A 1.000000e-03
11 pgm_ln32:1 vs_34_32:A 1.000000e-03
12 pgm_ln32:1 vs_33_32:A 1.000000e-03
13 pgm_ln32:1 vs_30_32:A 1.000000e-03
14 pgm_ln32:1 vs_28_32:A 1.000000e-03
15 pgm_ln32:1 vs_27_32:A 1.000000e-03
16 pgm_ln32:1 vs_21_32:A 1.000000e-03
17 pgm_ln32:1 vs_20_32:A 1.000000e-03
18 pgm_ln32:1 vs_17_32:A 1.000000e-03
19 pgm_ln32:1 vs_13_32:A 1.000000e-03
20 pgm_ln32:1 vs_11_32:A 1.000000e-03
21 pgm_ln32:1 vs_8_32:A 1.000000e-03
22 pgm_ln32:1 vs_7_32:A 1.000000e-03
23 pgm_ln32:1 vs_6_32:A 1.000000e-03
*END

*D_NET pgm_ln33 1.001760e-01
*CONN
*I lt_ln33:Z O
*I vs_57_33:A I
*I vs_56_33:A I
*I vs_54_33:A I
*I vs_51_33:A I
*I vs_44_33:A I
*I vs_40_33:A I
*I vs_39_33:A I
*I vs_36_33:A I
*I vs_34_33:A I
*I vs_28_33:A I
*I vs_19_33:A I
*I vs_18_33:A I
*I vs_17_33:A I
*I vs_14_33:A I
*I vs_12_33:A I
*I vs_11_33:A I
*I vs_1_33:A I
*I vs_0_33:A I
*CAP
1 pgm_ln33:1 1.001760e-01
*RES
1 lt_ln33:Z pgm_ln33:1 1.136779e+02
2 pgm_ln33:1 vs_57_33:A 1.000000e-03
3 pgm_ln33:1 vs_56_33:A 1.000000e-03
4 pgm_ln33:1 vs_54_33:A 1.000000e-03
5 pgm_ln33:1 vs_51_33:A 1.000000e-03
6 pgm_ln33:1 vs_44_33:A 1.000000e-03
7 pgm_ln33:1 vs_40_33:A 1.000000e-03
8 pgm_ln33:1 vs_39_33:A 1.000000e-03
9 pgm_ln33:1 vs_36_33:A 1.000000e-03
10 pgm_ln33:1 vs_34_33:A 1.000000e-03
11 pgm_ln33:1 vs_28_33:A 1.000000e-03
12 pgm_ln33:1 vs_19_33:A 1.000000e-03
13 pgm_ln33:1 vs_18_33:A 1.000000e-03
14 pgm_ln33:1 vs_17_33:A 1.000000e-03
15 pgm_ln33:1 vs_14_33:A 1.000000e-03
16 pgm_ln33:1 vs_12_33:A 1.000000e-03
17 pgm_ln33:1 vs_11_33:A 1.000000e-03
18 pgm_ln33:1 vs_1_33:A 1.000000e-03
19 pgm_ln33:1 vs_0_33:A 1.000000e-03
*END

*D_NET pgm_ln34 9.558434e-02
*CONN
*I lt_ln34:Z O
*I vs_59_34:A I
*I vs_58_34:A I
*I vs_51_34:A I
*I vs_47_34:A I
*I vs_45_34:A I
*I vs_44_34:A I
*I vs_43_34:A I
*I vs_36_34:A I
*I vs_29_34:A I
*I vs_28_34:A I
*I vs_24_34:A I
*I vs_21_34:A I
*I vs_17_34:A I
*I vs_6_34:A I
*CAP
1 pgm_ln34:1 9.558434e-02
*RES
1 lt_ln34:Z pgm_ln34:1 1.076151e+02
2 pgm_ln34:1 vs_59_34:A 1.000000e-03
3 pgm_ln34:1 vs_58_34:A 1.000000e-03
4 pgm_ln34:1 vs_51_34:A 1.000000e-03
5 pgm_ln34:1 vs_47_34:A 1.000000e-03
6 pgm_ln34:1 vs_45_34:A 1.000000e-03
7 pgm_ln34:1 vs_44_34:A 1.000000e-03
8 pgm_ln34:1 vs_43_34:A 1.000000e-03
9 pgm_ln34:1 vs_36_34:A 1.000000e-03
10 pgm_ln34:1 vs_29_34:A 1.000000e-03
11 pgm_ln34:1 vs_28_34:A 1.000000e-03
12 pgm_ln34:1 vs_24_34:A 1.000000e-03
13 pgm_ln34:1 vs_21_34:A 1.000000e-03
14 pgm_ln34:1 vs_17_34:A 1.000000e-03
15 pgm_ln34:1 vs_6_34:A 1.000000e-03
*END

*D_NET pgm_ln35 1.052239e-01
*CONN
*I lt_ln35:Z O
*I vs_61_35:A I
*I vs_59_35:A I
*I vs_52_35:A I
*I vs_50_35:A I
*I vs_40_35:A I
*I vs_37_35:A I
*I vs_36_35:A I
*I vs_27_35:A I
*I vs_23_35:A I
*I vs_16_35:A I
*I vs_15_35:A I
*I vs_13_35:A I
*I vs_12_35:A I
*I vs_11_35:A I
*I vs_0_35:A I
*CAP
1 pgm_ln35:1 1.052239e-01
*RES
1 lt_ln35:Z pgm_ln35:1 1.174137e+02
2 pgm_ln35:1 vs_61_35:A 1.000000e-03
3 pgm_ln35:1 vs_59_35:A 1.000000e-03
4 pgm_ln35:1 vs_52_35:A 1.000000e-03
5 pgm_ln35:1 vs_50_35:A 1.000000e-03
6 pgm_ln35:1 vs_40_35:A 1.000000e-03
7 pgm_ln35:1 vs_37_35:A 1.000000e-03
8 pgm_ln35:1 vs_36_35:A 1.000000e-03
9 pgm_ln35:1 vs_27_35:A 1.000000e-03
10 pgm_ln35:1 vs_23_35:A 1.000000e-03
11 pgm_ln35:1 vs_16_35:A 1.000000e-03
12 pgm_ln35:1 vs_15_35:A 1.000000e-03
13 pgm_ln35:1 vs_13_35:A 1.000000e-03
14 pgm_ln35:1 vs_12_35:A 1.000000e-03
15 pgm_ln35:1 vs_11_35:A 1.000000e-03
16 pgm_ln35:1 vs_0_35:A 1.000000e-03
*END

*D_NET pgm_ln36 1.023745e-01
*CONN
*I lt_ln36:Z O
*I vs_58_36:A I
*I vs_54_36:A I
*I vs_52_36:A I
*I vs_45_36:A I
*I vs_39_36:A I
*I vs_36_36:A I
*I vs_34_36:A I
*I vs_31_36:A I
*I vs_29_36:A I
*I vs_28_36:A I
*I vs_27_36:A I
*I vs_25_36:A I
*I vs_22_36:A I
*I vs_21_36:A I
*I vs_18_36:A I
*I vs_12_36:A I
*I vs_10_36:A I
*I vs_9_36:A I
*I vs_7_36:A I
*I vs_2_36:A I
*I vs_1_36:A I
*I vs_0_36:A I
*CAP
1 pgm_ln36:1 1.023745e-01
*RES
1 lt_ln36:Z pgm_ln36:1 1.153205e+02
2 pgm_ln36:1 vs_58_36:A 1.000000e-03
3 pgm_ln36:1 vs_54_36:A 1.000000e-03
4 pgm_ln36:1 vs_52_36:A 1.000000e-03
5 pgm_ln36:1 vs_45_36:A 1.000000e-03
6 pgm_ln36:1 vs_39_36:A 1.000000e-03
7 pgm_ln36:1 vs_36_36:A 1.000000e-03
8 pgm_ln36:1 vs_34_36:A 1.000000e-03
9 pgm_ln36:1 vs_31_36:A 1.000000e-03
10 pgm_ln36:1 vs_29_36:A 1.000000e-03
11 pgm_ln36:1 vs_28_36:A 1.000000e-03
12 pgm_ln36:1 vs_27_36:A 1.000000e-03
13 pgm_ln36:1 vs_25_36:A 1.000000e-03
14 pgm_ln36:1 vs_22_36:A 1.000000e-03
15 pgm_ln36:1 vs_21_36:A 1.000000e-03
16 pgm_ln36:1 vs_18_36:A 1.000000e-03
17 pgm_ln36:1 vs_12_36:A 1.000000e-03
18 pgm_ln36:1 vs_10_36:A 1.000000e-03
19 pgm_ln36:1 vs_9_36:A 1.000000e-03
20 pgm_ln36:1 vs_7_36:A 1.000000e-03
21 pgm_ln36:1 vs_2_36:A 1.000000e-03
22 pgm_ln36:1 vs_1_36:A 1.000000e-03
23 pgm_ln36:1 vs_0_36:A 1.000000e-03
*END

*D_NET pgm_ln37 1.054238e-01
*CONN
*I lt_ln37:Z O
*I vs_61_37:A I
*I vs_51_37:A I
*I vs_47_37:A I
*I vs_44_37:A I
*I vs_31_37:A I
*I vs_27_37:A I
*I vs_25_37:A I
*I vs_22_37:A I
*I vs_19_37:A I
*I vs_18_37:A I
*I vs_17_37:A I
*I vs_15_37:A I
*I vs_14_37:A I
*I vs_13_37:A I
*I vs_10_37:A I
*I vs_5_37:A I
*I vs_1_37:A I
*I vs_0_37:A I
*CAP
1 pgm_ln37:1 1.054238e-01
*RES
1 lt_ln37:Z pgm_ln37:1 1.180724e+02
2 pgm_ln37:1 vs_61_37:A 1.000000e-03
3 pgm_ln37:1 vs_51_37:A 1.000000e-03
4 pgm_ln37:1 vs_47_37:A 1.000000e-03
5 pgm_ln37:1 vs_44_37:A 1.000000e-03
6 pgm_ln37:1 vs_31_37:A 1.000000e-03
7 pgm_ln37:1 vs_27_37:A 1.000000e-03
8 pgm_ln37:1 vs_25_37:A 1.000000e-03
9 pgm_ln37:1 vs_22_37:A 1.000000e-03
10 pgm_ln37:1 vs_19_37:A 1.000000e-03
11 pgm_ln37:1 vs_18_37:A 1.000000e-03
12 pgm_ln37:1 vs_17_37:A 1.000000e-03
13 pgm_ln37:1 vs_15_37:A 1.000000e-03
14 pgm_ln37:1 vs_14_37:A 1.000000e-03
15 pgm_ln37:1 vs_13_37:A 1.000000e-03
16 pgm_ln37:1 vs_10_37:A 1.000000e-03
17 pgm_ln37:1 vs_5_37:A 1.000000e-03
18 pgm_ln37:1 vs_1_37:A 1.000000e-03
19 pgm_ln37:1 vs_0_37:A 1.000000e-03
*END

*D_NET pgm_ln38 8.679664e-02
*CONN
*I lt_ln38:Z O
*I vs_50_38:A I
*I vs_49_38:A I
*I vs_45_38:A I
*I vs_38_38:A I
*I vs_35_38:A I
*I vs_34_38:A I
*I vs_33_38:A I
*I vs_31_38:A I
*I vs_30_38:A I
*I vs_24_38:A I
*I vs_23_38:A I
*I vs_22_38:A I
*I vs_16_38:A I
*I vs_14_38:A I
*I vs_8_38:A I
*I vs_4_38:A I
*I vs_1_38:A I
*CAP
1 pgm_ln38:1 8.679664e-02
*RES
1 lt_ln38:Z pgm_ln38:1 9.512998e+01
2 pgm_ln38:1 vs_50_38:A 1.000000e-03
3 pgm_ln38:1 vs_49_38:A 1.000000e-03
4 pgm_ln38:1 vs_45_38:A 1.000000e-03
5 pgm_ln38:1 vs_38_38:A 1.000000e-03
6 pgm_ln38:1 vs_35_38:A 1.000000e-03
7 pgm_ln38:1 vs_34_38:A 1.000000e-03
8 pgm_ln38:1 vs_33_38:A 1.000000e-03
9 pgm_ln38:1 vs_31_38:A 1.000000e-03
10 pgm_ln38:1 vs_30_38:A 1.000000e-03
11 pgm_ln38:1 vs_24_38:A 1.000000e-03
12 pgm_ln38:1 vs_23_38:A 1.000000e-03
13 pgm_ln38:1 vs_22_38:A 1.000000e-03
14 pgm_ln38:1 vs_16_38:A 1.000000e-03
15 pgm_ln38:1 vs_14_38:A 1.000000e-03
16 pgm_ln38:1 vs_8_38:A 1.000000e-03
17 pgm_ln38:1 vs_4_38:A 1.000000e-03
18 pgm_ln38:1 vs_1_38:A 1.000000e-03
*END

*D_NET pgm_ln39 1.051011e-01
*CONN
*I lt_ln39:Z O
*I vs_62_39:A I
*I vs_61_39:A I
*I vs_60_39:A I
*I vs_59_39:A I
*I vs_49_39:A I
*I vs_48_39:A I
*I vs_47_39:A I
*I vs_45_39:A I
*I vs_41_39:A I
*I vs_37_39:A I
*I vs_26_39:A I
*I vs_23_39:A I
*I vs_20_39:A I
*I vs_13_39:A I
*I vs_5_39:A I
*CAP
1 pgm_ln39:1 1.051011e-01
*RES
1 lt_ln39:Z pgm_ln39:1 1.168540e+02
2 pgm_ln39:1 vs_62_39:A 1.000000e-03
3 pgm_ln39:1 vs_61_39:A 1.000000e-03
4 pgm_ln39:1 vs_60_39:A 1.000000e-03
5 pgm_ln39:1 vs_59_39:A 1.000000e-03
6 pgm_ln39:1 vs_49_39:A 1.000000e-03
7 pgm_ln39:1 vs_48_39:A 1.000000e-03
8 pgm_ln39:1 vs_47_39:A 1.000000e-03
9 pgm_ln39:1 vs_45_39:A 1.000000e-03
10 pgm_ln39:1 vs_41_39:A 1.000000e-03
11 pgm_ln39:1 vs_37_39:A 1.000000e-03
12 pgm_ln39:1 vs_26_39:A 1.000000e-03
13 pgm_ln39:1 vs_23_39:A 1.000000e-03
14 pgm_ln39:1 vs_20_39:A 1.000000e-03
15 pgm_ln39:1 vs_13_39:A 1.000000e-03
16 pgm_ln39:1 vs_5_39:A 1.000000e-03
*END

*D_NET pgm_ln4 9.846957e-02
*CONN
*I lt_ln4:Z O
*I vs_59_4:A I
*I vs_54_4:A I
*I vs_53_4:A I
*I vs_51_4:A I
*I vs_47_4:A I
*I vs_44_4:A I
*I vs_42_4:A I
*I vs_41_4:A I
*I vs_39_4:A I
*I vs_37_4:A I
*I vs_34_4:A I
*I vs_28_4:A I
*I vs_24_4:A I
*I vs_21_4:A I
*I vs_14_4:A I
*I vs_13_4:A I
*I vs_11_4:A I
*I vs_10_4:A I
*I vs_5_4:A I
*I vs_0_4:A I
*CAP
1 pgm_ln4:1 9.846957e-02
*RES
1 lt_ln4:Z pgm_ln4:1 1.117415e+02
2 pgm_ln4:1 vs_59_4:A 1.000000e-03
3 pgm_ln4:1 vs_54_4:A 1.000000e-03
4 pgm_ln4:1 vs_53_4:A 1.000000e-03
5 pgm_ln4:1 vs_51_4:A 1.000000e-03
6 pgm_ln4:1 vs_47_4:A 1.000000e-03
7 pgm_ln4:1 vs_44_4:A 1.000000e-03
8 pgm_ln4:1 vs_42_4:A 1.000000e-03
9 pgm_ln4:1 vs_41_4:A 1.000000e-03
10 pgm_ln4:1 vs_39_4:A 1.000000e-03
11 pgm_ln4:1 vs_37_4:A 1.000000e-03
12 pgm_ln4:1 vs_34_4:A 1.000000e-03
13 pgm_ln4:1 vs_28_4:A 1.000000e-03
14 pgm_ln4:1 vs_24_4:A 1.000000e-03
15 pgm_ln4:1 vs_21_4:A 1.000000e-03
16 pgm_ln4:1 vs_14_4:A 1.000000e-03
17 pgm_ln4:1 vs_13_4:A 1.000000e-03
18 pgm_ln4:1 vs_11_4:A 1.000000e-03
19 pgm_ln4:1 vs_10_4:A 1.000000e-03
20 pgm_ln4:1 vs_5_4:A 1.000000e-03
21 pgm_ln4:1 vs_0_4:A 1.000000e-03
*END

*D_NET pgm_ln40 1.063500e-01
*CONN
*I lt_ln40:Z O
*I vs_63_40:A I
*I vs_60_40:A I
*I vs_58_40:A I
*I vs_56_40:A I
*I vs_55_40:A I
*I vs_54_40:A I
*I vs_53_40:A I
*I vs_51_40:A I
*I vs_49_40:A I
*I vs_47_40:A I
*I vs_45_40:A I
*I vs_44_40:A I
*I vs_43_40:A I
*I vs_41_40:A I
*I vs_39_40:A I
*I vs_26_40:A I
*I vs_25_40:A I
*I vs_22_40:A I
*I vs_19_40:A I
*I vs_18_40:A I
*I vs_15_40:A I
*I vs_13_40:A I
*I vs_11_40:A I
*I vs_9_40:A I
*I vs_7_40:A I
*I vs_4_40:A I
*I vs_0_40:A I
*CAP
1 pgm_ln40:1 1.063500e-01
*RES
1 lt_ln40:Z pgm_ln40:1 1.206841e+02
2 pgm_ln40:1 vs_63_40:A 1.000000e-03
3 pgm_ln40:1 vs_60_40:A 1.000000e-03
4 pgm_ln40:1 vs_58_40:A 1.000000e-03
5 pgm_ln40:1 vs_56_40:A 1.000000e-03
6 pgm_ln40:1 vs_55_40:A 1.000000e-03
7 pgm_ln40:1 vs_54_40:A 1.000000e-03
8 pgm_ln40:1 vs_53_40:A 1.000000e-03
9 pgm_ln40:1 vs_51_40:A 1.000000e-03
10 pgm_ln40:1 vs_49_40:A 1.000000e-03
11 pgm_ln40:1 vs_47_40:A 1.000000e-03
12 pgm_ln40:1 vs_45_40:A 1.000000e-03
13 pgm_ln40:1 vs_44_40:A 1.000000e-03
14 pgm_ln40:1 vs_43_40:A 1.000000e-03
15 pgm_ln40:1 vs_41_40:A 1.000000e-03
16 pgm_ln40:1 vs_39_40:A 1.000000e-03
17 pgm_ln40:1 vs_26_40:A 1.000000e-03
18 pgm_ln40:1 vs_25_40:A 1.000000e-03
19 pgm_ln40:1 vs_22_40:A 1.000000e-03
20 pgm_ln40:1 vs_19_40:A 1.000000e-03
21 pgm_ln40:1 vs_18_40:A 1.000000e-03
22 pgm_ln40:1 vs_15_40:A 1.000000e-03
23 pgm_ln40:1 vs_13_40:A 1.000000e-03
24 pgm_ln40:1 vs_11_40:A 1.000000e-03
25 pgm_ln40:1 vs_9_40:A 1.000000e-03
26 pgm_ln40:1 vs_7_40:A 1.000000e-03
27 pgm_ln40:1 vs_4_40:A 1.000000e-03
28 pgm_ln40:1 vs_0_40:A 1.000000e-03
*END

*D_NET pgm_ln41 1.070166e-01
*CONN
*I lt_ln41:Z O
*I vs_60_41:A I
*I vs_58_41:A I
*I vs_56_41:A I
*I vs_51_41:A I
*I vs_48_41:A I
*I vs_46_41:A I
*I vs_45_41:A I
*I vs_35_41:A I
*I vs_28_41:A I
*I vs_25_41:A I
*I vs_21_41:A I
*I vs_19_41:A I
*I vs_14_41:A I
*I vs_12_41:A I
*I vs_9_41:A I
*I vs_2_41:A I
*CAP
1 pgm_ln41:1 1.070166e-01
*RES
1 lt_ln41:Z pgm_ln41:1 1.214405e+02
2 pgm_ln41:1 vs_60_41:A 1.000000e-03
3 pgm_ln41:1 vs_58_41:A 1.000000e-03
4 pgm_ln41:1 vs_56_41:A 1.000000e-03
5 pgm_ln41:1 vs_51_41:A 1.000000e-03
6 pgm_ln41:1 vs_48_41:A 1.000000e-03
7 pgm_ln41:1 vs_46_41:A 1.000000e-03
8 pgm_ln41:1 vs_45_41:A 1.000000e-03
9 pgm_ln41:1 vs_35_41:A 1.000000e-03
10 pgm_ln41:1 vs_28_41:A 1.000000e-03
11 pgm_ln41:1 vs_25_41:A 1.000000e-03
12 pgm_ln41:1 vs_21_41:A 1.000000e-03
13 pgm_ln41:1 vs_19_41:A 1.000000e-03
14 pgm_ln41:1 vs_14_41:A 1.000000e-03
15 pgm_ln41:1 vs_12_41:A 1.000000e-03
16 pgm_ln41:1 vs_9_41:A 1.000000e-03
17 pgm_ln41:1 vs_2_41:A 1.000000e-03
*END

*D_NET pgm_ln42 1.107612e-01
*CONN
*I lt_ln42:Z O
*I vs_63_42:A I
*I vs_62_42:A I
*I vs_61_42:A I
*I vs_60_42:A I
*I vs_55_42:A I
*I vs_48_42:A I
*I vs_47_42:A I
*I vs_44_42:A I
*I vs_42_42:A I
*I vs_41_42:A I
*I vs_40_42:A I
*I vs_21_42:A I
*I vs_19_42:A I
*I vs_18_42:A I
*I vs_17_42:A I
*I vs_16_42:A I
*I vs_14_42:A I
*I vs_12_42:A I
*I vs_7_42:A I
*I vs_1_42:A I
*I vs_0_42:A I
*CAP
1 pgm_ln42:1 1.107612e-01
*RES
1 lt_ln42:Z pgm_ln42:1 1.256899e+02
2 pgm_ln42:1 vs_63_42:A 1.000000e-03
3 pgm_ln42:1 vs_62_42:A 1.000000e-03
4 pgm_ln42:1 vs_61_42:A 1.000000e-03
5 pgm_ln42:1 vs_60_42:A 1.000000e-03
6 pgm_ln42:1 vs_55_42:A 1.000000e-03
7 pgm_ln42:1 vs_48_42:A 1.000000e-03
8 pgm_ln42:1 vs_47_42:A 1.000000e-03
9 pgm_ln42:1 vs_44_42:A 1.000000e-03
10 pgm_ln42:1 vs_42_42:A 1.000000e-03
11 pgm_ln42:1 vs_41_42:A 1.000000e-03
12 pgm_ln42:1 vs_40_42:A 1.000000e-03
13 pgm_ln42:1 vs_21_42:A 1.000000e-03
14 pgm_ln42:1 vs_19_42:A 1.000000e-03
15 pgm_ln42:1 vs_18_42:A 1.000000e-03
16 pgm_ln42:1 vs_17_42:A 1.000000e-03
17 pgm_ln42:1 vs_16_42:A 1.000000e-03
18 pgm_ln42:1 vs_14_42:A 1.000000e-03
19 pgm_ln42:1 vs_12_42:A 1.000000e-03
20 pgm_ln42:1 vs_7_42:A 1.000000e-03
21 pgm_ln42:1 vs_1_42:A 1.000000e-03
22 pgm_ln42:1 vs_0_42:A 1.000000e-03
*END

*D_NET pgm_ln43 1.044127e-01
*CONN
*I lt_ln43:Z O
*I vs_60_43:A I
*I vs_59_43:A I
*I vs_58_43:A I
*I vs_55_43:A I
*I vs_53_43:A I
*I vs_52_43:A I
*I vs_47_43:A I
*I vs_46_43:A I
*I vs_44_43:A I
*I vs_43_43:A I
*I vs_37_43:A I
*I vs_34_43:A I
*I vs_27_43:A I
*I vs_25_43:A I
*I vs_18_43:A I
*I vs_16_43:A I
*I vs_11_43:A I
*I vs_10_43:A I
*I vs_9_43:A I
*I vs_1_43:A I
*CAP
1 pgm_ln43:1 1.044127e-01
*RES
1 lt_ln43:Z pgm_ln43:1 1.172453e+02
2 pgm_ln43:1 vs_60_43:A 1.000000e-03
3 pgm_ln43:1 vs_59_43:A 1.000000e-03
4 pgm_ln43:1 vs_58_43:A 1.000000e-03
5 pgm_ln43:1 vs_55_43:A 1.000000e-03
6 pgm_ln43:1 vs_53_43:A 1.000000e-03
7 pgm_ln43:1 vs_52_43:A 1.000000e-03
8 pgm_ln43:1 vs_47_43:A 1.000000e-03
9 pgm_ln43:1 vs_46_43:A 1.000000e-03
10 pgm_ln43:1 vs_44_43:A 1.000000e-03
11 pgm_ln43:1 vs_43_43:A 1.000000e-03
12 pgm_ln43:1 vs_37_43:A 1.000000e-03
13 pgm_ln43:1 vs_34_43:A 1.000000e-03
14 pgm_ln43:1 vs_27_43:A 1.000000e-03
15 pgm_ln43:1 vs_25_43:A 1.000000e-03
16 pgm_ln43:1 vs_18_43:A 1.000000e-03
17 pgm_ln43:1 vs_16_43:A 1.000000e-03
18 pgm_ln43:1 vs_11_43:A 1.000000e-03
19 pgm_ln43:1 vs_10_43:A 1.000000e-03
20 pgm_ln43:1 vs_9_43:A 1.000000e-03
21 pgm_ln43:1 vs_1_43:A 1.000000e-03
*END

*D_NET pgm_ln44 1.048450e-01
*CONN
*I lt_ln44:Z O
*I vs_63_44:A I
*I vs_58_44:A I
*I vs_57_44:A I
*I vs_49_44:A I
*I vs_45_44:A I
*I vs_44_44:A I
*I vs_42_44:A I
*I vs_36_44:A I
*I vs_35_44:A I
*I vs_34_44:A I
*I vs_33_44:A I
*I vs_31_44:A I
*I vs_30_44:A I
*I vs_29_44:A I
*I vs_27_44:A I
*I vs_19_44:A I
*I vs_12_44:A I
*I vs_10_44:A I
*I vs_7_44:A I
*I vs_6_44:A I
*I vs_4_44:A I
*I vs_3_44:A I
*I vs_1_44:A I
*CAP
1 pgm_ln44:1 1.048450e-01
*RES
1 lt_ln44:Z pgm_ln44:1 1.189762e+02
2 pgm_ln44:1 vs_63_44:A 1.000000e-03
3 pgm_ln44:1 vs_58_44:A 1.000000e-03
4 pgm_ln44:1 vs_57_44:A 1.000000e-03
5 pgm_ln44:1 vs_49_44:A 1.000000e-03
6 pgm_ln44:1 vs_45_44:A 1.000000e-03
7 pgm_ln44:1 vs_44_44:A 1.000000e-03
8 pgm_ln44:1 vs_42_44:A 1.000000e-03
9 pgm_ln44:1 vs_36_44:A 1.000000e-03
10 pgm_ln44:1 vs_35_44:A 1.000000e-03
11 pgm_ln44:1 vs_34_44:A 1.000000e-03
12 pgm_ln44:1 vs_33_44:A 1.000000e-03
13 pgm_ln44:1 vs_31_44:A 1.000000e-03
14 pgm_ln44:1 vs_30_44:A 1.000000e-03
15 pgm_ln44:1 vs_29_44:A 1.000000e-03
16 pgm_ln44:1 vs_27_44:A 1.000000e-03
17 pgm_ln44:1 vs_19_44:A 1.000000e-03
18 pgm_ln44:1 vs_12_44:A 1.000000e-03
19 pgm_ln44:1 vs_10_44:A 1.000000e-03
20 pgm_ln44:1 vs_7_44:A 1.000000e-03
21 pgm_ln44:1 vs_6_44:A 1.000000e-03
22 pgm_ln44:1 vs_4_44:A 1.000000e-03
23 pgm_ln44:1 vs_3_44:A 1.000000e-03
24 pgm_ln44:1 vs_1_44:A 1.000000e-03
*END

*D_NET pgm_ln45 1.077659e-01
*CONN
*I lt_ln45:Z O
*I vs_62_45:A I
*I vs_58_45:A I
*I vs_56_45:A I
*I vs_55_45:A I
*I vs_54_45:A I
*I vs_53_45:A I
*I vs_50_45:A I
*I vs_49_45:A I
*I vs_45_45:A I
*I vs_44_45:A I
*I vs_42_45:A I
*I vs_41_45:A I
*I vs_35_45:A I
*I vs_31_45:A I
*I vs_25_45:A I
*I vs_19_45:A I
*I vs_18_45:A I
*I vs_17_45:A I
*I vs_16_45:A I
*I vs_12_45:A I
*I vs_4_45:A I
*I vs_2_45:A I
*CAP
1 pgm_ln45:1 1.077659e-01
*RES
1 lt_ln45:Z pgm_ln45:1 1.212946e+02
2 pgm_ln45:1 vs_62_45:A 1.000000e-03
3 pgm_ln45:1 vs_58_45:A 1.000000e-03
4 pgm_ln45:1 vs_56_45:A 1.000000e-03
5 pgm_ln45:1 vs_55_45:A 1.000000e-03
6 pgm_ln45:1 vs_54_45:A 1.000000e-03
7 pgm_ln45:1 vs_53_45:A 1.000000e-03
8 pgm_ln45:1 vs_50_45:A 1.000000e-03
9 pgm_ln45:1 vs_49_45:A 1.000000e-03
10 pgm_ln45:1 vs_45_45:A 1.000000e-03
11 pgm_ln45:1 vs_44_45:A 1.000000e-03
12 pgm_ln45:1 vs_42_45:A 1.000000e-03
13 pgm_ln45:1 vs_41_45:A 1.000000e-03
14 pgm_ln45:1 vs_35_45:A 1.000000e-03
15 pgm_ln45:1 vs_31_45:A 1.000000e-03
16 pgm_ln45:1 vs_25_45:A 1.000000e-03
17 pgm_ln45:1 vs_19_45:A 1.000000e-03
18 pgm_ln45:1 vs_18_45:A 1.000000e-03
19 pgm_ln45:1 vs_17_45:A 1.000000e-03
20 pgm_ln45:1 vs_16_45:A 1.000000e-03
21 pgm_ln45:1 vs_12_45:A 1.000000e-03
22 pgm_ln45:1 vs_4_45:A 1.000000e-03
23 pgm_ln45:1 vs_2_45:A 1.000000e-03
*END

*D_NET pgm_ln46 1.092059e-01
*CONN
*I lt_ln46:Z O
*I vs_62_46:A I
*I vs_59_46:A I
*I vs_56_46:A I
*I vs_54_46:A I
*I vs_52_46:A I
*I vs_47_46:A I
*I vs_45_46:A I
*I vs_44_46:A I
*I vs_42_46:A I
*I vs_39_46:A I
*I vs_35_46:A I
*I vs_34_46:A I
*I vs_28_46:A I
*I vs_26_46:A I
*I vs_25_46:A I
*I vs_21_46:A I
*I vs_17_46:A I
*I vs_15_46:A I
*I vs_14_46:A I
*I vs_11_46:A I
*I vs_9_46:A I
*I vs_6_46:A I
*I vs_3_46:A I
*I vs_1_46:A I
*CAP
1 pgm_ln46:1 1.092059e-01
*RES
1 lt_ln46:Z pgm_ln46:1 1.239249e+02
2 pgm_ln46:1 vs_62_46:A 1.000000e-03
3 pgm_ln46:1 vs_59_46:A 1.000000e-03
4 pgm_ln46:1 vs_56_46:A 1.000000e-03
5 pgm_ln46:1 vs_54_46:A 1.000000e-03
6 pgm_ln46:1 vs_52_46:A 1.000000e-03
7 pgm_ln46:1 vs_47_46:A 1.000000e-03
8 pgm_ln46:1 vs_45_46:A 1.000000e-03
9 pgm_ln46:1 vs_44_46:A 1.000000e-03
10 pgm_ln46:1 vs_42_46:A 1.000000e-03
11 pgm_ln46:1 vs_39_46:A 1.000000e-03
12 pgm_ln46:1 vs_35_46:A 1.000000e-03
13 pgm_ln46:1 vs_34_46:A 1.000000e-03
14 pgm_ln46:1 vs_28_46:A 1.000000e-03
15 pgm_ln46:1 vs_26_46:A 1.000000e-03
16 pgm_ln46:1 vs_25_46:A 1.000000e-03
17 pgm_ln46:1 vs_21_46:A 1.000000e-03
18 pgm_ln46:1 vs_17_46:A 1.000000e-03
19 pgm_ln46:1 vs_15_46:A 1.000000e-03
20 pgm_ln46:1 vs_14_46:A 1.000000e-03
21 pgm_ln46:1 vs_11_46:A 1.000000e-03
22 pgm_ln46:1 vs_9_46:A 1.000000e-03
23 pgm_ln46:1 vs_6_46:A 1.000000e-03
24 pgm_ln46:1 vs_3_46:A 1.000000e-03
25 pgm_ln46:1 vs_1_46:A 1.000000e-03
*END

*D_NET pgm_ln47 9.073848e-02
*CONN
*I lt_ln47:Z O
*I vs_55_47:A I
*I vs_51_47:A I
*I vs_49_47:A I
*I vs_46_47:A I
*I vs_43_47:A I
*I vs_41_47:A I
*I vs_40_47:A I
*I vs_39_47:A I
*I vs_37_47:A I
*I vs_34_47:A I
*I vs_23_47:A I
*I vs_22_47:A I
*I vs_4_47:A I
*I vs_2_47:A I
*CAP
1 pgm_ln47:1 9.073848e-02
*RES
1 lt_ln47:Z pgm_ln47:1 1.024041e+02
2 pgm_ln47:1 vs_55_47:A 1.000000e-03
3 pgm_ln47:1 vs_51_47:A 1.000000e-03
4 pgm_ln47:1 vs_49_47:A 1.000000e-03
5 pgm_ln47:1 vs_46_47:A 1.000000e-03
6 pgm_ln47:1 vs_43_47:A 1.000000e-03
7 pgm_ln47:1 vs_41_47:A 1.000000e-03
8 pgm_ln47:1 vs_40_47:A 1.000000e-03
9 pgm_ln47:1 vs_39_47:A 1.000000e-03
10 pgm_ln47:1 vs_37_47:A 1.000000e-03
11 pgm_ln47:1 vs_34_47:A 1.000000e-03
12 pgm_ln47:1 vs_23_47:A 1.000000e-03
13 pgm_ln47:1 vs_22_47:A 1.000000e-03
14 pgm_ln47:1 vs_4_47:A 1.000000e-03
15 pgm_ln47:1 vs_2_47:A 1.000000e-03
*END

*D_NET pgm_ln48 1.087554e-01
*CONN
*I lt_ln48:Z O
*I vs_63_48:A I
*I vs_59_48:A I
*I vs_56_48:A I
*I vs_54_48:A I
*I vs_53_48:A I
*I vs_50_48:A I
*I vs_49_48:A I
*I vs_44_48:A I
*I vs_43_48:A I
*I vs_38_48:A I
*I vs_28_48:A I
*I vs_26_48:A I
*I vs_25_48:A I
*I vs_21_48:A I
*I vs_20_48:A I
*I vs_19_48:A I
*I vs_8_48:A I
*I vs_3_48:A I
*CAP
1 pgm_ln48:1 1.087554e-01
*RES
1 lt_ln48:Z pgm_ln48:1 1.224175e+02
2 pgm_ln48:1 vs_63_48:A 1.000000e-03
3 pgm_ln48:1 vs_59_48:A 1.000000e-03
4 pgm_ln48:1 vs_56_48:A 1.000000e-03
5 pgm_ln48:1 vs_54_48:A 1.000000e-03
6 pgm_ln48:1 vs_53_48:A 1.000000e-03
7 pgm_ln48:1 vs_50_48:A 1.000000e-03
8 pgm_ln48:1 vs_49_48:A 1.000000e-03
9 pgm_ln48:1 vs_44_48:A 1.000000e-03
10 pgm_ln48:1 vs_43_48:A 1.000000e-03
11 pgm_ln48:1 vs_38_48:A 1.000000e-03
12 pgm_ln48:1 vs_28_48:A 1.000000e-03
13 pgm_ln48:1 vs_26_48:A 1.000000e-03
14 pgm_ln48:1 vs_25_48:A 1.000000e-03
15 pgm_ln48:1 vs_21_48:A 1.000000e-03
16 pgm_ln48:1 vs_20_48:A 1.000000e-03
17 pgm_ln48:1 vs_19_48:A 1.000000e-03
18 pgm_ln48:1 vs_8_48:A 1.000000e-03
19 pgm_ln48:1 vs_3_48:A 1.000000e-03
*END

*D_NET pgm_ln49 1.056490e-01
*CONN
*I lt_ln49:Z O
*I vs_62_49:A I
*I vs_56_49:A I
*I vs_49_49:A I
*I vs_48_49:A I
*I vs_34_49:A I
*I vs_30_49:A I
*I vs_29_49:A I
*I vs_22_49:A I
*I vs_17_49:A I
*I vs_15_49:A I
*I vs_14_49:A I
*I vs_12_49:A I
*I vs_8_49:A I
*I vs_6_49:A I
*I vs_1_49:A I
*CAP
1 pgm_ln49:1 1.056490e-01
*RES
1 lt_ln49:Z pgm_ln49:1 1.185480e+02
2 pgm_ln49:1 vs_62_49:A 1.000000e-03
3 pgm_ln49:1 vs_56_49:A 1.000000e-03
4 pgm_ln49:1 vs_49_49:A 1.000000e-03
5 pgm_ln49:1 vs_48_49:A 1.000000e-03
6 pgm_ln49:1 vs_34_49:A 1.000000e-03
7 pgm_ln49:1 vs_30_49:A 1.000000e-03
8 pgm_ln49:1 vs_29_49:A 1.000000e-03
9 pgm_ln49:1 vs_22_49:A 1.000000e-03
10 pgm_ln49:1 vs_17_49:A 1.000000e-03
11 pgm_ln49:1 vs_15_49:A 1.000000e-03
12 pgm_ln49:1 vs_14_49:A 1.000000e-03
13 pgm_ln49:1 vs_12_49:A 1.000000e-03
14 pgm_ln49:1 vs_8_49:A 1.000000e-03
15 pgm_ln49:1 vs_6_49:A 1.000000e-03
16 pgm_ln49:1 vs_1_49:A 1.000000e-03
*END

*D_NET pgm_ln5 1.100360e-01
*CONN
*I lt_ln5:Z O
*I vs_61_5:A I
*I vs_59_5:A I
*I vs_56_5:A I
*I vs_53_5:A I
*I vs_52_5:A I
*I vs_49_5:A I
*I vs_48_5:A I
*I vs_47_5:A I
*I vs_44_5:A I
*I vs_41_5:A I
*I vs_35_5:A I
*I vs_34_5:A I
*I vs_31_5:A I
*I vs_30_5:A I
*I vs_25_5:A I
*I vs_24_5:A I
*I vs_22_5:A I
*I vs_21_5:A I
*I vs_9_5:A I
*I vs_8_5:A I
*I vs_7_5:A I
*I vs_6_5:A I
*I vs_4_5:A I
*I vs_3_5:A I
*I vs_0_5:A I
*CAP
1 pgm_ln5:1 1.100360e-01
*RES
1 lt_ln5:Z pgm_ln5:1 1.231623e+02
2 pgm_ln5:1 vs_61_5:A 1.000000e-03
3 pgm_ln5:1 vs_59_5:A 1.000000e-03
4 pgm_ln5:1 vs_56_5:A 1.000000e-03
5 pgm_ln5:1 vs_53_5:A 1.000000e-03
6 pgm_ln5:1 vs_52_5:A 1.000000e-03
7 pgm_ln5:1 vs_49_5:A 1.000000e-03
8 pgm_ln5:1 vs_48_5:A 1.000000e-03
9 pgm_ln5:1 vs_47_5:A 1.000000e-03
10 pgm_ln5:1 vs_44_5:A 1.000000e-03
11 pgm_ln5:1 vs_41_5:A 1.000000e-03
12 pgm_ln5:1 vs_35_5:A 1.000000e-03
13 pgm_ln5:1 vs_34_5:A 1.000000e-03
14 pgm_ln5:1 vs_31_5:A 1.000000e-03
15 pgm_ln5:1 vs_30_5:A 1.000000e-03
16 pgm_ln5:1 vs_25_5:A 1.000000e-03
17 pgm_ln5:1 vs_24_5:A 1.000000e-03
18 pgm_ln5:1 vs_22_5:A 1.000000e-03
19 pgm_ln5:1 vs_21_5:A 1.000000e-03
20 pgm_ln5:1 vs_9_5:A 1.000000e-03
21 pgm_ln5:1 vs_8_5:A 1.000000e-03
22 pgm_ln5:1 vs_7_5:A 1.000000e-03
23 pgm_ln5:1 vs_6_5:A 1.000000e-03
24 pgm_ln5:1 vs_4_5:A 1.000000e-03
25 pgm_ln5:1 vs_3_5:A 1.000000e-03
26 pgm_ln5:1 vs_0_5:A 1.000000e-03
*END

*D_NET pgm_ln50 1.026652e-01
*CONN
*I lt_ln50:Z O
*I vs_61_50:A I
*I vs_60_50:A I
*I vs_59_50:A I
*I vs_56_50:A I
*I vs_54_50:A I
*I vs_51_50:A I
*I vs_47_50:A I
*I vs_45_50:A I
*I vs_43_50:A I
*I vs_40_50:A I
*I vs_30_50:A I
*I vs_28_50:A I
*I vs_22_50:A I
*I vs_20_50:A I
*I vs_14_50:A I
*I vs_7_50:A I
*I vs_5_50:A I
*I vs_4_50:A I
*I vs_3_50:A I
*I vs_1_50:A I
*CAP
1 pgm_ln50:1 1.026652e-01
*RES
1 lt_ln50:Z pgm_ln50:1 1.146300e+02
2 pgm_ln50:1 vs_61_50:A 1.000000e-03
3 pgm_ln50:1 vs_60_50:A 1.000000e-03
4 pgm_ln50:1 vs_59_50:A 1.000000e-03
5 pgm_ln50:1 vs_56_50:A 1.000000e-03
6 pgm_ln50:1 vs_54_50:A 1.000000e-03
7 pgm_ln50:1 vs_51_50:A 1.000000e-03
8 pgm_ln50:1 vs_47_50:A 1.000000e-03
9 pgm_ln50:1 vs_45_50:A 1.000000e-03
10 pgm_ln50:1 vs_43_50:A 1.000000e-03
11 pgm_ln50:1 vs_40_50:A 1.000000e-03
12 pgm_ln50:1 vs_30_50:A 1.000000e-03
13 pgm_ln50:1 vs_28_50:A 1.000000e-03
14 pgm_ln50:1 vs_22_50:A 1.000000e-03
15 pgm_ln50:1 vs_20_50:A 1.000000e-03
16 pgm_ln50:1 vs_14_50:A 1.000000e-03
17 pgm_ln50:1 vs_7_50:A 1.000000e-03
18 pgm_ln50:1 vs_5_50:A 1.000000e-03
19 pgm_ln50:1 vs_4_50:A 1.000000e-03
20 pgm_ln50:1 vs_3_50:A 1.000000e-03
21 pgm_ln50:1 vs_1_50:A 1.000000e-03
*END

*D_NET pgm_ln51 1.099384e-01
*CONN
*I lt_ln51:Z O
*I vs_63_51:A I
*I vs_62_51:A I
*I vs_60_51:A I
*I vs_55_51:A I
*I vs_54_51:A I
*I vs_51_51:A I
*I vs_46_51:A I
*I vs_44_51:A I
*I vs_37_51:A I
*I vs_35_51:A I
*I vs_33_51:A I
*I vs_28_51:A I
*I vs_27_51:A I
*I vs_26_51:A I
*I vs_22_51:A I
*I vs_20_51:A I
*I vs_19_51:A I
*I vs_17_51:A I
*I vs_16_51:A I
*I vs_12_51:A I
*I vs_11_51:A I
*I vs_7_51:A I
*I vs_5_51:A I
*I vs_4_51:A I
*I vs_3_51:A I
*I vs_2_51:A I
*I vs_0_51:A I
*CAP
1 pgm_ln51:1 1.099384e-01
*RES
1 lt_ln51:Z pgm_ln51:1 1.236597e+02
2 pgm_ln51:1 vs_63_51:A 1.000000e-03
3 pgm_ln51:1 vs_62_51:A 1.000000e-03
4 pgm_ln51:1 vs_60_51:A 1.000000e-03
5 pgm_ln51:1 vs_55_51:A 1.000000e-03
6 pgm_ln51:1 vs_54_51:A 1.000000e-03
7 pgm_ln51:1 vs_51_51:A 1.000000e-03
8 pgm_ln51:1 vs_46_51:A 1.000000e-03
9 pgm_ln51:1 vs_44_51:A 1.000000e-03
10 pgm_ln51:1 vs_37_51:A 1.000000e-03
11 pgm_ln51:1 vs_35_51:A 1.000000e-03
12 pgm_ln51:1 vs_33_51:A 1.000000e-03
13 pgm_ln51:1 vs_28_51:A 1.000000e-03
14 pgm_ln51:1 vs_27_51:A 1.000000e-03
15 pgm_ln51:1 vs_26_51:A 1.000000e-03
16 pgm_ln51:1 vs_22_51:A 1.000000e-03
17 pgm_ln51:1 vs_20_51:A 1.000000e-03
18 pgm_ln51:1 vs_19_51:A 1.000000e-03
19 pgm_ln51:1 vs_17_51:A 1.000000e-03
20 pgm_ln51:1 vs_16_51:A 1.000000e-03
21 pgm_ln51:1 vs_12_51:A 1.000000e-03
22 pgm_ln51:1 vs_11_51:A 1.000000e-03
23 pgm_ln51:1 vs_7_51:A 1.000000e-03
24 pgm_ln51:1 vs_5_51:A 1.000000e-03
25 pgm_ln51:1 vs_4_51:A 1.000000e-03
26 pgm_ln51:1 vs_3_51:A 1.000000e-03
27 pgm_ln51:1 vs_2_51:A 1.000000e-03
28 pgm_ln51:1 vs_0_51:A 1.000000e-03
*END

*D_NET pgm_ln52 7.860645e-02
*CONN
*I lt_ln52:Z O
*I vs_55_52:A I
*I vs_50_52:A I
*I vs_48_52:A I
*I vs_45_52:A I
*I vs_44_52:A I
*I vs_37_52:A I
*I vs_36_52:A I
*I vs_33_52:A I
*I vs_32_52:A I
*I vs_31_52:A I
*I vs_26_52:A I
*I vs_25_52:A I
*I vs_20_52:A I
*I vs_19_52:A I
*I vs_15_52:A I
*I vs_13_52:A I
*CAP
1 pgm_ln52:1 7.860645e-02
*RES
1 lt_ln52:Z pgm_ln52:1 8.586813e+01
2 pgm_ln52:1 vs_55_52:A 1.000000e-03
3 pgm_ln52:1 vs_50_52:A 1.000000e-03
4 pgm_ln52:1 vs_48_52:A 1.000000e-03
5 pgm_ln52:1 vs_45_52:A 1.000000e-03
6 pgm_ln52:1 vs_44_52:A 1.000000e-03
7 pgm_ln52:1 vs_37_52:A 1.000000e-03
8 pgm_ln52:1 vs_36_52:A 1.000000e-03
9 pgm_ln52:1 vs_33_52:A 1.000000e-03
10 pgm_ln52:1 vs_32_52:A 1.000000e-03
11 pgm_ln52:1 vs_31_52:A 1.000000e-03
12 pgm_ln52:1 vs_26_52:A 1.000000e-03
13 pgm_ln52:1 vs_25_52:A 1.000000e-03
14 pgm_ln52:1 vs_20_52:A 1.000000e-03
15 pgm_ln52:1 vs_19_52:A 1.000000e-03
16 pgm_ln52:1 vs_15_52:A 1.000000e-03
17 pgm_ln52:1 vs_13_52:A 1.000000e-03
*END

*D_NET pgm_ln53 1.053108e-01
*CONN
*I lt_ln53:Z O
*I vs_62_53:A I
*I vs_61_53:A I
*I vs_60_53:A I
*I vs_59_53:A I
*I vs_58_53:A I
*I vs_54_53:A I
*I vs_51_53:A I
*I vs_50_53:A I
*I vs_48_53:A I
*I vs_46_53:A I
*I vs_43_53:A I
*I vs_42_53:A I
*I vs_41_53:A I
*I vs_35_53:A I
*I vs_29_53:A I
*I vs_27_53:A I
*I vs_26_53:A I
*I vs_25_53:A I
*I vs_21_53:A I
*I vs_19_53:A I
*I vs_18_53:A I
*I vs_16_53:A I
*I vs_15_53:A I
*I vs_9_53:A I
*I vs_7_53:A I
*I vs_6_53:A I
*I vs_5_53:A I
*I vs_0_53:A I
*CAP
1 pgm_ln53:1 1.053108e-01
*RES
1 lt_ln53:Z pgm_ln53:1 1.180203e+02
2 pgm_ln53:1 vs_62_53:A 1.000000e-03
3 pgm_ln53:1 vs_61_53:A 1.000000e-03
4 pgm_ln53:1 vs_60_53:A 1.000000e-03
5 pgm_ln53:1 vs_59_53:A 1.000000e-03
6 pgm_ln53:1 vs_58_53:A 1.000000e-03
7 pgm_ln53:1 vs_54_53:A 1.000000e-03
8 pgm_ln53:1 vs_51_53:A 1.000000e-03
9 pgm_ln53:1 vs_50_53:A 1.000000e-03
10 pgm_ln53:1 vs_48_53:A 1.000000e-03
11 pgm_ln53:1 vs_46_53:A 1.000000e-03
12 pgm_ln53:1 vs_43_53:A 1.000000e-03
13 pgm_ln53:1 vs_42_53:A 1.000000e-03
14 pgm_ln53:1 vs_41_53:A 1.000000e-03
15 pgm_ln53:1 vs_35_53:A 1.000000e-03
16 pgm_ln53:1 vs_29_53:A 1.000000e-03
17 pgm_ln53:1 vs_27_53:A 1.000000e-03
18 pgm_ln53:1 vs_26_53:A 1.000000e-03
19 pgm_ln53:1 vs_25_53:A 1.000000e-03
20 pgm_ln53:1 vs_21_53:A 1.000000e-03
21 pgm_ln53:1 vs_19_53:A 1.000000e-03
22 pgm_ln53:1 vs_18_53:A 1.000000e-03
23 pgm_ln53:1 vs_16_53:A 1.000000e-03
24 pgm_ln53:1 vs_15_53:A 1.000000e-03
25 pgm_ln53:1 vs_9_53:A 1.000000e-03
26 pgm_ln53:1 vs_7_53:A 1.000000e-03
27 pgm_ln53:1 vs_6_53:A 1.000000e-03
28 pgm_ln53:1 vs_5_53:A 1.000000e-03
29 pgm_ln53:1 vs_0_53:A 1.000000e-03
*END

*D_NET pgm_ln54 8.055497e-02
*CONN
*I lt_ln54:Z O
*I vs_36_54:A I
*I vs_28_54:A I
*I vs_24_54:A I
*I vs_19_54:A I
*I vs_10_54:A I
*I vs_7_54:A I
*I vs_5_54:A I
*I vs_1_54:A I
*I vs_0_54:A I
*CAP
1 pgm_ln54:1 8.055497e-02
*RES
1 lt_ln54:Z pgm_ln54:1 9.141234e+01
2 pgm_ln54:1 vs_36_54:A 1.000000e-03
3 pgm_ln54:1 vs_28_54:A 1.000000e-03
4 pgm_ln54:1 vs_24_54:A 1.000000e-03
5 pgm_ln54:1 vs_19_54:A 1.000000e-03
6 pgm_ln54:1 vs_10_54:A 1.000000e-03
7 pgm_ln54:1 vs_7_54:A 1.000000e-03
8 pgm_ln54:1 vs_5_54:A 1.000000e-03
9 pgm_ln54:1 vs_1_54:A 1.000000e-03
10 pgm_ln54:1 vs_0_54:A 1.000000e-03
*END

*D_NET pgm_ln55 1.055714e-01
*CONN
*I lt_ln55:Z O
*I vs_62_55:A I
*I vs_60_55:A I
*I vs_55_55:A I
*I vs_50_55:A I
*I vs_44_55:A I
*I vs_43_55:A I
*I vs_38_55:A I
*I vs_35_55:A I
*I vs_27_55:A I
*I vs_16_55:A I
*I vs_14_55:A I
*I vs_10_55:A I
*I vs_5_55:A I
*I vs_2_55:A I
*CAP
1 pgm_ln55:1 1.055714e-01
*RES
1 lt_ln55:Z pgm_ln55:1 1.180844e+02
2 pgm_ln55:1 vs_62_55:A 1.000000e-03
3 pgm_ln55:1 vs_60_55:A 1.000000e-03
4 pgm_ln55:1 vs_55_55:A 1.000000e-03
5 pgm_ln55:1 vs_50_55:A 1.000000e-03
6 pgm_ln55:1 vs_44_55:A 1.000000e-03
7 pgm_ln55:1 vs_43_55:A 1.000000e-03
8 pgm_ln55:1 vs_38_55:A 1.000000e-03
9 pgm_ln55:1 vs_35_55:A 1.000000e-03
10 pgm_ln55:1 vs_27_55:A 1.000000e-03
11 pgm_ln55:1 vs_16_55:A 1.000000e-03
12 pgm_ln55:1 vs_14_55:A 1.000000e-03
13 pgm_ln55:1 vs_10_55:A 1.000000e-03
14 pgm_ln55:1 vs_5_55:A 1.000000e-03
15 pgm_ln55:1 vs_2_55:A 1.000000e-03
*END

*D_NET pgm_ln56 9.930501e-02
*CONN
*I lt_ln56:Z O
*I vs_60_56:A I
*I vs_59_56:A I
*I vs_57_56:A I
*I vs_52_56:A I
*I vs_50_56:A I
*I vs_47_56:A I
*I vs_44_56:A I
*I vs_41_56:A I
*I vs_33_56:A I
*I vs_32_56:A I
*I vs_29_56:A I
*I vs_28_56:A I
*I vs_24_56:A I
*I vs_21_56:A I
*I vs_19_56:A I
*I vs_18_56:A I
*I vs_16_56:A I
*I vs_9_56:A I
*I vs_8_56:A I
*I vs_6_56:A I
*I vs_5_56:A I
*I vs_2_56:A I
*CAP
1 pgm_ln56:1 9.930501e-02
*RES
1 lt_ln56:Z pgm_ln56:1 1.126895e+02
2 pgm_ln56:1 vs_60_56:A 1.000000e-03
3 pgm_ln56:1 vs_59_56:A 1.000000e-03
4 pgm_ln56:1 vs_57_56:A 1.000000e-03
5 pgm_ln56:1 vs_52_56:A 1.000000e-03
6 pgm_ln56:1 vs_50_56:A 1.000000e-03
7 pgm_ln56:1 vs_47_56:A 1.000000e-03
8 pgm_ln56:1 vs_44_56:A 1.000000e-03
9 pgm_ln56:1 vs_41_56:A 1.000000e-03
10 pgm_ln56:1 vs_33_56:A 1.000000e-03
11 pgm_ln56:1 vs_32_56:A 1.000000e-03
12 pgm_ln56:1 vs_29_56:A 1.000000e-03
13 pgm_ln56:1 vs_28_56:A 1.000000e-03
14 pgm_ln56:1 vs_24_56:A 1.000000e-03
15 pgm_ln56:1 vs_21_56:A 1.000000e-03
16 pgm_ln56:1 vs_19_56:A 1.000000e-03
17 pgm_ln56:1 vs_18_56:A 1.000000e-03
18 pgm_ln56:1 vs_16_56:A 1.000000e-03
19 pgm_ln56:1 vs_9_56:A 1.000000e-03
20 pgm_ln56:1 vs_8_56:A 1.000000e-03
21 pgm_ln56:1 vs_6_56:A 1.000000e-03
22 pgm_ln56:1 vs_5_56:A 1.000000e-03
23 pgm_ln56:1 vs_2_56:A 1.000000e-03
*END

*D_NET pgm_ln57 1.005428e-01
*CONN
*I lt_ln57:Z O
*I vs_58_57:A I
*I vs_57_57:A I
*I vs_56_57:A I
*I vs_53_57:A I
*I vs_48_57:A I
*I vs_47_57:A I
*I vs_42_57:A I
*I vs_41_57:A I
*I vs_31_57:A I
*I vs_30_57:A I
*I vs_27_57:A I
*I vs_21_57:A I
*I vs_19_57:A I
*I vs_17_57:A I
*I vs_15_57:A I
*I vs_13_57:A I
*I vs_12_57:A I
*I vs_2_57:A I
*CAP
1 pgm_ln57:1 1.005428e-01
*RES
1 lt_ln57:Z pgm_ln57:1 1.104973e+02
2 pgm_ln57:1 vs_58_57:A 1.000000e-03
3 pgm_ln57:1 vs_57_57:A 1.000000e-03
4 pgm_ln57:1 vs_56_57:A 1.000000e-03
5 pgm_ln57:1 vs_53_57:A 1.000000e-03
6 pgm_ln57:1 vs_48_57:A 1.000000e-03
7 pgm_ln57:1 vs_47_57:A 1.000000e-03
8 pgm_ln57:1 vs_42_57:A 1.000000e-03
9 pgm_ln57:1 vs_41_57:A 1.000000e-03
10 pgm_ln57:1 vs_31_57:A 1.000000e-03
11 pgm_ln57:1 vs_30_57:A 1.000000e-03
12 pgm_ln57:1 vs_27_57:A 1.000000e-03
13 pgm_ln57:1 vs_21_57:A 1.000000e-03
14 pgm_ln57:1 vs_19_57:A 1.000000e-03
15 pgm_ln57:1 vs_17_57:A 1.000000e-03
16 pgm_ln57:1 vs_15_57:A 1.000000e-03
17 pgm_ln57:1 vs_13_57:A 1.000000e-03
18 pgm_ln57:1 vs_12_57:A 1.000000e-03
19 pgm_ln57:1 vs_2_57:A 1.000000e-03
*END

*D_NET pgm_ln58 8.593767e-02
*CONN
*I lt_ln58:Z O
*I vs_54_58:A I
*I vs_51_58:A I
*I vs_47_58:A I
*I vs_45_58:A I
*I vs_44_58:A I
*I vs_42_58:A I
*I vs_37_58:A I
*I vs_32_58:A I
*I vs_29_58:A I
*I vs_22_58:A I
*I vs_21_58:A I
*I vs_17_58:A I
*I vs_13_58:A I
*I vs_7_58:A I
*I vs_6_58:A I
*CAP
1 pgm_ln58:1 8.593767e-02
*RES
1 lt_ln58:Z pgm_ln58:1 9.552801e+01
2 pgm_ln58:1 vs_54_58:A 1.000000e-03
3 pgm_ln58:1 vs_51_58:A 1.000000e-03
4 pgm_ln58:1 vs_47_58:A 1.000000e-03
5 pgm_ln58:1 vs_45_58:A 1.000000e-03
6 pgm_ln58:1 vs_44_58:A 1.000000e-03
7 pgm_ln58:1 vs_42_58:A 1.000000e-03
8 pgm_ln58:1 vs_37_58:A 1.000000e-03
9 pgm_ln58:1 vs_32_58:A 1.000000e-03
10 pgm_ln58:1 vs_29_58:A 1.000000e-03
11 pgm_ln58:1 vs_22_58:A 1.000000e-03
12 pgm_ln58:1 vs_21_58:A 1.000000e-03
13 pgm_ln58:1 vs_17_58:A 1.000000e-03
14 pgm_ln58:1 vs_13_58:A 1.000000e-03
15 pgm_ln58:1 vs_7_58:A 1.000000e-03
16 pgm_ln58:1 vs_6_58:A 1.000000e-03
*END

*D_NET pgm_ln59 1.105665e-01
*CONN
*I lt_ln59:Z O
*I vs_63_59:A I
*I vs_62_59:A I
*I vs_61_59:A I
*I vs_60_59:A I
*I vs_55_59:A I
*I vs_50_59:A I
*I vs_47_59:A I
*I vs_39_59:A I
*I vs_32_59:A I
*I vs_25_59:A I
*I vs_18_59:A I
*I vs_15_59:A I
*I vs_13_59:A I
*I vs_12_59:A I
*I vs_9_59:A I
*I vs_1_59:A I
*CAP
1 pgm_ln59:1 1.105665e-01
*RES
1 lt_ln59:Z pgm_ln59:1 1.247605e+02
2 pgm_ln59:1 vs_63_59:A 1.000000e-03
3 pgm_ln59:1 vs_62_59:A 1.000000e-03
4 pgm_ln59:1 vs_61_59:A 1.000000e-03
5 pgm_ln59:1 vs_60_59:A 1.000000e-03
6 pgm_ln59:1 vs_55_59:A 1.000000e-03
7 pgm_ln59:1 vs_50_59:A 1.000000e-03
8 pgm_ln59:1 vs_47_59:A 1.000000e-03
9 pgm_ln59:1 vs_39_59:A 1.000000e-03
10 pgm_ln59:1 vs_32_59:A 1.000000e-03
11 pgm_ln59:1 vs_25_59:A 1.000000e-03
12 pgm_ln59:1 vs_18_59:A 1.000000e-03
13 pgm_ln59:1 vs_15_59:A 1.000000e-03
14 pgm_ln59:1 vs_13_59:A 1.000000e-03
15 pgm_ln59:1 vs_12_59:A 1.000000e-03
16 pgm_ln59:1 vs_9_59:A 1.000000e-03
17 pgm_ln59:1 vs_1_59:A 1.000000e-03
*END

*D_NET pgm_ln6 8.477692e-02
*CONN
*I lt_ln6:Z O
*I vs_54_6:A I
*I vs_47_6:A I
*I vs_46_6:A I
*I vs_44_6:A I
*I vs_43_6:A I
*I vs_38_6:A I
*I vs_37_6:A I
*I vs_27_6:A I
*I vs_25_6:A I
*I vs_24_6:A I
*I vs_22_6:A I
*I vs_21_6:A I
*I vs_20_6:A I
*I vs_19_6:A I
*I vs_18_6:A I
*I vs_15_6:A I
*I vs_6_6:A I
*I vs_5_6:A I
*CAP
1 pgm_ln6:1 8.477692e-02
*RES
1 lt_ln6:Z pgm_ln6:1 9.535106e+01
2 pgm_ln6:1 vs_54_6:A 1.000000e-03
3 pgm_ln6:1 vs_47_6:A 1.000000e-03
4 pgm_ln6:1 vs_46_6:A 1.000000e-03
5 pgm_ln6:1 vs_44_6:A 1.000000e-03
6 pgm_ln6:1 vs_43_6:A 1.000000e-03
7 pgm_ln6:1 vs_38_6:A 1.000000e-03
8 pgm_ln6:1 vs_37_6:A 1.000000e-03
9 pgm_ln6:1 vs_27_6:A 1.000000e-03
10 pgm_ln6:1 vs_25_6:A 1.000000e-03
11 pgm_ln6:1 vs_24_6:A 1.000000e-03
12 pgm_ln6:1 vs_22_6:A 1.000000e-03
13 pgm_ln6:1 vs_21_6:A 1.000000e-03
14 pgm_ln6:1 vs_20_6:A 1.000000e-03
15 pgm_ln6:1 vs_19_6:A 1.000000e-03
16 pgm_ln6:1 vs_18_6:A 1.000000e-03
17 pgm_ln6:1 vs_15_6:A 1.000000e-03
18 pgm_ln6:1 vs_6_6:A 1.000000e-03
19 pgm_ln6:1 vs_5_6:A 1.000000e-03
*END

*D_NET pgm_ln60 1.080648e-01
*CONN
*I lt_ln60:Z O
*I vs_63_60:A I
*I vs_57_60:A I
*I vs_53_60:A I
*I vs_51_60:A I
*I vs_49_60:A I
*I vs_40_60:A I
*I vs_39_60:A I
*I vs_37_60:A I
*I vs_35_60:A I
*I vs_33_60:A I
*I vs_26_60:A I
*I vs_25_60:A I
*I vs_24_60:A I
*I vs_21_60:A I
*I vs_20_60:A I
*I vs_17_60:A I
*I vs_10_60:A I
*I vs_9_60:A I
*I vs_7_60:A I
*I vs_1_60:A I
*I vs_0_60:A I
*CAP
1 pgm_ln60:1 1.080648e-01
*RES
1 lt_ln60:Z pgm_ln60:1 1.221095e+02
2 pgm_ln60:1 vs_63_60:A 1.000000e-03
3 pgm_ln60:1 vs_57_60:A 1.000000e-03
4 pgm_ln60:1 vs_53_60:A 1.000000e-03
5 pgm_ln60:1 vs_51_60:A 1.000000e-03
6 pgm_ln60:1 vs_49_60:A 1.000000e-03
7 pgm_ln60:1 vs_40_60:A 1.000000e-03
8 pgm_ln60:1 vs_39_60:A 1.000000e-03
9 pgm_ln60:1 vs_37_60:A 1.000000e-03
10 pgm_ln60:1 vs_35_60:A 1.000000e-03
11 pgm_ln60:1 vs_33_60:A 1.000000e-03
12 pgm_ln60:1 vs_26_60:A 1.000000e-03
13 pgm_ln60:1 vs_25_60:A 1.000000e-03
14 pgm_ln60:1 vs_24_60:A 1.000000e-03
15 pgm_ln60:1 vs_21_60:A 1.000000e-03
16 pgm_ln60:1 vs_20_60:A 1.000000e-03
17 pgm_ln60:1 vs_17_60:A 1.000000e-03
18 pgm_ln60:1 vs_10_60:A 1.000000e-03
19 pgm_ln60:1 vs_9_60:A 1.000000e-03
20 pgm_ln60:1 vs_7_60:A 1.000000e-03
21 pgm_ln60:1 vs_1_60:A 1.000000e-03
22 pgm_ln60:1 vs_0_60:A 1.000000e-03
*END

*D_NET pgm_ln61 9.940967e-02
*CONN
*I lt_ln61:Z O
*I vs_57_61:A I
*I vs_53_61:A I
*I vs_34_61:A I
*I vs_33_61:A I
*I vs_32_61:A I
*I vs_29_61:A I
*I vs_24_61:A I
*I vs_15_61:A I
*I vs_13_61:A I
*I vs_4_61:A I
*I vs_3_61:A I
*I vs_2_61:A I
*I vs_0_61:A I
*CAP
1 pgm_ln61:1 9.940967e-02
*RES
1 lt_ln61:Z pgm_ln61:1 1.105497e+02
2 pgm_ln61:1 vs_57_61:A 1.000000e-03
3 pgm_ln61:1 vs_53_61:A 1.000000e-03
4 pgm_ln61:1 vs_34_61:A 1.000000e-03
5 pgm_ln61:1 vs_33_61:A 1.000000e-03
6 pgm_ln61:1 vs_32_61:A 1.000000e-03
7 pgm_ln61:1 vs_29_61:A 1.000000e-03
8 pgm_ln61:1 vs_24_61:A 1.000000e-03
9 pgm_ln61:1 vs_15_61:A 1.000000e-03
10 pgm_ln61:1 vs_13_61:A 1.000000e-03
11 pgm_ln61:1 vs_4_61:A 1.000000e-03
12 pgm_ln61:1 vs_3_61:A 1.000000e-03
13 pgm_ln61:1 vs_2_61:A 1.000000e-03
14 pgm_ln61:1 vs_0_61:A 1.000000e-03
*END

*D_NET pgm_ln62 1.229098e-01
*CONN
*I lt_ln62:Z O
*I vs_63_62:A I
*I vs_58_62:A I
*I vs_57_62:A I
*I vs_49_62:A I
*I vs_44_62:A I
*I vs_41_62:A I
*I vs_34_62:A I
*I vs_33_62:A I
*I vs_25_62:A I
*I vs_23_62:A I
*I vs_21_62:A I
*I vs_17_62:A I
*I vs_16_62:A I
*I vs_14_62:A I
*I vs_13_62:A I
*I vs_9_62:A I
*I vs_3_62:A I
*I vs_2_62:A I
*I vs_1_62:A I
*I vs_0_62:A I
*CAP
1 pgm_ln62:1 1.229098e-01
*RES
1 lt_ln62:Z pgm_ln62:1 1.363431e+02
2 pgm_ln62:1 vs_63_62:A 1.000000e-03
3 pgm_ln62:1 vs_58_62:A 1.000000e-03
4 pgm_ln62:1 vs_57_62:A 1.000000e-03
5 pgm_ln62:1 vs_49_62:A 1.000000e-03
6 pgm_ln62:1 vs_44_62:A 1.000000e-03
7 pgm_ln62:1 vs_41_62:A 1.000000e-03
8 pgm_ln62:1 vs_34_62:A 1.000000e-03
9 pgm_ln62:1 vs_33_62:A 1.000000e-03
10 pgm_ln62:1 vs_25_62:A 1.000000e-03
11 pgm_ln62:1 vs_23_62:A 1.000000e-03
12 pgm_ln62:1 vs_21_62:A 1.000000e-03
13 pgm_ln62:1 vs_17_62:A 1.000000e-03
14 pgm_ln62:1 vs_16_62:A 1.000000e-03
15 pgm_ln62:1 vs_14_62:A 1.000000e-03
16 pgm_ln62:1 vs_13_62:A 1.000000e-03
17 pgm_ln62:1 vs_9_62:A 1.000000e-03
18 pgm_ln62:1 vs_3_62:A 1.000000e-03
19 pgm_ln62:1 vs_2_62:A 1.000000e-03
20 pgm_ln62:1 vs_1_62:A 1.000000e-03
21 pgm_ln62:1 vs_0_62:A 1.000000e-03
*END

*D_NET pgm_ln63 1.029666e-01
*CONN
*I lt_ln63:Z O
*I vs_62_63:A I
*I vs_55_63:A I
*I vs_53_63:A I
*I vs_48_63:A I
*I vs_47_63:A I
*I vs_45_63:A I
*I vs_43_63:A I
*I vs_40_63:A I
*I vs_37_63:A I
*I vs_32_63:A I
*I vs_29_63:A I
*I vs_25_63:A I
*I vs_17_63:A I
*I vs_14_63:A I
*I vs_6_63:A I
*I vs_3_63:A I
*CAP
1 pgm_ln63:1 1.029666e-01
*RES
1 lt_ln63:Z pgm_ln63:1 1.158600e+02
2 pgm_ln63:1 vs_62_63:A 1.000000e-03
3 pgm_ln63:1 vs_55_63:A 1.000000e-03
4 pgm_ln63:1 vs_53_63:A 1.000000e-03
5 pgm_ln63:1 vs_48_63:A 1.000000e-03
6 pgm_ln63:1 vs_47_63:A 1.000000e-03
7 pgm_ln63:1 vs_45_63:A 1.000000e-03
8 pgm_ln63:1 vs_43_63:A 1.000000e-03
9 pgm_ln63:1 vs_40_63:A 1.000000e-03
10 pgm_ln63:1 vs_37_63:A 1.000000e-03
11 pgm_ln63:1 vs_32_63:A 1.000000e-03
12 pgm_ln63:1 vs_29_63:A 1.000000e-03
13 pgm_ln63:1 vs_25_63:A 1.000000e-03
14 pgm_ln63:1 vs_17_63:A 1.000000e-03
15 pgm_ln63:1 vs_14_63:A 1.000000e-03
16 pgm_ln63:1 vs_6_63:A 1.000000e-03
17 pgm_ln63:1 vs_3_63:A 1.000000e-03
*END

*D_NET pgm_ln7 1.001819e-01
*CONN
*I lt_ln7:Z O
*I vs_57_7:A I
*I vs_52_7:A I
*I vs_51_7:A I
*I vs_48_7:A I
*I vs_46_7:A I
*I vs_45_7:A I
*I vs_43_7:A I
*I vs_42_7:A I
*I vs_39_7:A I
*I vs_35_7:A I
*I vs_34_7:A I
*I vs_32_7:A I
*I vs_24_7:A I
*I vs_22_7:A I
*I vs_20_7:A I
*I vs_19_7:A I
*I vs_12_7:A I
*I vs_6_7:A I
*I vs_5_7:A I
*I vs_0_7:A I
*CAP
1 pgm_ln7:1 1.001819e-01
*RES
1 lt_ln7:Z pgm_ln7:1 1.136847e+02
2 pgm_ln7:1 vs_57_7:A 1.000000e-03
3 pgm_ln7:1 vs_52_7:A 1.000000e-03
4 pgm_ln7:1 vs_51_7:A 1.000000e-03
5 pgm_ln7:1 vs_48_7:A 1.000000e-03
6 pgm_ln7:1 vs_46_7:A 1.000000e-03
7 pgm_ln7:1 vs_45_7:A 1.000000e-03
8 pgm_ln7:1 vs_43_7:A 1.000000e-03
9 pgm_ln7:1 vs_42_7:A 1.000000e-03
10 pgm_ln7:1 vs_39_7:A 1.000000e-03
11 pgm_ln7:1 vs_35_7:A 1.000000e-03
12 pgm_ln7:1 vs_34_7:A 1.000000e-03
13 pgm_ln7:1 vs_32_7:A 1.000000e-03
14 pgm_ln7:1 vs_24_7:A 1.000000e-03
15 pgm_ln7:1 vs_22_7:A 1.000000e-03
16 pgm_ln7:1 vs_20_7:A 1.000000e-03
17 pgm_ln7:1 vs_19_7:A 1.000000e-03
18 pgm_ln7:1 vs_12_7:A 1.000000e-03
19 pgm_ln7:1 vs_6_7:A 1.000000e-03
20 pgm_ln7:1 vs_5_7:A 1.000000e-03
21 pgm_ln7:1 vs_0_7:A 1.000000e-03
*END

*D_NET pgm_ln8 1.058559e-01
*CONN
*I lt_ln8:Z O
*I vs_62_8:A I
*I vs_61_8:A I
*I vs_60_8:A I
*I vs_56_8:A I
*I vs_54_8:A I
*I vs_52_8:A I
*I vs_50_8:A I
*I vs_48_8:A I
*I vs_37_8:A I
*I vs_36_8:A I
*I vs_34_8:A I
*I vs_33_8:A I
*I vs_28_8:A I
*I vs_25_8:A I
*I vs_21_8:A I
*I vs_18_8:A I
*I vs_15_8:A I
*I vs_13_8:A I
*I vs_11_8:A I
*I vs_10_8:A I
*I vs_9_8:A I
*I vs_6_8:A I
*I vs_0_8:A I
*CAP
1 pgm_ln8:1 1.058559e-01
*RES
1 lt_ln8:Z pgm_ln8:1 1.190270e+02
2 pgm_ln8:1 vs_62_8:A 1.000000e-03
3 pgm_ln8:1 vs_61_8:A 1.000000e-03
4 pgm_ln8:1 vs_60_8:A 1.000000e-03
5 pgm_ln8:1 vs_56_8:A 1.000000e-03
6 pgm_ln8:1 vs_54_8:A 1.000000e-03
7 pgm_ln8:1 vs_52_8:A 1.000000e-03
8 pgm_ln8:1 vs_50_8:A 1.000000e-03
9 pgm_ln8:1 vs_48_8:A 1.000000e-03
10 pgm_ln8:1 vs_37_8:A 1.000000e-03
11 pgm_ln8:1 vs_36_8:A 1.000000e-03
12 pgm_ln8:1 vs_34_8:A 1.000000e-03
13 pgm_ln8:1 vs_33_8:A 1.000000e-03
14 pgm_ln8:1 vs_28_8:A 1.000000e-03
15 pgm_ln8:1 vs_25_8:A 1.000000e-03
16 pgm_ln8:1 vs_21_8:A 1.000000e-03
17 pgm_ln8:1 vs_18_8:A 1.000000e-03
18 pgm_ln8:1 vs_15_8:A 1.000000e-03
19 pgm_ln8:1 vs_13_8:A 1.000000e-03
20 pgm_ln8:1 vs_11_8:A 1.000000e-03
21 pgm_ln8:1 vs_10_8:A 1.000000e-03
22 pgm_ln8:1 vs_9_8:A 1.000000e-03
23 pgm_ln8:1 vs_6_8:A 1.000000e-03
24 pgm_ln8:1 vs_0_8:A 1.000000e-03
*END

*D_NET pgm_ln9 1.138109e-01
*CONN
*I lt_ln9:Z O
*I vs_63_9:A I
*I vs_62_9:A I
*I vs_59_9:A I
*I vs_58_9:A I
*I vs_57_9:A I
*I vs_48_9:A I
*I vs_46_9:A I
*I vs_44_9:A I
*I vs_41_9:A I
*I vs_40_9:A I
*I vs_36_9:A I
*I vs_32_9:A I
*I vs_30_9:A I
*I vs_26_9:A I
*I vs_25_9:A I
*I vs_24_9:A I
*I vs_23_9:A I
*I vs_20_9:A I
*I vs_15_9:A I
*I vs_14_9:A I
*I vs_12_9:A I
*I vs_11_9:A I
*I vs_10_9:A I
*I vs_4_9:A I
*I vs_3_9:A I
*I vs_0_9:A I
*CAP
1 pgm_ln9:1 1.138109e-01
*RES
1 lt_ln9:Z pgm_ln9:1 1.285862e+02
2 pgm_ln9:1 vs_63_9:A 1.000000e-03
3 pgm_ln9:1 vs_62_9:A 1.000000e-03
4 pgm_ln9:1 vs_59_9:A 1.000000e-03
5 pgm_ln9:1 vs_58_9:A 1.000000e-03
6 pgm_ln9:1 vs_57_9:A 1.000000e-03
7 pgm_ln9:1 vs_48_9:A 1.000000e-03
8 pgm_ln9:1 vs_46_9:A 1.000000e-03
9 pgm_ln9:1 vs_44_9:A 1.000000e-03
10 pgm_ln9:1 vs_41_9:A 1.000000e-03
11 pgm_ln9:1 vs_40_9:A 1.000000e-03
12 pgm_ln9:1 vs_36_9:A 1.000000e-03
13 pgm_ln9:1 vs_32_9:A 1.000000e-03
14 pgm_ln9:1 vs_30_9:A 1.000000e-03
15 pgm_ln9:1 vs_26_9:A 1.000000e-03
16 pgm_ln9:1 vs_25_9:A 1.000000e-03
17 pgm_ln9:1 vs_24_9:A 1.000000e-03
18 pgm_ln9:1 vs_23_9:A 1.000000e-03
19 pgm_ln9:1 vs_20_9:A 1.000000e-03
20 pgm_ln9:1 vs_15_9:A 1.000000e-03
21 pgm_ln9:1 vs_14_9:A 1.000000e-03
22 pgm_ln9:1 vs_12_9:A 1.000000e-03
23 pgm_ln9:1 vs_11_9:A 1.000000e-03
24 pgm_ln9:1 vs_10_9:A 1.000000e-03
25 pgm_ln9:1 vs_4_9:A 1.000000e-03
26 pgm_ln9:1 vs_3_9:A 1.000000e-03
27 pgm_ln9:1 vs_0_9:A 1.000000e-03
*END

*D_NET pgm_lp0 9.832900e-02
*CONN
*I lt_lp0:Z O
*I vs_62_0:A I
*I vs_61_0:A I
*I vs_58_0:A I
*I vs_56_0:A I
*I vs_53_0:A I
*I vs_39_0:A I
*I vs_37_0:A I
*I vs_30_0:A I
*I vs_29_0:A I
*I vs_28_0:A I
*I vs_23_0:A I
*I vs_22_0:A I
*I vs_21_0:A I
*I vs_20_0:A I
*I vs_15_0:A I
*I vs_10_0:A I
*I vs_9_0:A I
*I vs_7_0:A I
*CAP
1 pgm_lp0:1 9.832900e-02
*RES
1 lt_lp0:Z pgm_lp0:1 1.111616e+02
2 pgm_lp0:1 vs_62_0:A 1.000000e-03
3 pgm_lp0:1 vs_61_0:A 1.000000e-03
4 pgm_lp0:1 vs_58_0:A 1.000000e-03
5 pgm_lp0:1 vs_56_0:A 1.000000e-03
6 pgm_lp0:1 vs_53_0:A 1.000000e-03
7 pgm_lp0:1 vs_39_0:A 1.000000e-03
8 pgm_lp0:1 vs_37_0:A 1.000000e-03
9 pgm_lp0:1 vs_30_0:A 1.000000e-03
10 pgm_lp0:1 vs_29_0:A 1.000000e-03
11 pgm_lp0:1 vs_28_0:A 1.000000e-03
12 pgm_lp0:1 vs_23_0:A 1.000000e-03
13 pgm_lp0:1 vs_22_0:A 1.000000e-03
14 pgm_lp0:1 vs_21_0:A 1.000000e-03
15 pgm_lp0:1 vs_20_0:A 1.000000e-03
16 pgm_lp0:1 vs_15_0:A 1.000000e-03
17 pgm_lp0:1 vs_10_0:A 1.000000e-03
18 pgm_lp0:1 vs_9_0:A 1.000000e-03
19 pgm_lp0:1 vs_7_0:A 1.000000e-03
*END

*D_NET pgm_lp1 9.197254e-02
*CONN
*I lt_lp1:Z O
*I vs_62_1:A I
*I vs_61_1:A I
*I vs_59_1:A I
*I vs_54_1:A I
*I vs_49_1:A I
*I vs_47_1:A I
*I vs_43_1:A I
*I vs_40_1:A I
*I vs_33_1:A I
*I vs_32_1:A I
*I vs_28_1:A I
*I vs_24_1:A I
*I vs_18_1:A I
*I vs_14_1:A I
*I vs_10_1:A I
*CAP
1 pgm_lp1:1 9.197254e-02
*RES
1 lt_lp1:Z pgm_lp1:1 1.033725e+02
2 pgm_lp1:1 vs_62_1:A 1.000000e-03
3 pgm_lp1:1 vs_61_1:A 1.000000e-03
4 pgm_lp1:1 vs_59_1:A 1.000000e-03
5 pgm_lp1:1 vs_54_1:A 1.000000e-03
6 pgm_lp1:1 vs_49_1:A 1.000000e-03
7 pgm_lp1:1 vs_47_1:A 1.000000e-03
8 pgm_lp1:1 vs_43_1:A 1.000000e-03
9 pgm_lp1:1 vs_40_1:A 1.000000e-03
10 pgm_lp1:1 vs_33_1:A 1.000000e-03
11 pgm_lp1:1 vs_32_1:A 1.000000e-03
12 pgm_lp1:1 vs_28_1:A 1.000000e-03
13 pgm_lp1:1 vs_24_1:A 1.000000e-03
14 pgm_lp1:1 vs_18_1:A 1.000000e-03
15 pgm_lp1:1 vs_14_1:A 1.000000e-03
16 pgm_lp1:1 vs_10_1:A 1.000000e-03
*END

*D_NET pgm_lp10 9.057200e-02
*CONN
*I lt_lp10:Z O
*I vs_52_10:A I
*I vs_50_10:A I
*I vs_48_10:A I
*I vs_40_10:A I
*I vs_39_10:A I
*I vs_38_10:A I
*I vs_37_10:A I
*I vs_36_10:A I
*I vs_35_10:A I
*I vs_32_10:A I
*I vs_31_10:A I
*I vs_26_10:A I
*I vs_25_10:A I
*I vs_23_10:A I
*I vs_22_10:A I
*I vs_21_10:A I
*I vs_19_10:A I
*I vs_17_10:A I
*I vs_14_10:A I
*I vs_13_10:A I
*I vs_4_10:A I
*I vs_3_10:A I
*CAP
1 pgm_lp10:1 9.057200e-02
*RES
1 lt_lp10:Z pgm_lp10:1 1.010749e+02
2 pgm_lp10:1 vs_52_10:A 1.000000e-03
3 pgm_lp10:1 vs_50_10:A 1.000000e-03
4 pgm_lp10:1 vs_48_10:A 1.000000e-03
5 pgm_lp10:1 vs_40_10:A 1.000000e-03
6 pgm_lp10:1 vs_39_10:A 1.000000e-03
7 pgm_lp10:1 vs_38_10:A 1.000000e-03
8 pgm_lp10:1 vs_37_10:A 1.000000e-03
9 pgm_lp10:1 vs_36_10:A 1.000000e-03
10 pgm_lp10:1 vs_35_10:A 1.000000e-03
11 pgm_lp10:1 vs_32_10:A 1.000000e-03
12 pgm_lp10:1 vs_31_10:A 1.000000e-03
13 pgm_lp10:1 vs_26_10:A 1.000000e-03
14 pgm_lp10:1 vs_25_10:A 1.000000e-03
15 pgm_lp10:1 vs_23_10:A 1.000000e-03
16 pgm_lp10:1 vs_22_10:A 1.000000e-03
17 pgm_lp10:1 vs_21_10:A 1.000000e-03
18 pgm_lp10:1 vs_19_10:A 1.000000e-03
19 pgm_lp10:1 vs_17_10:A 1.000000e-03
20 pgm_lp10:1 vs_14_10:A 1.000000e-03
21 pgm_lp10:1 vs_13_10:A 1.000000e-03
22 pgm_lp10:1 vs_4_10:A 1.000000e-03
23 pgm_lp10:1 vs_3_10:A 1.000000e-03
*END

*D_NET pgm_lp11 1.109184e-01
*CONN
*I lt_lp11:Z O
*I vs_62_11:A I
*I vs_47_11:A I
*I vs_42_11:A I
*I vs_36_11:A I
*I vs_35_11:A I
*I vs_31_11:A I
*I vs_30_11:A I
*I vs_26_11:A I
*I vs_17_11:A I
*I vs_13_11:A I
*I vs_10_11:A I
*I vs_6_11:A I
*I vs_4_11:A I
*I vs_2_11:A I
*I vs_0_11:A I
*CAP
1 pgm_lp11:1 1.109184e-01
*RES
1 lt_lp11:Z pgm_lp11:1 1.240197e+02
2 pgm_lp11:1 vs_62_11:A 1.000000e-03
3 pgm_lp11:1 vs_47_11:A 1.000000e-03
4 pgm_lp11:1 vs_42_11:A 1.000000e-03
5 pgm_lp11:1 vs_36_11:A 1.000000e-03
6 pgm_lp11:1 vs_35_11:A 1.000000e-03
7 pgm_lp11:1 vs_31_11:A 1.000000e-03
8 pgm_lp11:1 vs_30_11:A 1.000000e-03
9 pgm_lp11:1 vs_26_11:A 1.000000e-03
10 pgm_lp11:1 vs_17_11:A 1.000000e-03
11 pgm_lp11:1 vs_13_11:A 1.000000e-03
12 pgm_lp11:1 vs_10_11:A 1.000000e-03
13 pgm_lp11:1 vs_6_11:A 1.000000e-03
14 pgm_lp11:1 vs_4_11:A 1.000000e-03
15 pgm_lp11:1 vs_2_11:A 1.000000e-03
16 pgm_lp11:1 vs_0_11:A 1.000000e-03
*END

*D_NET pgm_lp12 1.151079e-01
*CONN
*I lt_lp12:Z O
*I vs_62_12:A I
*I vs_60_12:A I
*I vs_55_12:A I
*I vs_54_12:A I
*I vs_48_12:A I
*I vs_46_12:A I
*I vs_40_12:A I
*I vs_39_12:A I
*I vs_27_12:A I
*I vs_26_12:A I
*I vs_22_12:A I
*I vs_21_12:A I
*I vs_20_12:A I
*I vs_16_12:A I
*I vs_14_12:A I
*I vs_13_12:A I
*I vs_12_12:A I
*I vs_11_12:A I
*I vs_9_12:A I
*I vs_5_12:A I
*I vs_4_12:A I
*I vs_0_12:A I
*CAP
1 pgm_lp12:1 1.151079e-01
*RES
1 lt_lp12:Z pgm_lp12:1 1.289178e+02
2 pgm_lp12:1 vs_62_12:A 1.000000e-03
3 pgm_lp12:1 vs_60_12:A 1.000000e-03
4 pgm_lp12:1 vs_55_12:A 1.000000e-03
5 pgm_lp12:1 vs_54_12:A 1.000000e-03
6 pgm_lp12:1 vs_48_12:A 1.000000e-03
7 pgm_lp12:1 vs_46_12:A 1.000000e-03
8 pgm_lp12:1 vs_40_12:A 1.000000e-03
9 pgm_lp12:1 vs_39_12:A 1.000000e-03
10 pgm_lp12:1 vs_27_12:A 1.000000e-03
11 pgm_lp12:1 vs_26_12:A 1.000000e-03
12 pgm_lp12:1 vs_22_12:A 1.000000e-03
13 pgm_lp12:1 vs_21_12:A 1.000000e-03
14 pgm_lp12:1 vs_20_12:A 1.000000e-03
15 pgm_lp12:1 vs_16_12:A 1.000000e-03
16 pgm_lp12:1 vs_14_12:A 1.000000e-03
17 pgm_lp12:1 vs_13_12:A 1.000000e-03
18 pgm_lp12:1 vs_12_12:A 1.000000e-03
19 pgm_lp12:1 vs_11_12:A 1.000000e-03
20 pgm_lp12:1 vs_9_12:A 1.000000e-03
21 pgm_lp12:1 vs_5_12:A 1.000000e-03
22 pgm_lp12:1 vs_4_12:A 1.000000e-03
23 pgm_lp12:1 vs_0_12:A 1.000000e-03
*END

*D_NET pgm_lp13 1.084250e-01
*CONN
*I lt_lp13:Z O
*I vs_63_13:A I
*I vs_57_13:A I
*I vs_56_13:A I
*I vs_55_13:A I
*I vs_47_13:A I
*I vs_45_13:A I
*I vs_42_13:A I
*I vs_41_13:A I
*I vs_40_13:A I
*I vs_37_13:A I
*I vs_31_13:A I
*I vs_28_13:A I
*I vs_21_13:A I
*I vs_20_13:A I
*I vs_11_13:A I
*I vs_7_13:A I
*I vs_2_13:A I
*CAP
1 pgm_lp13:1 1.084250e-01
*RES
1 lt_lp13:Z pgm_lp13:1 1.224744e+02
2 pgm_lp13:1 vs_63_13:A 1.000000e-03
3 pgm_lp13:1 vs_57_13:A 1.000000e-03
4 pgm_lp13:1 vs_56_13:A 1.000000e-03
5 pgm_lp13:1 vs_55_13:A 1.000000e-03
6 pgm_lp13:1 vs_47_13:A 1.000000e-03
7 pgm_lp13:1 vs_45_13:A 1.000000e-03
8 pgm_lp13:1 vs_42_13:A 1.000000e-03
9 pgm_lp13:1 vs_41_13:A 1.000000e-03
10 pgm_lp13:1 vs_40_13:A 1.000000e-03
11 pgm_lp13:1 vs_37_13:A 1.000000e-03
12 pgm_lp13:1 vs_31_13:A 1.000000e-03
13 pgm_lp13:1 vs_28_13:A 1.000000e-03
14 pgm_lp13:1 vs_21_13:A 1.000000e-03
15 pgm_lp13:1 vs_20_13:A 1.000000e-03
16 pgm_lp13:1 vs_11_13:A 1.000000e-03
17 pgm_lp13:1 vs_7_13:A 1.000000e-03
18 pgm_lp13:1 vs_2_13:A 1.000000e-03
*END

*D_NET pgm_lp14 1.099833e-01
*CONN
*I lt_lp14:Z O
*I vs_63_14:A I
*I vs_59_14:A I
*I vs_54_14:A I
*I vs_53_14:A I
*I vs_51_14:A I
*I vs_43_14:A I
*I vs_42_14:A I
*I vs_31_14:A I
*I vs_29_14:A I
*I vs_26_14:A I
*I vs_20_14:A I
*I vs_19_14:A I
*I vs_17_14:A I
*I vs_15_14:A I
*I vs_11_14:A I
*I vs_9_14:A I
*I vs_7_14:A I
*I vs_4_14:A I
*CAP
1 pgm_lp14:1 1.099833e-01
*RES
1 lt_lp14:Z pgm_lp14:1 1.210098e+02
2 pgm_lp14:1 vs_63_14:A 1.000000e-03
3 pgm_lp14:1 vs_59_14:A 1.000000e-03
4 pgm_lp14:1 vs_54_14:A 1.000000e-03
5 pgm_lp14:1 vs_53_14:A 1.000000e-03
6 pgm_lp14:1 vs_51_14:A 1.000000e-03
7 pgm_lp14:1 vs_43_14:A 1.000000e-03
8 pgm_lp14:1 vs_42_14:A 1.000000e-03
9 pgm_lp14:1 vs_31_14:A 1.000000e-03
10 pgm_lp14:1 vs_29_14:A 1.000000e-03
11 pgm_lp14:1 vs_26_14:A 1.000000e-03
12 pgm_lp14:1 vs_20_14:A 1.000000e-03
13 pgm_lp14:1 vs_19_14:A 1.000000e-03
14 pgm_lp14:1 vs_17_14:A 1.000000e-03
15 pgm_lp14:1 vs_15_14:A 1.000000e-03
16 pgm_lp14:1 vs_11_14:A 1.000000e-03
17 pgm_lp14:1 vs_9_14:A 1.000000e-03
18 pgm_lp14:1 vs_7_14:A 1.000000e-03
19 pgm_lp14:1 vs_4_14:A 1.000000e-03
*END

*D_NET pgm_lp15 9.377391e-02
*CONN
*I lt_lp15:Z O
*I vs_57_15:A I
*I vs_46_15:A I
*I vs_42_15:A I
*I vs_40_15:A I
*I vs_36_15:A I
*I vs_34_15:A I
*I vs_32_15:A I
*I vs_26_15:A I
*I vs_24_15:A I
*I vs_22_15:A I
*I vs_21_15:A I
*I vs_20_15:A I
*I vs_18_15:A I
*I vs_17_15:A I
*I vs_15_15:A I
*I vs_10_15:A I
*I vs_9_15:A I
*I vs_2_15:A I
*CAP
1 pgm_lp15:1 9.377391e-02
*RES
1 lt_lp15:Z pgm_lp15:1 1.064130e+02
2 pgm_lp15:1 vs_57_15:A 1.000000e-03
3 pgm_lp15:1 vs_46_15:A 1.000000e-03
4 pgm_lp15:1 vs_42_15:A 1.000000e-03
5 pgm_lp15:1 vs_40_15:A 1.000000e-03
6 pgm_lp15:1 vs_36_15:A 1.000000e-03
7 pgm_lp15:1 vs_34_15:A 1.000000e-03
8 pgm_lp15:1 vs_32_15:A 1.000000e-03
9 pgm_lp15:1 vs_26_15:A 1.000000e-03
10 pgm_lp15:1 vs_24_15:A 1.000000e-03
11 pgm_lp15:1 vs_22_15:A 1.000000e-03
12 pgm_lp15:1 vs_21_15:A 1.000000e-03
13 pgm_lp15:1 vs_20_15:A 1.000000e-03
14 pgm_lp15:1 vs_18_15:A 1.000000e-03
15 pgm_lp15:1 vs_17_15:A 1.000000e-03
16 pgm_lp15:1 vs_15_15:A 1.000000e-03
17 pgm_lp15:1 vs_10_15:A 1.000000e-03
18 pgm_lp15:1 vs_9_15:A 1.000000e-03
19 pgm_lp15:1 vs_2_15:A 1.000000e-03
*END

*D_NET pgm_lp16 9.948811e-02
*CONN
*I lt_lp16:Z O
*I vs_60_16:A I
*I vs_59_16:A I
*I vs_51_16:A I
*I vs_50_16:A I
*I vs_46_16:A I
*I vs_44_16:A I
*I vs_40_16:A I
*I vs_39_16:A I
*I vs_38_16:A I
*I vs_37_16:A I
*I vs_21_16:A I
*I vs_16_16:A I
*I vs_15_16:A I
*I vs_11_16:A I
*I vs_9_16:A I
*I vs_5_16:A I
*CAP
1 pgm_lp16:1 9.948811e-02
*RES
1 lt_lp16:Z pgm_lp16:1 1.117571e+02
2 pgm_lp16:1 vs_60_16:A 1.000000e-03
3 pgm_lp16:1 vs_59_16:A 1.000000e-03
4 pgm_lp16:1 vs_51_16:A 1.000000e-03
5 pgm_lp16:1 vs_50_16:A 1.000000e-03
6 pgm_lp16:1 vs_46_16:A 1.000000e-03
7 pgm_lp16:1 vs_44_16:A 1.000000e-03
8 pgm_lp16:1 vs_40_16:A 1.000000e-03
9 pgm_lp16:1 vs_39_16:A 1.000000e-03
10 pgm_lp16:1 vs_38_16:A 1.000000e-03
11 pgm_lp16:1 vs_37_16:A 1.000000e-03
12 pgm_lp16:1 vs_21_16:A 1.000000e-03
13 pgm_lp16:1 vs_16_16:A 1.000000e-03
14 pgm_lp16:1 vs_15_16:A 1.000000e-03
15 pgm_lp16:1 vs_11_16:A 1.000000e-03
16 pgm_lp16:1 vs_9_16:A 1.000000e-03
17 pgm_lp16:1 vs_5_16:A 1.000000e-03
*END

*D_NET pgm_lp17 1.012662e-01
*CONN
*I lt_lp17:Z O
*I vs_59_17:A I
*I vs_53_17:A I
*I vs_52_17:A I
*I vs_46_17:A I
*I vs_45_17:A I
*I vs_41_17:A I
*I vs_40_17:A I
*I vs_38_17:A I
*I vs_33_17:A I
*I vs_27_17:A I
*I vs_26_17:A I
*I vs_18_17:A I
*I vs_17_17:A I
*I vs_13_17:A I
*I vs_12_17:A I
*I vs_11_17:A I
*I vs_10_17:A I
*I vs_5_17:A I
*I vs_2_17:A I
*I vs_0_17:A I
*CAP
1 pgm_lp17:1 1.012662e-01
*RES
1 lt_lp17:Z pgm_lp17:1 1.149151e+02
2 pgm_lp17:1 vs_59_17:A 1.000000e-03
3 pgm_lp17:1 vs_53_17:A 1.000000e-03
4 pgm_lp17:1 vs_52_17:A 1.000000e-03
5 pgm_lp17:1 vs_46_17:A 1.000000e-03
6 pgm_lp17:1 vs_45_17:A 1.000000e-03
7 pgm_lp17:1 vs_41_17:A 1.000000e-03
8 pgm_lp17:1 vs_40_17:A 1.000000e-03
9 pgm_lp17:1 vs_38_17:A 1.000000e-03
10 pgm_lp17:1 vs_33_17:A 1.000000e-03
11 pgm_lp17:1 vs_27_17:A 1.000000e-03
12 pgm_lp17:1 vs_26_17:A 1.000000e-03
13 pgm_lp17:1 vs_18_17:A 1.000000e-03
14 pgm_lp17:1 vs_17_17:A 1.000000e-03
15 pgm_lp17:1 vs_13_17:A 1.000000e-03
16 pgm_lp17:1 vs_12_17:A 1.000000e-03
17 pgm_lp17:1 vs_11_17:A 1.000000e-03
18 pgm_lp17:1 vs_10_17:A 1.000000e-03
19 pgm_lp17:1 vs_5_17:A 1.000000e-03
20 pgm_lp17:1 vs_2_17:A 1.000000e-03
21 pgm_lp17:1 vs_0_17:A 1.000000e-03
*END

*D_NET pgm_lp18 9.964380e-02
*CONN
*I lt_lp18:Z O
*I vs_63_18:A I
*I vs_59_18:A I
*I vs_58_18:A I
*I vs_49_18:A I
*I vs_47_18:A I
*I vs_38_18:A I
*I vs_37_18:A I
*I vs_34_18:A I
*I vs_28_18:A I
*I vs_27_18:A I
*I vs_21_18:A I
*I vs_16_18:A I
*I vs_12_18:A I
*I vs_6_18:A I
*CAP
1 pgm_lp18:1 9.964380e-02
*RES
1 lt_lp18:Z pgm_lp18:1 1.115134e+02
2 pgm_lp18:1 vs_63_18:A 1.000000e-03
3 pgm_lp18:1 vs_59_18:A 1.000000e-03
4 pgm_lp18:1 vs_58_18:A 1.000000e-03
5 pgm_lp18:1 vs_49_18:A 1.000000e-03
6 pgm_lp18:1 vs_47_18:A 1.000000e-03
7 pgm_lp18:1 vs_38_18:A 1.000000e-03
8 pgm_lp18:1 vs_37_18:A 1.000000e-03
9 pgm_lp18:1 vs_34_18:A 1.000000e-03
10 pgm_lp18:1 vs_28_18:A 1.000000e-03
11 pgm_lp18:1 vs_27_18:A 1.000000e-03
12 pgm_lp18:1 vs_21_18:A 1.000000e-03
13 pgm_lp18:1 vs_16_18:A 1.000000e-03
14 pgm_lp18:1 vs_12_18:A 1.000000e-03
15 pgm_lp18:1 vs_6_18:A 1.000000e-03
*END

*D_NET pgm_lp19 8.833761e-02
*CONN
*I lt_lp19:Z O
*I vs_63_19:A I
*I vs_59_19:A I
*I vs_57_19:A I
*I vs_53_19:A I
*I vs_46_19:A I
*I vs_43_19:A I
*I vs_37_19:A I
*I vs_33_19:A I
*I vs_30_19:A I
*I vs_28_19:A I
*I vs_24_19:A I
*I vs_21_19:A I
*I vs_18_19:A I
*I vs_16_19:A I
*I vs_15_19:A I
*I vs_14_19:A I
*CAP
1 pgm_lp19:1 8.833761e-02
*RES
1 lt_lp19:Z pgm_lp19:1 1.002439e+02
2 pgm_lp19:1 vs_63_19:A 1.000000e-03
3 pgm_lp19:1 vs_59_19:A 1.000000e-03
4 pgm_lp19:1 vs_57_19:A 1.000000e-03
5 pgm_lp19:1 vs_53_19:A 1.000000e-03
6 pgm_lp19:1 vs_46_19:A 1.000000e-03
7 pgm_lp19:1 vs_43_19:A 1.000000e-03
8 pgm_lp19:1 vs_37_19:A 1.000000e-03
9 pgm_lp19:1 vs_33_19:A 1.000000e-03
10 pgm_lp19:1 vs_30_19:A 1.000000e-03
11 pgm_lp19:1 vs_28_19:A 1.000000e-03
12 pgm_lp19:1 vs_24_19:A 1.000000e-03
13 pgm_lp19:1 vs_21_19:A 1.000000e-03
14 pgm_lp19:1 vs_18_19:A 1.000000e-03
15 pgm_lp19:1 vs_16_19:A 1.000000e-03
16 pgm_lp19:1 vs_15_19:A 1.000000e-03
17 pgm_lp19:1 vs_14_19:A 1.000000e-03
*END

*D_NET pgm_lp2 1.011031e-01
*CONN
*I lt_lp2:Z O
*I vs_61_2:A I
*I vs_60_2:A I
*I vs_54_2:A I
*I vs_53_2:A I
*I vs_52_2:A I
*I vs_51_2:A I
*I vs_49_2:A I
*I vs_48_2:A I
*I vs_45_2:A I
*I vs_39_2:A I
*I vs_33_2:A I
*I vs_22_2:A I
*I vs_15_2:A I
*I vs_13_2:A I
*I vs_11_2:A I
*I vs_7_2:A I
*I vs_5_2:A I
*CAP
1 pgm_lp2:1 1.011031e-01
*RES
1 lt_lp2:Z pgm_lp2:1 1.137338e+02
2 pgm_lp2:1 vs_61_2:A 1.000000e-03
3 pgm_lp2:1 vs_60_2:A 1.000000e-03
4 pgm_lp2:1 vs_54_2:A 1.000000e-03
5 pgm_lp2:1 vs_53_2:A 1.000000e-03
6 pgm_lp2:1 vs_52_2:A 1.000000e-03
7 pgm_lp2:1 vs_51_2:A 1.000000e-03
8 pgm_lp2:1 vs_49_2:A 1.000000e-03
9 pgm_lp2:1 vs_48_2:A 1.000000e-03
10 pgm_lp2:1 vs_45_2:A 1.000000e-03
11 pgm_lp2:1 vs_39_2:A 1.000000e-03
12 pgm_lp2:1 vs_33_2:A 1.000000e-03
13 pgm_lp2:1 vs_22_2:A 1.000000e-03
14 pgm_lp2:1 vs_15_2:A 1.000000e-03
15 pgm_lp2:1 vs_13_2:A 1.000000e-03
16 pgm_lp2:1 vs_11_2:A 1.000000e-03
17 pgm_lp2:1 vs_7_2:A 1.000000e-03
18 pgm_lp2:1 vs_5_2:A 1.000000e-03
*END

*D_NET pgm_lp20 1.062371e-01
*CONN
*I lt_lp20:Z O
*I vs_63_20:A I
*I vs_62_20:A I
*I vs_61_20:A I
*I vs_57_20:A I
*I vs_55_20:A I
*I vs_54_20:A I
*I vs_44_20:A I
*I vs_43_20:A I
*I vs_21_20:A I
*I vs_18_20:A I
*I vs_13_20:A I
*I vs_12_20:A I
*I vs_6_20:A I
*I vs_5_20:A I
*I vs_4_20:A I
*CAP
1 pgm_lp20:1 1.062371e-01
*RES
1 lt_lp20:Z pgm_lp20:1 1.185635e+02
2 pgm_lp20:1 vs_63_20:A 1.000000e-03
3 pgm_lp20:1 vs_62_20:A 1.000000e-03
4 pgm_lp20:1 vs_61_20:A 1.000000e-03
5 pgm_lp20:1 vs_57_20:A 1.000000e-03
6 pgm_lp20:1 vs_55_20:A 1.000000e-03
7 pgm_lp20:1 vs_54_20:A 1.000000e-03
8 pgm_lp20:1 vs_44_20:A 1.000000e-03
9 pgm_lp20:1 vs_43_20:A 1.000000e-03
10 pgm_lp20:1 vs_21_20:A 1.000000e-03
11 pgm_lp20:1 vs_18_20:A 1.000000e-03
12 pgm_lp20:1 vs_13_20:A 1.000000e-03
13 pgm_lp20:1 vs_12_20:A 1.000000e-03
14 pgm_lp20:1 vs_6_20:A 1.000000e-03
15 pgm_lp20:1 vs_5_20:A 1.000000e-03
16 pgm_lp20:1 vs_4_20:A 1.000000e-03
*END

*D_NET pgm_lp21 1.130405e-01
*CONN
*I lt_lp21:Z O
*I vs_61_21:A I
*I vs_55_21:A I
*I vs_52_21:A I
*I vs_50_21:A I
*I vs_49_21:A I
*I vs_48_21:A I
*I vs_47_21:A I
*I vs_46_21:A I
*I vs_45_21:A I
*I vs_40_21:A I
*I vs_39_21:A I
*I vs_37_21:A I
*I vs_36_21:A I
*I vs_35_21:A I
*I vs_32_21:A I
*I vs_31_21:A I
*I vs_25_21:A I
*I vs_24_21:A I
*I vs_22_21:A I
*I vs_11_21:A I
*I vs_6_21:A I
*I vs_5_21:A I
*I vs_1_21:A I
*I vs_0_21:A I
*CAP
1 pgm_lp21:1 1.130405e-01
*RES
1 lt_lp21:Z pgm_lp21:1 1.267158e+02
2 pgm_lp21:1 vs_61_21:A 1.000000e-03
3 pgm_lp21:1 vs_55_21:A 1.000000e-03
4 pgm_lp21:1 vs_52_21:A 1.000000e-03
5 pgm_lp21:1 vs_50_21:A 1.000000e-03
6 pgm_lp21:1 vs_49_21:A 1.000000e-03
7 pgm_lp21:1 vs_48_21:A 1.000000e-03
8 pgm_lp21:1 vs_47_21:A 1.000000e-03
9 pgm_lp21:1 vs_46_21:A 1.000000e-03
10 pgm_lp21:1 vs_45_21:A 1.000000e-03
11 pgm_lp21:1 vs_40_21:A 1.000000e-03
12 pgm_lp21:1 vs_39_21:A 1.000000e-03
13 pgm_lp21:1 vs_37_21:A 1.000000e-03
14 pgm_lp21:1 vs_36_21:A 1.000000e-03
15 pgm_lp21:1 vs_35_21:A 1.000000e-03
16 pgm_lp21:1 vs_32_21:A 1.000000e-03
17 pgm_lp21:1 vs_31_21:A 1.000000e-03
18 pgm_lp21:1 vs_25_21:A 1.000000e-03
19 pgm_lp21:1 vs_24_21:A 1.000000e-03
20 pgm_lp21:1 vs_22_21:A 1.000000e-03
21 pgm_lp21:1 vs_11_21:A 1.000000e-03
22 pgm_lp21:1 vs_6_21:A 1.000000e-03
23 pgm_lp21:1 vs_5_21:A 1.000000e-03
24 pgm_lp21:1 vs_1_21:A 1.000000e-03
25 pgm_lp21:1 vs_0_21:A 1.000000e-03
*END

*D_NET pgm_lp22 1.045836e-01
*CONN
*I lt_lp22:Z O
*I vs_61_22:A I
*I vs_56_22:A I
*I vs_49_22:A I
*I vs_40_22:A I
*I vs_29_22:A I
*I vs_27_22:A I
*I vs_20_22:A I
*I vs_18_22:A I
*I vs_8_22:A I
*I vs_1_22:A I
*I vs_0_22:A I
*CAP
1 pgm_lp22:1 1.045836e-01
*RES
1 lt_lp22:Z pgm_lp22:1 1.165431e+02
2 pgm_lp22:1 vs_61_22:A 1.000000e-03
3 pgm_lp22:1 vs_56_22:A 1.000000e-03
4 pgm_lp22:1 vs_49_22:A 1.000000e-03
5 pgm_lp22:1 vs_40_22:A 1.000000e-03
6 pgm_lp22:1 vs_29_22:A 1.000000e-03
7 pgm_lp22:1 vs_27_22:A 1.000000e-03
8 pgm_lp22:1 vs_20_22:A 1.000000e-03
9 pgm_lp22:1 vs_18_22:A 1.000000e-03
10 pgm_lp22:1 vs_8_22:A 1.000000e-03
11 pgm_lp22:1 vs_1_22:A 1.000000e-03
12 pgm_lp22:1 vs_0_22:A 1.000000e-03
*END

*D_NET pgm_lp23 1.069899e-01
*CONN
*I lt_lp23:Z O
*I vs_63_23:A I
*I vs_58_23:A I
*I vs_56_23:A I
*I vs_54_23:A I
*I vs_53_23:A I
*I vs_50_23:A I
*I vs_46_23:A I
*I vs_43_23:A I
*I vs_34_23:A I
*I vs_31_23:A I
*I vs_29_23:A I
*I vs_28_23:A I
*I vs_26_23:A I
*I vs_25_23:A I
*I vs_23_23:A I
*I vs_21_23:A I
*I vs_12_23:A I
*I vs_10_23:A I
*I vs_9_23:A I
*I vs_6_23:A I
*I vs_4_23:A I
*CAP
1 pgm_lp23:1 1.069899e-01
*RES
1 lt_lp23:Z pgm_lp23:1 1.214102e+02
2 pgm_lp23:1 vs_63_23:A 1.000000e-03
3 pgm_lp23:1 vs_58_23:A 1.000000e-03
4 pgm_lp23:1 vs_56_23:A 1.000000e-03
5 pgm_lp23:1 vs_54_23:A 1.000000e-03
6 pgm_lp23:1 vs_53_23:A 1.000000e-03
7 pgm_lp23:1 vs_50_23:A 1.000000e-03
8 pgm_lp23:1 vs_46_23:A 1.000000e-03
9 pgm_lp23:1 vs_43_23:A 1.000000e-03
10 pgm_lp23:1 vs_34_23:A 1.000000e-03
11 pgm_lp23:1 vs_31_23:A 1.000000e-03
12 pgm_lp23:1 vs_29_23:A 1.000000e-03
13 pgm_lp23:1 vs_28_23:A 1.000000e-03
14 pgm_lp23:1 vs_26_23:A 1.000000e-03
15 pgm_lp23:1 vs_25_23:A 1.000000e-03
16 pgm_lp23:1 vs_23_23:A 1.000000e-03
17 pgm_lp23:1 vs_21_23:A 1.000000e-03
18 pgm_lp23:1 vs_12_23:A 1.000000e-03
19 pgm_lp23:1 vs_10_23:A 1.000000e-03
20 pgm_lp23:1 vs_9_23:A 1.000000e-03
21 pgm_lp23:1 vs_6_23:A 1.000000e-03
22 pgm_lp23:1 vs_4_23:A 1.000000e-03
*END

*D_NET pgm_lp24 1.046933e-01
*CONN
*I lt_lp24:Z O
*I vs_60_24:A I
*I vs_57_24:A I
*I vs_56_24:A I
*I vs_53_24:A I
*I vs_51_24:A I
*I vs_49_24:A I
*I vs_44_24:A I
*I vs_42_24:A I
*I vs_40_24:A I
*I vs_38_24:A I
*I vs_37_24:A I
*I vs_32_24:A I
*I vs_29_24:A I
*I vs_24_24:A I
*I vs_23_24:A I
*I vs_20_24:A I
*I vs_17_24:A I
*I vs_13_24:A I
*I vs_11_24:A I
*I vs_9_24:A I
*I vs_6_24:A I
*I vs_3_24:A I
*I vs_0_24:A I
*CAP
1 pgm_lp24:1 1.046933e-01
*RES
1 lt_lp24:Z pgm_lp24:1 1.176755e+02
2 pgm_lp24:1 vs_60_24:A 1.000000e-03
3 pgm_lp24:1 vs_57_24:A 1.000000e-03
4 pgm_lp24:1 vs_56_24:A 1.000000e-03
5 pgm_lp24:1 vs_53_24:A 1.000000e-03
6 pgm_lp24:1 vs_51_24:A 1.000000e-03
7 pgm_lp24:1 vs_49_24:A 1.000000e-03
8 pgm_lp24:1 vs_44_24:A 1.000000e-03
9 pgm_lp24:1 vs_42_24:A 1.000000e-03
10 pgm_lp24:1 vs_40_24:A 1.000000e-03
11 pgm_lp24:1 vs_38_24:A 1.000000e-03
12 pgm_lp24:1 vs_37_24:A 1.000000e-03
13 pgm_lp24:1 vs_32_24:A 1.000000e-03
14 pgm_lp24:1 vs_29_24:A 1.000000e-03
15 pgm_lp24:1 vs_24_24:A 1.000000e-03
16 pgm_lp24:1 vs_23_24:A 1.000000e-03
17 pgm_lp24:1 vs_20_24:A 1.000000e-03
18 pgm_lp24:1 vs_17_24:A 1.000000e-03
19 pgm_lp24:1 vs_13_24:A 1.000000e-03
20 pgm_lp24:1 vs_11_24:A 1.000000e-03
21 pgm_lp24:1 vs_9_24:A 1.000000e-03
22 pgm_lp24:1 vs_6_24:A 1.000000e-03
23 pgm_lp24:1 vs_3_24:A 1.000000e-03
24 pgm_lp24:1 vs_0_24:A 1.000000e-03
*END

*D_NET pgm_lp25 1.121665e-01
*CONN
*I lt_lp25:Z O
*I vs_62_25:A I
*I vs_57_25:A I
*I vs_55_25:A I
*I vs_49_25:A I
*I vs_45_25:A I
*I vs_38_25:A I
*I vs_35_25:A I
*I vs_26_25:A I
*I vs_22_25:A I
*I vs_14_25:A I
*I vs_10_25:A I
*I vs_8_25:A I
*I vs_7_25:A I
*I vs_4_25:A I
*I vs_2_25:A I
*I vs_1_25:A I
*CAP
1 pgm_lp25:1 1.121665e-01
*RES
1 lt_lp25:Z pgm_lp25:1 1.257240e+02
2 pgm_lp25:1 vs_62_25:A 1.000000e-03
3 pgm_lp25:1 vs_57_25:A 1.000000e-03
4 pgm_lp25:1 vs_55_25:A 1.000000e-03
5 pgm_lp25:1 vs_49_25:A 1.000000e-03
6 pgm_lp25:1 vs_45_25:A 1.000000e-03
7 pgm_lp25:1 vs_38_25:A 1.000000e-03
8 pgm_lp25:1 vs_35_25:A 1.000000e-03
9 pgm_lp25:1 vs_26_25:A 1.000000e-03
10 pgm_lp25:1 vs_22_25:A 1.000000e-03
11 pgm_lp25:1 vs_14_25:A 1.000000e-03
12 pgm_lp25:1 vs_10_25:A 1.000000e-03
13 pgm_lp25:1 vs_8_25:A 1.000000e-03
14 pgm_lp25:1 vs_7_25:A 1.000000e-03
15 pgm_lp25:1 vs_4_25:A 1.000000e-03
16 pgm_lp25:1 vs_2_25:A 1.000000e-03
17 pgm_lp25:1 vs_1_25:A 1.000000e-03
*END

*D_NET pgm_lp26 9.771340e-02
*CONN
*I lt_lp26:Z O
*I vs_62_26:A I
*I vs_60_26:A I
*I vs_57_26:A I
*I vs_56_26:A I
*I vs_54_26:A I
*I vs_47_26:A I
*I vs_44_26:A I
*I vs_36_26:A I
*I vs_20_26:A I
*I vs_16_26:A I
*I vs_13_26:A I
*I vs_9_26:A I
*I vs_8_26:A I
*I vs_7_26:A I
*I vs_5_26:A I
*CAP
1 pgm_lp26:1 9.771340e-02
*RES
1 lt_lp26:Z pgm_lp26:1 1.082023e+02
2 pgm_lp26:1 vs_62_26:A 1.000000e-03
3 pgm_lp26:1 vs_60_26:A 1.000000e-03
4 pgm_lp26:1 vs_57_26:A 1.000000e-03
5 pgm_lp26:1 vs_56_26:A 1.000000e-03
6 pgm_lp26:1 vs_54_26:A 1.000000e-03
7 pgm_lp26:1 vs_47_26:A 1.000000e-03
8 pgm_lp26:1 vs_44_26:A 1.000000e-03
9 pgm_lp26:1 vs_36_26:A 1.000000e-03
10 pgm_lp26:1 vs_20_26:A 1.000000e-03
11 pgm_lp26:1 vs_16_26:A 1.000000e-03
12 pgm_lp26:1 vs_13_26:A 1.000000e-03
13 pgm_lp26:1 vs_9_26:A 1.000000e-03
14 pgm_lp26:1 vs_8_26:A 1.000000e-03
15 pgm_lp26:1 vs_7_26:A 1.000000e-03
16 pgm_lp26:1 vs_5_26:A 1.000000e-03
*END

*D_NET pgm_lp27 1.049998e-01
*CONN
*I lt_lp27:Z O
*I vs_63_27:A I
*I vs_53_27:A I
*I vs_52_27:A I
*I vs_41_27:A I
*I vs_37_27:A I
*I vs_31_27:A I
*I vs_29_27:A I
*I vs_27_27:A I
*I vs_22_27:A I
*I vs_19_27:A I
*I vs_17_27:A I
*I vs_16_27:A I
*I vs_13_27:A I
*I vs_12_27:A I
*I vs_9_27:A I
*I vs_8_27:A I
*I vs_7_27:A I
*I vs_1_27:A I
*CAP
1 pgm_lp27:1 1.049998e-01
*RES
1 lt_lp27:Z pgm_lp27:1 1.184436e+02
2 pgm_lp27:1 vs_63_27:A 1.000000e-03
3 pgm_lp27:1 vs_53_27:A 1.000000e-03
4 pgm_lp27:1 vs_52_27:A 1.000000e-03
5 pgm_lp27:1 vs_41_27:A 1.000000e-03
6 pgm_lp27:1 vs_37_27:A 1.000000e-03
7 pgm_lp27:1 vs_31_27:A 1.000000e-03
8 pgm_lp27:1 vs_29_27:A 1.000000e-03
9 pgm_lp27:1 vs_27_27:A 1.000000e-03
10 pgm_lp27:1 vs_22_27:A 1.000000e-03
11 pgm_lp27:1 vs_19_27:A 1.000000e-03
12 pgm_lp27:1 vs_17_27:A 1.000000e-03
13 pgm_lp27:1 vs_16_27:A 1.000000e-03
14 pgm_lp27:1 vs_13_27:A 1.000000e-03
15 pgm_lp27:1 vs_12_27:A 1.000000e-03
16 pgm_lp27:1 vs_9_27:A 1.000000e-03
17 pgm_lp27:1 vs_8_27:A 1.000000e-03
18 pgm_lp27:1 vs_7_27:A 1.000000e-03
19 pgm_lp27:1 vs_1_27:A 1.000000e-03
*END

*D_NET pgm_lp28 1.070979e-01
*CONN
*I lt_lp28:Z O
*I vs_63_28:A I
*I vs_61_28:A I
*I vs_54_28:A I
*I vs_53_28:A I
*I vs_50_28:A I
*I vs_48_28:A I
*I vs_47_28:A I
*I vs_41_28:A I
*I vs_39_28:A I
*I vs_38_28:A I
*I vs_34_28:A I
*I vs_32_28:A I
*I vs_31_28:A I
*I vs_29_28:A I
*I vs_18_28:A I
*I vs_17_28:A I
*I vs_14_28:A I
*I vs_13_28:A I
*I vs_12_28:A I
*I vs_7_28:A I
*I vs_2_28:A I
*CAP
1 pgm_lp28:1 1.070979e-01
*RES
1 lt_lp28:Z pgm_lp28:1 1.185695e+02
2 pgm_lp28:1 vs_63_28:A 1.000000e-03
3 pgm_lp28:1 vs_61_28:A 1.000000e-03
4 pgm_lp28:1 vs_54_28:A 1.000000e-03
5 pgm_lp28:1 vs_53_28:A 1.000000e-03
6 pgm_lp28:1 vs_50_28:A 1.000000e-03
7 pgm_lp28:1 vs_48_28:A 1.000000e-03
8 pgm_lp28:1 vs_47_28:A 1.000000e-03
9 pgm_lp28:1 vs_41_28:A 1.000000e-03
10 pgm_lp28:1 vs_39_28:A 1.000000e-03
11 pgm_lp28:1 vs_38_28:A 1.000000e-03
12 pgm_lp28:1 vs_34_28:A 1.000000e-03
13 pgm_lp28:1 vs_32_28:A 1.000000e-03
14 pgm_lp28:1 vs_31_28:A 1.000000e-03
15 pgm_lp28:1 vs_29_28:A 1.000000e-03
16 pgm_lp28:1 vs_18_28:A 1.000000e-03
17 pgm_lp28:1 vs_17_28:A 1.000000e-03
18 pgm_lp28:1 vs_14_28:A 1.000000e-03
19 pgm_lp28:1 vs_13_28:A 1.000000e-03
20 pgm_lp28:1 vs_12_28:A 1.000000e-03
21 pgm_lp28:1 vs_7_28:A 1.000000e-03
22 pgm_lp28:1 vs_2_28:A 1.000000e-03
*END

*D_NET pgm_lp29 1.096858e-01
*CONN
*I lt_lp29:Z O
*I vs_63_29:A I
*I vs_53_29:A I
*I vs_52_29:A I
*I vs_50_29:A I
*I vs_47_29:A I
*I vs_44_29:A I
*I vs_32_29:A I
*I vs_31_29:A I
*I vs_27_29:A I
*I vs_25_29:A I
*I vs_20_29:A I
*I vs_19_29:A I
*I vs_13_29:A I
*I vs_12_29:A I
*I vs_11_29:A I
*I vs_8_29:A I
*I vs_7_29:A I
*I vs_1_29:A I
*I vs_0_29:A I
*CAP
1 pgm_lp29:1 1.096858e-01
*RES
1 lt_lp29:Z pgm_lp29:1 1.244695e+02
2 pgm_lp29:1 vs_63_29:A 1.000000e-03
3 pgm_lp29:1 vs_53_29:A 1.000000e-03
4 pgm_lp29:1 vs_52_29:A 1.000000e-03
5 pgm_lp29:1 vs_50_29:A 1.000000e-03
6 pgm_lp29:1 vs_47_29:A 1.000000e-03
7 pgm_lp29:1 vs_44_29:A 1.000000e-03
8 pgm_lp29:1 vs_32_29:A 1.000000e-03
9 pgm_lp29:1 vs_31_29:A 1.000000e-03
10 pgm_lp29:1 vs_27_29:A 1.000000e-03
11 pgm_lp29:1 vs_25_29:A 1.000000e-03
12 pgm_lp29:1 vs_20_29:A 1.000000e-03
13 pgm_lp29:1 vs_19_29:A 1.000000e-03
14 pgm_lp29:1 vs_13_29:A 1.000000e-03
15 pgm_lp29:1 vs_12_29:A 1.000000e-03
16 pgm_lp29:1 vs_11_29:A 1.000000e-03
17 pgm_lp29:1 vs_8_29:A 1.000000e-03
18 pgm_lp29:1 vs_7_29:A 1.000000e-03
19 pgm_lp29:1 vs_1_29:A 1.000000e-03
20 pgm_lp29:1 vs_0_29:A 1.000000e-03
*END

*D_NET pgm_lp3 1.170486e-01
*CONN
*I lt_lp3:Z O
*I vs_60_3:A I
*I vs_59_3:A I
*I vs_57_3:A I
*I vs_50_3:A I
*I vs_47_3:A I
*I vs_46_3:A I
*I vs_45_3:A I
*I vs_42_3:A I
*I vs_41_3:A I
*I vs_34_3:A I
*I vs_32_3:A I
*I vs_30_3:A I
*I vs_22_3:A I
*I vs_12_3:A I
*I vs_10_3:A I
*I vs_8_3:A I
*I vs_6_3:A I
*I vs_4_3:A I
*I vs_2_3:A I
*I vs_1_3:A I
*I vs_0_3:A I
*CAP
1 pgm_lp3:1 1.170486e-01
*RES
1 lt_lp3:Z pgm_lp3:1 1.294916e+02
2 pgm_lp3:1 vs_60_3:A 1.000000e-03
3 pgm_lp3:1 vs_59_3:A 1.000000e-03
4 pgm_lp3:1 vs_57_3:A 1.000000e-03
5 pgm_lp3:1 vs_50_3:A 1.000000e-03
6 pgm_lp3:1 vs_47_3:A 1.000000e-03
7 pgm_lp3:1 vs_46_3:A 1.000000e-03
8 pgm_lp3:1 vs_45_3:A 1.000000e-03
9 pgm_lp3:1 vs_42_3:A 1.000000e-03
10 pgm_lp3:1 vs_41_3:A 1.000000e-03
11 pgm_lp3:1 vs_34_3:A 1.000000e-03
12 pgm_lp3:1 vs_32_3:A 1.000000e-03
13 pgm_lp3:1 vs_30_3:A 1.000000e-03
14 pgm_lp3:1 vs_22_3:A 1.000000e-03
15 pgm_lp3:1 vs_12_3:A 1.000000e-03
16 pgm_lp3:1 vs_10_3:A 1.000000e-03
17 pgm_lp3:1 vs_8_3:A 1.000000e-03
18 pgm_lp3:1 vs_6_3:A 1.000000e-03
19 pgm_lp3:1 vs_4_3:A 1.000000e-03
20 pgm_lp3:1 vs_2_3:A 1.000000e-03
21 pgm_lp3:1 vs_1_3:A 1.000000e-03
22 pgm_lp3:1 vs_0_3:A 1.000000e-03
*END

*D_NET pgm_lp30 1.100234e-01
*CONN
*I lt_lp30:Z O
*I vs_62_30:A I
*I vs_59_30:A I
*I vs_57_30:A I
*I vs_56_30:A I
*I vs_55_30:A I
*I vs_48_30:A I
*I vs_47_30:A I
*I vs_44_30:A I
*I vs_41_30:A I
*I vs_40_30:A I
*I vs_39_30:A I
*I vs_34_30:A I
*I vs_32_30:A I
*I vs_26_30:A I
*I vs_22_30:A I
*I vs_21_30:A I
*I vs_18_30:A I
*I vs_14_30:A I
*I vs_12_30:A I
*I vs_10_30:A I
*I vs_9_30:A I
*I vs_7_30:A I
*I vs_5_30:A I
*I vs_4_30:A I
*I vs_2_30:A I
*CAP
1 pgm_lp30:1 1.100234e-01
*RES
1 lt_lp30:Z pgm_lp30:1 1.238563e+02
2 pgm_lp30:1 vs_62_30:A 1.000000e-03
3 pgm_lp30:1 vs_59_30:A 1.000000e-03
4 pgm_lp30:1 vs_57_30:A 1.000000e-03
5 pgm_lp30:1 vs_56_30:A 1.000000e-03
6 pgm_lp30:1 vs_55_30:A 1.000000e-03
7 pgm_lp30:1 vs_48_30:A 1.000000e-03
8 pgm_lp30:1 vs_47_30:A 1.000000e-03
9 pgm_lp30:1 vs_44_30:A 1.000000e-03
10 pgm_lp30:1 vs_41_30:A 1.000000e-03
11 pgm_lp30:1 vs_40_30:A 1.000000e-03
12 pgm_lp30:1 vs_39_30:A 1.000000e-03
13 pgm_lp30:1 vs_34_30:A 1.000000e-03
14 pgm_lp30:1 vs_32_30:A 1.000000e-03
15 pgm_lp30:1 vs_26_30:A 1.000000e-03
16 pgm_lp30:1 vs_22_30:A 1.000000e-03
17 pgm_lp30:1 vs_21_30:A 1.000000e-03
18 pgm_lp30:1 vs_18_30:A 1.000000e-03
19 pgm_lp30:1 vs_14_30:A 1.000000e-03
20 pgm_lp30:1 vs_12_30:A 1.000000e-03
21 pgm_lp30:1 vs_10_30:A 1.000000e-03
22 pgm_lp30:1 vs_9_30:A 1.000000e-03
23 pgm_lp30:1 vs_7_30:A 1.000000e-03
24 pgm_lp30:1 vs_5_30:A 1.000000e-03
25 pgm_lp30:1 vs_4_30:A 1.000000e-03
26 pgm_lp30:1 vs_2_30:A 1.000000e-03
*END

*D_NET pgm_lp31 1.036303e-01
*CONN
*I lt_lp31:Z O
*I vs_63_31:A I
*I vs_60_31:A I
*I vs_55_31:A I
*I vs_54_31:A I
*I vs_47_31:A I
*I vs_46_31:A I
*I vs_40_31:A I
*I vs_39_31:A I
*I vs_34_31:A I
*I vs_33_31:A I
*I vs_32_31:A I
*I vs_29_31:A I
*I vs_28_31:A I
*I vs_27_31:A I
*I vs_23_31:A I
*I vs_21_31:A I
*I vs_14_31:A I
*I vs_8_31:A I
*I vs_2_31:A I
*CAP
1 pgm_lp31:1 1.036303e-01
*RES
1 lt_lp31:Z pgm_lp31:1 1.175979e+02
2 pgm_lp31:1 vs_63_31:A 1.000000e-03
3 pgm_lp31:1 vs_60_31:A 1.000000e-03
4 pgm_lp31:1 vs_55_31:A 1.000000e-03
5 pgm_lp31:1 vs_54_31:A 1.000000e-03
6 pgm_lp31:1 vs_47_31:A 1.000000e-03
7 pgm_lp31:1 vs_46_31:A 1.000000e-03
8 pgm_lp31:1 vs_40_31:A 1.000000e-03
9 pgm_lp31:1 vs_39_31:A 1.000000e-03
10 pgm_lp31:1 vs_34_31:A 1.000000e-03
11 pgm_lp31:1 vs_33_31:A 1.000000e-03
12 pgm_lp31:1 vs_32_31:A 1.000000e-03
13 pgm_lp31:1 vs_29_31:A 1.000000e-03
14 pgm_lp31:1 vs_28_31:A 1.000000e-03
15 pgm_lp31:1 vs_27_31:A 1.000000e-03
16 pgm_lp31:1 vs_23_31:A 1.000000e-03
17 pgm_lp31:1 vs_21_31:A 1.000000e-03
18 pgm_lp31:1 vs_14_31:A 1.000000e-03
19 pgm_lp31:1 vs_8_31:A 1.000000e-03
20 pgm_lp31:1 vs_2_31:A 1.000000e-03
*END

*D_NET pgm_lp32 1.119270e-01
*CONN
*I lt_lp32:Z O
*I vs_62_32:A I
*I vs_60_32:A I
*I vs_59_32:A I
*I vs_58_32:A I
*I vs_54_32:A I
*I vs_48_32:A I
*I vs_45_32:A I
*I vs_44_32:A I
*I vs_41_32:A I
*I vs_38_32:A I
*I vs_36_32:A I
*I vs_32_32:A I
*I vs_29_32:A I
*I vs_26_32:A I
*I vs_25_32:A I
*I vs_23_32:A I
*I vs_22_32:A I
*I vs_19_32:A I
*I vs_14_32:A I
*I vs_12_32:A I
*I vs_5_32:A I
*I vs_1_32:A I
*CAP
1 pgm_lp32:1 1.119270e-01
*RES
1 lt_lp32:Z pgm_lp32:1 1.255962e+02
2 pgm_lp32:1 vs_62_32:A 1.000000e-03
3 pgm_lp32:1 vs_60_32:A 1.000000e-03
4 pgm_lp32:1 vs_59_32:A 1.000000e-03
5 pgm_lp32:1 vs_58_32:A 1.000000e-03
6 pgm_lp32:1 vs_54_32:A 1.000000e-03
7 pgm_lp32:1 vs_48_32:A 1.000000e-03
8 pgm_lp32:1 vs_45_32:A 1.000000e-03
9 pgm_lp32:1 vs_44_32:A 1.000000e-03
10 pgm_lp32:1 vs_41_32:A 1.000000e-03
11 pgm_lp32:1 vs_38_32:A 1.000000e-03
12 pgm_lp32:1 vs_36_32:A 1.000000e-03
13 pgm_lp32:1 vs_32_32:A 1.000000e-03
14 pgm_lp32:1 vs_29_32:A 1.000000e-03
15 pgm_lp32:1 vs_26_32:A 1.000000e-03
16 pgm_lp32:1 vs_25_32:A 1.000000e-03
17 pgm_lp32:1 vs_23_32:A 1.000000e-03
18 pgm_lp32:1 vs_22_32:A 1.000000e-03
19 pgm_lp32:1 vs_19_32:A 1.000000e-03
20 pgm_lp32:1 vs_14_32:A 1.000000e-03
21 pgm_lp32:1 vs_12_32:A 1.000000e-03
22 pgm_lp32:1 vs_5_32:A 1.000000e-03
23 pgm_lp32:1 vs_1_32:A 1.000000e-03
*END

*D_NET pgm_lp33 1.004069e-01
*CONN
*I lt_lp33:Z O
*I vs_61_33:A I
*I vs_60_33:A I
*I vs_58_33:A I
*I vs_55_33:A I
*I vs_53_33:A I
*I vs_50_33:A I
*I vs_49_33:A I
*I vs_48_33:A I
*I vs_46_33:A I
*I vs_42_33:A I
*I vs_32_33:A I
*I vs_31_33:A I
*I vs_25_33:A I
*I vs_23_33:A I
*I vs_21_33:A I
*I vs_20_33:A I
*I vs_16_33:A I
*I vs_9_33:A I
*I vs_4_33:A I
*I vs_3_33:A I
*CAP
1 pgm_lp33:1 1.004069e-01
*RES
1 lt_lp33:Z pgm_lp33:1 1.129437e+02
2 pgm_lp33:1 vs_61_33:A 1.000000e-03
3 pgm_lp33:1 vs_60_33:A 1.000000e-03
4 pgm_lp33:1 vs_58_33:A 1.000000e-03
5 pgm_lp33:1 vs_55_33:A 1.000000e-03
6 pgm_lp33:1 vs_53_33:A 1.000000e-03
7 pgm_lp33:1 vs_50_33:A 1.000000e-03
8 pgm_lp33:1 vs_49_33:A 1.000000e-03
9 pgm_lp33:1 vs_48_33:A 1.000000e-03
10 pgm_lp33:1 vs_46_33:A 1.000000e-03
11 pgm_lp33:1 vs_42_33:A 1.000000e-03
12 pgm_lp33:1 vs_32_33:A 1.000000e-03
13 pgm_lp33:1 vs_31_33:A 1.000000e-03
14 pgm_lp33:1 vs_25_33:A 1.000000e-03
15 pgm_lp33:1 vs_23_33:A 1.000000e-03
16 pgm_lp33:1 vs_21_33:A 1.000000e-03
17 pgm_lp33:1 vs_20_33:A 1.000000e-03
18 pgm_lp33:1 vs_16_33:A 1.000000e-03
19 pgm_lp33:1 vs_9_33:A 1.000000e-03
20 pgm_lp33:1 vs_4_33:A 1.000000e-03
21 pgm_lp33:1 vs_3_33:A 1.000000e-03
*END

*D_NET pgm_lp34 1.049151e-01
*CONN
*I lt_lp34:Z O
*I vs_60_34:A I
*I vs_56_34:A I
*I vs_53_34:A I
*I vs_52_34:A I
*I vs_49_34:A I
*I vs_46_34:A I
*I vs_42_34:A I
*I vs_39_34:A I
*I vs_38_34:A I
*I vs_37_34:A I
*I vs_34_34:A I
*I vs_33_34:A I
*I vs_32_34:A I
*I vs_31_34:A I
*I vs_30_34:A I
*I vs_27_34:A I
*I vs_26_34:A I
*I vs_22_34:A I
*I vs_20_34:A I
*I vs_16_34:A I
*I vs_14_34:A I
*I vs_12_34:A I
*I vs_9_34:A I
*I vs_8_34:A I
*I vs_7_34:A I
*I vs_5_34:A I
*I vs_4_34:A I
*I vs_3_34:A I
*I vs_2_34:A I
*CAP
1 pgm_lp34:1 1.049151e-01
*RES
1 lt_lp34:Z pgm_lp34:1 1.177831e+02
2 pgm_lp34:1 vs_60_34:A 1.000000e-03
3 pgm_lp34:1 vs_56_34:A 1.000000e-03
4 pgm_lp34:1 vs_53_34:A 1.000000e-03
5 pgm_lp34:1 vs_52_34:A 1.000000e-03
6 pgm_lp34:1 vs_49_34:A 1.000000e-03
7 pgm_lp34:1 vs_46_34:A 1.000000e-03
8 pgm_lp34:1 vs_42_34:A 1.000000e-03
9 pgm_lp34:1 vs_39_34:A 1.000000e-03
10 pgm_lp34:1 vs_38_34:A 1.000000e-03
11 pgm_lp34:1 vs_37_34:A 1.000000e-03
12 pgm_lp34:1 vs_34_34:A 1.000000e-03
13 pgm_lp34:1 vs_33_34:A 1.000000e-03
14 pgm_lp34:1 vs_32_34:A 1.000000e-03
15 pgm_lp34:1 vs_31_34:A 1.000000e-03
16 pgm_lp34:1 vs_30_34:A 1.000000e-03
17 pgm_lp34:1 vs_27_34:A 1.000000e-03
18 pgm_lp34:1 vs_26_34:A 1.000000e-03
19 pgm_lp34:1 vs_22_34:A 1.000000e-03
20 pgm_lp34:1 vs_20_34:A 1.000000e-03
21 pgm_lp34:1 vs_16_34:A 1.000000e-03
22 pgm_lp34:1 vs_14_34:A 1.000000e-03
23 pgm_lp34:1 vs_12_34:A 1.000000e-03
24 pgm_lp34:1 vs_9_34:A 1.000000e-03
25 pgm_lp34:1 vs_8_34:A 1.000000e-03
26 pgm_lp34:1 vs_7_34:A 1.000000e-03
27 pgm_lp34:1 vs_5_34:A 1.000000e-03
28 pgm_lp34:1 vs_4_34:A 1.000000e-03
29 pgm_lp34:1 vs_3_34:A 1.000000e-03
30 pgm_lp34:1 vs_2_34:A 1.000000e-03
*END

*D_NET pgm_lp35 1.050050e-01
*CONN
*I lt_lp35:Z O
*I vs_63_35:A I
*I vs_62_35:A I
*I vs_57_35:A I
*I vs_56_35:A I
*I vs_54_35:A I
*I vs_53_35:A I
*I vs_48_35:A I
*I vs_47_35:A I
*I vs_46_35:A I
*I vs_45_35:A I
*I vs_39_35:A I
*I vs_38_35:A I
*I vs_35_35:A I
*I vs_29_35:A I
*I vs_28_35:A I
*I vs_26_35:A I
*I vs_25_35:A I
*I vs_21_35:A I
*I vs_14_35:A I
*I vs_10_35:A I
*I vs_9_35:A I
*I vs_5_35:A I
*I vs_4_35:A I
*CAP
1 pgm_lp35:1 1.050050e-01
*RES
1 lt_lp35:Z pgm_lp35:1 1.191578e+02
2 pgm_lp35:1 vs_63_35:A 1.000000e-03
3 pgm_lp35:1 vs_62_35:A 1.000000e-03
4 pgm_lp35:1 vs_57_35:A 1.000000e-03
5 pgm_lp35:1 vs_56_35:A 1.000000e-03
6 pgm_lp35:1 vs_54_35:A 1.000000e-03
7 pgm_lp35:1 vs_53_35:A 1.000000e-03
8 pgm_lp35:1 vs_48_35:A 1.000000e-03
9 pgm_lp35:1 vs_47_35:A 1.000000e-03
10 pgm_lp35:1 vs_46_35:A 1.000000e-03
11 pgm_lp35:1 vs_45_35:A 1.000000e-03
12 pgm_lp35:1 vs_39_35:A 1.000000e-03
13 pgm_lp35:1 vs_38_35:A 1.000000e-03
14 pgm_lp35:1 vs_35_35:A 1.000000e-03
15 pgm_lp35:1 vs_29_35:A 1.000000e-03
16 pgm_lp35:1 vs_28_35:A 1.000000e-03
17 pgm_lp35:1 vs_26_35:A 1.000000e-03
18 pgm_lp35:1 vs_25_35:A 1.000000e-03
19 pgm_lp35:1 vs_21_35:A 1.000000e-03
20 pgm_lp35:1 vs_14_35:A 1.000000e-03
21 pgm_lp35:1 vs_10_35:A 1.000000e-03
22 pgm_lp35:1 vs_9_35:A 1.000000e-03
23 pgm_lp35:1 vs_5_35:A 1.000000e-03
24 pgm_lp35:1 vs_4_35:A 1.000000e-03
*END

*D_NET pgm_lp36 8.331934e-02
*CONN
*I lt_lp36:Z O
*I vs_62_36:A I
*I vs_61_36:A I
*I vs_60_36:A I
*I vs_59_36:A I
*I vs_57_36:A I
*I vs_47_36:A I
*I vs_46_36:A I
*I vs_44_36:A I
*I vs_33_36:A I
*I vs_32_36:A I
*I vs_26_36:A I
*I vs_24_36:A I
*I vs_20_36:A I
*I vs_19_36:A I
*I vs_17_36:A I
*I vs_14_36:A I
*CAP
1 pgm_lp36:1 8.331934e-02
*RES
1 lt_lp36:Z pgm_lp36:1 9.369702e+01
2 pgm_lp36:1 vs_62_36:A 1.000000e-03
3 pgm_lp36:1 vs_61_36:A 1.000000e-03
4 pgm_lp36:1 vs_60_36:A 1.000000e-03
5 pgm_lp36:1 vs_59_36:A 1.000000e-03
6 pgm_lp36:1 vs_57_36:A 1.000000e-03
7 pgm_lp36:1 vs_47_36:A 1.000000e-03
8 pgm_lp36:1 vs_46_36:A 1.000000e-03
9 pgm_lp36:1 vs_44_36:A 1.000000e-03
10 pgm_lp36:1 vs_33_36:A 1.000000e-03
11 pgm_lp36:1 vs_32_36:A 1.000000e-03
12 pgm_lp36:1 vs_26_36:A 1.000000e-03
13 pgm_lp36:1 vs_24_36:A 1.000000e-03
14 pgm_lp36:1 vs_20_36:A 1.000000e-03
15 pgm_lp36:1 vs_19_36:A 1.000000e-03
16 pgm_lp36:1 vs_17_36:A 1.000000e-03
17 pgm_lp36:1 vs_14_36:A 1.000000e-03
*END

*D_NET pgm_lp37 1.052572e-01
*CONN
*I lt_lp37:Z O
*I vs_62_37:A I
*I vs_58_37:A I
*I vs_57_37:A I
*I vs_50_37:A I
*I vs_46_37:A I
*I vs_40_37:A I
*I vs_39_37:A I
*I vs_38_37:A I
*I vs_37_37:A I
*I vs_35_37:A I
*I vs_33_37:A I
*I vs_32_37:A I
*I vs_26_37:A I
*I vs_23_37:A I
*I vs_20_37:A I
*I vs_9_37:A I
*I vs_7_37:A I
*I vs_4_37:A I
*I vs_3_37:A I
*I vs_2_37:A I
*CAP
1 pgm_lp37:1 1.052572e-01
*RES
1 lt_lp37:Z pgm_lp37:1 1.159669e+02
2 pgm_lp37:1 vs_62_37:A 1.000000e-03
3 pgm_lp37:1 vs_58_37:A 1.000000e-03
4 pgm_lp37:1 vs_57_37:A 1.000000e-03
5 pgm_lp37:1 vs_50_37:A 1.000000e-03
6 pgm_lp37:1 vs_46_37:A 1.000000e-03
7 pgm_lp37:1 vs_40_37:A 1.000000e-03
8 pgm_lp37:1 vs_39_37:A 1.000000e-03
9 pgm_lp37:1 vs_38_37:A 1.000000e-03
10 pgm_lp37:1 vs_37_37:A 1.000000e-03
11 pgm_lp37:1 vs_35_37:A 1.000000e-03
12 pgm_lp37:1 vs_33_37:A 1.000000e-03
13 pgm_lp37:1 vs_32_37:A 1.000000e-03
14 pgm_lp37:1 vs_26_37:A 1.000000e-03
15 pgm_lp37:1 vs_23_37:A 1.000000e-03
16 pgm_lp37:1 vs_20_37:A 1.000000e-03
17 pgm_lp37:1 vs_9_37:A 1.000000e-03
18 pgm_lp37:1 vs_7_37:A 1.000000e-03
19 pgm_lp37:1 vs_4_37:A 1.000000e-03
20 pgm_lp37:1 vs_3_37:A 1.000000e-03
21 pgm_lp37:1 vs_2_37:A 1.000000e-03
*END

*D_NET pgm_lp38 1.052923e-01
*CONN
*I lt_lp38:Z O
*I vs_63_38:A I
*I vs_60_38:A I
*I vs_58_38:A I
*I vs_52_38:A I
*I vs_47_38:A I
*I vs_46_38:A I
*I vs_44_38:A I
*I vs_43_38:A I
*I vs_41_38:A I
*I vs_37_38:A I
*I vs_27_38:A I
*I vs_26_38:A I
*I vs_25_38:A I
*I vs_21_38:A I
*I vs_20_38:A I
*I vs_19_38:A I
*I vs_17_38:A I
*I vs_15_38:A I
*I vs_12_38:A I
*I vs_11_38:A I
*I vs_9_38:A I
*I vs_7_38:A I
*I vs_5_38:A I
*I vs_3_38:A I
*CAP
1 pgm_lp38:1 1.052923e-01
*RES
1 lt_lp38:Z pgm_lp38:1 1.194839e+02
2 pgm_lp38:1 vs_63_38:A 1.000000e-03
3 pgm_lp38:1 vs_60_38:A 1.000000e-03
4 pgm_lp38:1 vs_58_38:A 1.000000e-03
5 pgm_lp38:1 vs_52_38:A 1.000000e-03
6 pgm_lp38:1 vs_47_38:A 1.000000e-03
7 pgm_lp38:1 vs_46_38:A 1.000000e-03
8 pgm_lp38:1 vs_44_38:A 1.000000e-03
9 pgm_lp38:1 vs_43_38:A 1.000000e-03
10 pgm_lp38:1 vs_41_38:A 1.000000e-03
11 pgm_lp38:1 vs_37_38:A 1.000000e-03
12 pgm_lp38:1 vs_27_38:A 1.000000e-03
13 pgm_lp38:1 vs_26_38:A 1.000000e-03
14 pgm_lp38:1 vs_25_38:A 1.000000e-03
15 pgm_lp38:1 vs_21_38:A 1.000000e-03
16 pgm_lp38:1 vs_20_38:A 1.000000e-03
17 pgm_lp38:1 vs_19_38:A 1.000000e-03
18 pgm_lp38:1 vs_17_38:A 1.000000e-03
19 pgm_lp38:1 vs_15_38:A 1.000000e-03
20 pgm_lp38:1 vs_12_38:A 1.000000e-03
21 pgm_lp38:1 vs_11_38:A 1.000000e-03
22 pgm_lp38:1 vs_9_38:A 1.000000e-03
23 pgm_lp38:1 vs_7_38:A 1.000000e-03
24 pgm_lp38:1 vs_5_38:A 1.000000e-03
25 pgm_lp38:1 vs_3_38:A 1.000000e-03
*END

*D_NET pgm_lp39 1.070558e-01
*CONN
*I lt_lp39:Z O
*I vs_58_39:A I
*I vs_57_39:A I
*I vs_54_39:A I
*I vs_50_39:A I
*I vs_46_39:A I
*I vs_39_39:A I
*I vs_36_39:A I
*I vs_35_39:A I
*I vs_34_39:A I
*I vs_33_39:A I
*I vs_31_39:A I
*I vs_29_39:A I
*I vs_28_39:A I
*I vs_27_39:A I
*I vs_25_39:A I
*I vs_24_39:A I
*I vs_16_39:A I
*I vs_14_39:A I
*I vs_11_39:A I
*I vs_9_39:A I
*I vs_3_39:A I
*I vs_2_39:A I
*I vs_0_39:A I
*CAP
1 pgm_lp39:1 1.070558e-01
*RES
1 lt_lp39:Z pgm_lp39:1 1.207767e+02
2 pgm_lp39:1 vs_58_39:A 1.000000e-03
3 pgm_lp39:1 vs_57_39:A 1.000000e-03
4 pgm_lp39:1 vs_54_39:A 1.000000e-03
5 pgm_lp39:1 vs_50_39:A 1.000000e-03
6 pgm_lp39:1 vs_46_39:A 1.000000e-03
7 pgm_lp39:1 vs_39_39:A 1.000000e-03
8 pgm_lp39:1 vs_36_39:A 1.000000e-03
9 pgm_lp39:1 vs_35_39:A 1.000000e-03
10 pgm_lp39:1 vs_34_39:A 1.000000e-03
11 pgm_lp39:1 vs_33_39:A 1.000000e-03
12 pgm_lp39:1 vs_31_39:A 1.000000e-03
13 pgm_lp39:1 vs_29_39:A 1.000000e-03
14 pgm_lp39:1 vs_28_39:A 1.000000e-03
15 pgm_lp39:1 vs_27_39:A 1.000000e-03
16 pgm_lp39:1 vs_25_39:A 1.000000e-03
17 pgm_lp39:1 vs_24_39:A 1.000000e-03
18 pgm_lp39:1 vs_16_39:A 1.000000e-03
19 pgm_lp39:1 vs_14_39:A 1.000000e-03
20 pgm_lp39:1 vs_11_39:A 1.000000e-03
21 pgm_lp39:1 vs_9_39:A 1.000000e-03
22 pgm_lp39:1 vs_3_39:A 1.000000e-03
23 pgm_lp39:1 vs_2_39:A 1.000000e-03
24 pgm_lp39:1 vs_0_39:A 1.000000e-03
*END

*D_NET pgm_lp4 1.007692e-01
*CONN
*I lt_lp4:Z O
*I vs_63_4:A I
*I vs_58_4:A I
*I vs_57_4:A I
*I vs_49_4:A I
*I vs_46_4:A I
*I vs_45_4:A I
*I vs_40_4:A I
*I vs_35_4:A I
*I vs_30_4:A I
*I vs_26_4:A I
*I vs_23_4:A I
*I vs_20_4:A I
*I vs_17_4:A I
*I vs_16_4:A I
*I vs_7_4:A I
*I vs_6_4:A I
*I vs_3_4:A I
*CAP
1 pgm_lp4:1 1.007692e-01
*RES
1 lt_lp4:Z pgm_lp4:1 1.128665e+02
2 pgm_lp4:1 vs_63_4:A 1.000000e-03
3 pgm_lp4:1 vs_58_4:A 1.000000e-03
4 pgm_lp4:1 vs_57_4:A 1.000000e-03
5 pgm_lp4:1 vs_49_4:A 1.000000e-03
6 pgm_lp4:1 vs_46_4:A 1.000000e-03
7 pgm_lp4:1 vs_45_4:A 1.000000e-03
8 pgm_lp4:1 vs_40_4:A 1.000000e-03
9 pgm_lp4:1 vs_35_4:A 1.000000e-03
10 pgm_lp4:1 vs_30_4:A 1.000000e-03
11 pgm_lp4:1 vs_26_4:A 1.000000e-03
12 pgm_lp4:1 vs_23_4:A 1.000000e-03
13 pgm_lp4:1 vs_20_4:A 1.000000e-03
14 pgm_lp4:1 vs_17_4:A 1.000000e-03
15 pgm_lp4:1 vs_16_4:A 1.000000e-03
16 pgm_lp4:1 vs_7_4:A 1.000000e-03
17 pgm_lp4:1 vs_6_4:A 1.000000e-03
18 pgm_lp4:1 vs_3_4:A 1.000000e-03
*END

*D_NET pgm_lp40 9.116464e-02
*CONN
*I lt_lp40:Z O
*I vs_57_40:A I
*I vs_50_40:A I
*I vs_48_40:A I
*I vs_46_40:A I
*I vs_40_40:A I
*I vs_38_40:A I
*I vs_33_40:A I
*I vs_32_40:A I
*I vs_29_40:A I
*I vs_24_40:A I
*I vs_23_40:A I
*I vs_21_40:A I
*I vs_20_40:A I
*I vs_17_40:A I
*I vs_16_40:A I
*I vs_6_40:A I
*I vs_3_40:A I
*CAP
1 pgm_lp40:1 9.116464e-02
*RES
1 lt_lp40:Z pgm_lp40:1 1.027437e+02
2 pgm_lp40:1 vs_57_40:A 1.000000e-03
3 pgm_lp40:1 vs_50_40:A 1.000000e-03
4 pgm_lp40:1 vs_48_40:A 1.000000e-03
5 pgm_lp40:1 vs_46_40:A 1.000000e-03
6 pgm_lp40:1 vs_40_40:A 1.000000e-03
7 pgm_lp40:1 vs_38_40:A 1.000000e-03
8 pgm_lp40:1 vs_33_40:A 1.000000e-03
9 pgm_lp40:1 vs_32_40:A 1.000000e-03
10 pgm_lp40:1 vs_29_40:A 1.000000e-03
11 pgm_lp40:1 vs_24_40:A 1.000000e-03
12 pgm_lp40:1 vs_23_40:A 1.000000e-03
13 pgm_lp40:1 vs_21_40:A 1.000000e-03
14 pgm_lp40:1 vs_20_40:A 1.000000e-03
15 pgm_lp40:1 vs_17_40:A 1.000000e-03
16 pgm_lp40:1 vs_16_40:A 1.000000e-03
17 pgm_lp40:1 vs_6_40:A 1.000000e-03
18 pgm_lp40:1 vs_3_40:A 1.000000e-03
*END

*D_NET pgm_lp41 1.135714e-01
*CONN
*I lt_lp41:Z O
*I vs_63_41:A I
*I vs_57_41:A I
*I vs_55_41:A I
*I vs_42_41:A I
*I vs_40_41:A I
*I vs_39_41:A I
*I vs_36_41:A I
*I vs_34_41:A I
*I vs_33_41:A I
*I vs_32_41:A I
*I vs_30_41:A I
*I vs_13_41:A I
*I vs_10_41:A I
*I vs_7_41:A I
*I vs_6_41:A I
*I vs_5_41:A I
*I vs_1_41:A I
*I vs_0_41:A I
*CAP
1 pgm_lp41:1 1.135714e-01
*RES
1 lt_lp41:Z pgm_lp41:1 1.256137e+02
2 pgm_lp41:1 vs_63_41:A 1.000000e-03
3 pgm_lp41:1 vs_57_41:A 1.000000e-03
4 pgm_lp41:1 vs_55_41:A 1.000000e-03
5 pgm_lp41:1 vs_42_41:A 1.000000e-03
6 pgm_lp41:1 vs_40_41:A 1.000000e-03
7 pgm_lp41:1 vs_39_41:A 1.000000e-03
8 pgm_lp41:1 vs_36_41:A 1.000000e-03
9 pgm_lp41:1 vs_34_41:A 1.000000e-03
10 pgm_lp41:1 vs_33_41:A 1.000000e-03
11 pgm_lp41:1 vs_32_41:A 1.000000e-03
12 pgm_lp41:1 vs_30_41:A 1.000000e-03
13 pgm_lp41:1 vs_13_41:A 1.000000e-03
14 pgm_lp41:1 vs_10_41:A 1.000000e-03
15 pgm_lp41:1 vs_7_41:A 1.000000e-03
16 pgm_lp41:1 vs_6_41:A 1.000000e-03
17 pgm_lp41:1 vs_5_41:A 1.000000e-03
18 pgm_lp41:1 vs_1_41:A 1.000000e-03
19 pgm_lp41:1 vs_0_41:A 1.000000e-03
*END

*D_NET pgm_lp42 9.352686e-02
*CONN
*I lt_lp42:Z O
*I vs_58_42:A I
*I vs_57_42:A I
*I vs_53_42:A I
*I vs_51_42:A I
*I vs_49_42:A I
*I vs_33_42:A I
*I vs_32_42:A I
*I vs_30_42:A I
*I vs_28_42:A I
*I vs_25_42:A I
*I vs_22_42:A I
*I vs_15_42:A I
*I vs_4_42:A I
*CAP
1 pgm_lp42:1 9.352686e-02
*RES
1 lt_lp42:Z pgm_lp42:1 1.032959e+02
2 pgm_lp42:1 vs_58_42:A 1.000000e-03
3 pgm_lp42:1 vs_57_42:A 1.000000e-03
4 pgm_lp42:1 vs_53_42:A 1.000000e-03
5 pgm_lp42:1 vs_51_42:A 1.000000e-03
6 pgm_lp42:1 vs_49_42:A 1.000000e-03
7 pgm_lp42:1 vs_33_42:A 1.000000e-03
8 pgm_lp42:1 vs_32_42:A 1.000000e-03
9 pgm_lp42:1 vs_30_42:A 1.000000e-03
10 pgm_lp42:1 vs_28_42:A 1.000000e-03
11 pgm_lp42:1 vs_25_42:A 1.000000e-03
12 pgm_lp42:1 vs_22_42:A 1.000000e-03
13 pgm_lp42:1 vs_15_42:A 1.000000e-03
14 pgm_lp42:1 vs_4_42:A 1.000000e-03
*END

*D_NET pgm_lp43 1.132647e-01
*CONN
*I lt_lp43:Z O
*I vs_63_43:A I
*I vs_62_43:A I
*I vs_61_43:A I
*I vs_51_43:A I
*I vs_50_43:A I
*I vs_49_43:A I
*I vs_45_43:A I
*I vs_38_43:A I
*I vs_36_43:A I
*I vs_35_43:A I
*I vs_28_43:A I
*I vs_24_43:A I
*I vs_21_43:A I
*I vs_15_43:A I
*I vs_14_43:A I
*I vs_6_43:A I
*I vs_2_43:A I
*CAP
1 pgm_lp43:1 1.132647e-01
*RES
1 lt_lp43:Z pgm_lp43:1 1.228527e+02
2 pgm_lp43:1 vs_63_43:A 1.000000e-03
3 pgm_lp43:1 vs_62_43:A 1.000000e-03
4 pgm_lp43:1 vs_61_43:A 1.000000e-03
5 pgm_lp43:1 vs_51_43:A 1.000000e-03
6 pgm_lp43:1 vs_50_43:A 1.000000e-03
7 pgm_lp43:1 vs_49_43:A 1.000000e-03
8 pgm_lp43:1 vs_45_43:A 1.000000e-03
9 pgm_lp43:1 vs_38_43:A 1.000000e-03
10 pgm_lp43:1 vs_36_43:A 1.000000e-03
11 pgm_lp43:1 vs_35_43:A 1.000000e-03
12 pgm_lp43:1 vs_28_43:A 1.000000e-03
13 pgm_lp43:1 vs_24_43:A 1.000000e-03
14 pgm_lp43:1 vs_21_43:A 1.000000e-03
15 pgm_lp43:1 vs_15_43:A 1.000000e-03
16 pgm_lp43:1 vs_14_43:A 1.000000e-03
17 pgm_lp43:1 vs_6_43:A 1.000000e-03
18 pgm_lp43:1 vs_2_43:A 1.000000e-03
*END

*D_NET pgm_lp44 8.123459e-02
*CONN
*I lt_lp44:Z O
*I vs_60_44:A I
*I vs_52_44:A I
*I vs_50_44:A I
*I vs_48_44:A I
*I vs_46_44:A I
*I vs_41_44:A I
*I vs_40_44:A I
*I vs_37_44:A I
*I vs_32_44:A I
*I vs_28_44:A I
*I vs_24_44:A I
*I vs_23_44:A I
*I vs_20_44:A I
*I vs_17_44:A I
*I vs_16_44:A I
*I vs_13_44:A I
*CAP
1 pgm_lp44:1 8.123459e-02
*RES
1 lt_lp44:Z pgm_lp44:1 9.161924e+01
2 pgm_lp44:1 vs_60_44:A 1.000000e-03
3 pgm_lp44:1 vs_52_44:A 1.000000e-03
4 pgm_lp44:1 vs_50_44:A 1.000000e-03
5 pgm_lp44:1 vs_48_44:A 1.000000e-03
6 pgm_lp44:1 vs_46_44:A 1.000000e-03
7 pgm_lp44:1 vs_41_44:A 1.000000e-03
8 pgm_lp44:1 vs_40_44:A 1.000000e-03
9 pgm_lp44:1 vs_37_44:A 1.000000e-03
10 pgm_lp44:1 vs_32_44:A 1.000000e-03
11 pgm_lp44:1 vs_28_44:A 1.000000e-03
12 pgm_lp44:1 vs_24_44:A 1.000000e-03
13 pgm_lp44:1 vs_23_44:A 1.000000e-03
14 pgm_lp44:1 vs_20_44:A 1.000000e-03
15 pgm_lp44:1 vs_17_44:A 1.000000e-03
16 pgm_lp44:1 vs_16_44:A 1.000000e-03
17 pgm_lp44:1 vs_13_44:A 1.000000e-03
*END

*D_NET pgm_lp45 1.103053e-01
*CONN
*I lt_lp45:Z O
*I vs_63_45:A I
*I vs_60_45:A I
*I vs_59_45:A I
*I vs_57_45:A I
*I vs_51_45:A I
*I vs_48_45:A I
*I vs_46_45:A I
*I vs_43_45:A I
*I vs_40_45:A I
*I vs_39_45:A I
*I vs_34_45:A I
*I vs_30_45:A I
*I vs_28_45:A I
*I vs_22_45:A I
*I vs_13_45:A I
*I vs_11_45:A I
*I vs_10_45:A I
*I vs_9_45:A I
*I vs_7_45:A I
*I vs_5_45:A I
*I vs_1_45:A I
*I vs_0_45:A I
*CAP
1 pgm_lp45:1 1.103053e-01
*RES
1 lt_lp45:Z pgm_lp45:1 1.243202e+02
2 pgm_lp45:1 vs_63_45:A 1.000000e-03
3 pgm_lp45:1 vs_60_45:A 1.000000e-03
4 pgm_lp45:1 vs_59_45:A 1.000000e-03
5 pgm_lp45:1 vs_57_45:A 1.000000e-03
6 pgm_lp45:1 vs_51_45:A 1.000000e-03
7 pgm_lp45:1 vs_48_45:A 1.000000e-03
8 pgm_lp45:1 vs_46_45:A 1.000000e-03
9 pgm_lp45:1 vs_43_45:A 1.000000e-03
10 pgm_lp45:1 vs_40_45:A 1.000000e-03
11 pgm_lp45:1 vs_39_45:A 1.000000e-03
12 pgm_lp45:1 vs_34_45:A 1.000000e-03
13 pgm_lp45:1 vs_30_45:A 1.000000e-03
14 pgm_lp45:1 vs_28_45:A 1.000000e-03
15 pgm_lp45:1 vs_22_45:A 1.000000e-03
16 pgm_lp45:1 vs_13_45:A 1.000000e-03
17 pgm_lp45:1 vs_11_45:A 1.000000e-03
18 pgm_lp45:1 vs_10_45:A 1.000000e-03
19 pgm_lp45:1 vs_9_45:A 1.000000e-03
20 pgm_lp45:1 vs_7_45:A 1.000000e-03
21 pgm_lp45:1 vs_5_45:A 1.000000e-03
22 pgm_lp45:1 vs_1_45:A 1.000000e-03
23 pgm_lp45:1 vs_0_45:A 1.000000e-03
*END

*D_NET pgm_lp46 1.058798e-01
*CONN
*I lt_lp46:Z O
*I vs_60_46:A I
*I vs_58_46:A I
*I vs_53_46:A I
*I vs_51_46:A I
*I vs_50_46:A I
*I vs_46_46:A I
*I vs_36_46:A I
*I vs_33_46:A I
*I vs_32_46:A I
*I vs_29_46:A I
*I vs_23_46:A I
*I vs_18_46:A I
*I vs_12_46:A I
*I vs_8_46:A I
*I vs_4_46:A I
*CAP
1 pgm_lp46:1 1.058798e-01
*RES
1 lt_lp46:Z pgm_lp46:1 1.175937e+02
2 pgm_lp46:1 vs_60_46:A 1.000000e-03
3 pgm_lp46:1 vs_58_46:A 1.000000e-03
4 pgm_lp46:1 vs_53_46:A 1.000000e-03
5 pgm_lp46:1 vs_51_46:A 1.000000e-03
6 pgm_lp46:1 vs_50_46:A 1.000000e-03
7 pgm_lp46:1 vs_46_46:A 1.000000e-03
8 pgm_lp46:1 vs_36_46:A 1.000000e-03
9 pgm_lp46:1 vs_33_46:A 1.000000e-03
10 pgm_lp46:1 vs_32_46:A 1.000000e-03
11 pgm_lp46:1 vs_29_46:A 1.000000e-03
12 pgm_lp46:1 vs_23_46:A 1.000000e-03
13 pgm_lp46:1 vs_18_46:A 1.000000e-03
14 pgm_lp46:1 vs_12_46:A 1.000000e-03
15 pgm_lp46:1 vs_8_46:A 1.000000e-03
16 pgm_lp46:1 vs_4_46:A 1.000000e-03
*END

*D_NET pgm_lp47 1.088748e-01
*CONN
*I lt_lp47:Z O
*I vs_63_47:A I
*I vs_61_47:A I
*I vs_57_47:A I
*I vs_54_47:A I
*I vs_53_47:A I
*I vs_52_47:A I
*I vs_47_47:A I
*I vs_45_47:A I
*I vs_42_47:A I
*I vs_36_47:A I
*I vs_31_47:A I
*I vs_30_47:A I
*I vs_28_47:A I
*I vs_27_47:A I
*I vs_26_47:A I
*I vs_25_47:A I
*I vs_24_47:A I
*I vs_21_47:A I
*I vs_20_47:A I
*I vs_16_47:A I
*I vs_15_47:A I
*I vs_12_47:A I
*I vs_11_47:A I
*I vs_9_47:A I
*I vs_7_47:A I
*I vs_6_47:A I
*I vs_3_47:A I
*I vs_0_47:A I
*CAP
1 pgm_lp47:1 1.088748e-01
*RES
1 lt_lp47:Z pgm_lp47:1 1.224527e+02
2 pgm_lp47:1 vs_63_47:A 1.000000e-03
3 pgm_lp47:1 vs_61_47:A 1.000000e-03
4 pgm_lp47:1 vs_57_47:A 1.000000e-03
5 pgm_lp47:1 vs_54_47:A 1.000000e-03
6 pgm_lp47:1 vs_53_47:A 1.000000e-03
7 pgm_lp47:1 vs_52_47:A 1.000000e-03
8 pgm_lp47:1 vs_47_47:A 1.000000e-03
9 pgm_lp47:1 vs_45_47:A 1.000000e-03
10 pgm_lp47:1 vs_42_47:A 1.000000e-03
11 pgm_lp47:1 vs_36_47:A 1.000000e-03
12 pgm_lp47:1 vs_31_47:A 1.000000e-03
13 pgm_lp47:1 vs_30_47:A 1.000000e-03
14 pgm_lp47:1 vs_28_47:A 1.000000e-03
15 pgm_lp47:1 vs_27_47:A 1.000000e-03
16 pgm_lp47:1 vs_26_47:A 1.000000e-03
17 pgm_lp47:1 vs_25_47:A 1.000000e-03
18 pgm_lp47:1 vs_24_47:A 1.000000e-03
19 pgm_lp47:1 vs_21_47:A 1.000000e-03
20 pgm_lp47:1 vs_20_47:A 1.000000e-03
21 pgm_lp47:1 vs_16_47:A 1.000000e-03
22 pgm_lp47:1 vs_15_47:A 1.000000e-03
23 pgm_lp47:1 vs_12_47:A 1.000000e-03
24 pgm_lp47:1 vs_11_47:A 1.000000e-03
25 pgm_lp47:1 vs_9_47:A 1.000000e-03
26 pgm_lp47:1 vs_7_47:A 1.000000e-03
27 pgm_lp47:1 vs_6_47:A 1.000000e-03
28 pgm_lp47:1 vs_3_47:A 1.000000e-03
29 pgm_lp47:1 vs_0_47:A 1.000000e-03
*END

*D_NET pgm_lp48 1.021667e-01
*CONN
*I lt_lp48:Z O
*I vs_61_48:A I
*I vs_60_48:A I
*I vs_57_48:A I
*I vs_55_48:A I
*I vs_51_48:A I
*I vs_48_48:A I
*I vs_42_48:A I
*I vs_41_48:A I
*I vs_39_48:A I
*I vs_37_48:A I
*I vs_36_48:A I
*I vs_34_48:A I
*I vs_33_48:A I
*I vs_31_48:A I
*I vs_29_48:A I
*I vs_27_48:A I
*I vs_24_48:A I
*I vs_22_48:A I
*I vs_16_48:A I
*I vs_15_48:A I
*I vs_14_48:A I
*I vs_12_48:A I
*I vs_11_48:A I
*I vs_7_48:A I
*I vs_6_48:A I
*I vs_5_48:A I
*CAP
1 pgm_lp48:1 1.021667e-01
*RES
1 lt_lp48:Z pgm_lp48:1 1.149407e+02
2 pgm_lp48:1 vs_61_48:A 1.000000e-03
3 pgm_lp48:1 vs_60_48:A 1.000000e-03
4 pgm_lp48:1 vs_57_48:A 1.000000e-03
5 pgm_lp48:1 vs_55_48:A 1.000000e-03
6 pgm_lp48:1 vs_51_48:A 1.000000e-03
7 pgm_lp48:1 vs_48_48:A 1.000000e-03
8 pgm_lp48:1 vs_42_48:A 1.000000e-03
9 pgm_lp48:1 vs_41_48:A 1.000000e-03
10 pgm_lp48:1 vs_39_48:A 1.000000e-03
11 pgm_lp48:1 vs_37_48:A 1.000000e-03
12 pgm_lp48:1 vs_36_48:A 1.000000e-03
13 pgm_lp48:1 vs_34_48:A 1.000000e-03
14 pgm_lp48:1 vs_33_48:A 1.000000e-03
15 pgm_lp48:1 vs_31_48:A 1.000000e-03
16 pgm_lp48:1 vs_29_48:A 1.000000e-03
17 pgm_lp48:1 vs_27_48:A 1.000000e-03
18 pgm_lp48:1 vs_24_48:A 1.000000e-03
19 pgm_lp48:1 vs_22_48:A 1.000000e-03
20 pgm_lp48:1 vs_16_48:A 1.000000e-03
21 pgm_lp48:1 vs_15_48:A 1.000000e-03
22 pgm_lp48:1 vs_14_48:A 1.000000e-03
23 pgm_lp48:1 vs_12_48:A 1.000000e-03
24 pgm_lp48:1 vs_11_48:A 1.000000e-03
25 pgm_lp48:1 vs_7_48:A 1.000000e-03
26 pgm_lp48:1 vs_6_48:A 1.000000e-03
27 pgm_lp48:1 vs_5_48:A 1.000000e-03
*END

*D_NET pgm_lp49 1.117955e-01
*CONN
*I lt_lp49:Z O
*I vs_63_49:A I
*I vs_61_49:A I
*I vs_60_49:A I
*I vs_59_49:A I
*I vs_54_49:A I
*I vs_50_49:A I
*I vs_46_49:A I
*I vs_45_49:A I
*I vs_42_49:A I
*I vs_41_49:A I
*I vs_40_49:A I
*I vs_38_49:A I
*I vs_37_49:A I
*I vs_36_49:A I
*I vs_35_49:A I
*I vs_31_49:A I
*I vs_27_49:A I
*I vs_23_49:A I
*I vs_20_49:A I
*I vs_16_49:A I
*I vs_10_49:A I
*I vs_7_49:A I
*I vs_5_49:A I
*I vs_4_49:A I
*I vs_2_49:A I
*CAP
1 pgm_lp49:1 1.117955e-01
*RES
1 lt_lp49:Z pgm_lp49:1 1.260112e+02
2 pgm_lp49:1 vs_63_49:A 1.000000e-03
3 pgm_lp49:1 vs_61_49:A 1.000000e-03
4 pgm_lp49:1 vs_60_49:A 1.000000e-03
5 pgm_lp49:1 vs_59_49:A 1.000000e-03
6 pgm_lp49:1 vs_54_49:A 1.000000e-03
7 pgm_lp49:1 vs_50_49:A 1.000000e-03
8 pgm_lp49:1 vs_46_49:A 1.000000e-03
9 pgm_lp49:1 vs_45_49:A 1.000000e-03
10 pgm_lp49:1 vs_42_49:A 1.000000e-03
11 pgm_lp49:1 vs_41_49:A 1.000000e-03
12 pgm_lp49:1 vs_40_49:A 1.000000e-03
13 pgm_lp49:1 vs_38_49:A 1.000000e-03
14 pgm_lp49:1 vs_37_49:A 1.000000e-03
15 pgm_lp49:1 vs_36_49:A 1.000000e-03
16 pgm_lp49:1 vs_35_49:A 1.000000e-03
17 pgm_lp49:1 vs_31_49:A 1.000000e-03
18 pgm_lp49:1 vs_27_49:A 1.000000e-03
19 pgm_lp49:1 vs_23_49:A 1.000000e-03
20 pgm_lp49:1 vs_20_49:A 1.000000e-03
21 pgm_lp49:1 vs_16_49:A 1.000000e-03
22 pgm_lp49:1 vs_10_49:A 1.000000e-03
23 pgm_lp49:1 vs_7_49:A 1.000000e-03
24 pgm_lp49:1 vs_5_49:A 1.000000e-03
25 pgm_lp49:1 vs_4_49:A 1.000000e-03
26 pgm_lp49:1 vs_2_49:A 1.000000e-03
*END

*D_NET pgm_lp5 1.104089e-01
*CONN
*I lt_lp5:Z O
*I vs_63_5:A I
*I vs_62_5:A I
*I vs_60_5:A I
*I vs_57_5:A I
*I vs_46_5:A I
*I vs_40_5:A I
*I vs_39_5:A I
*I vs_38_5:A I
*I vs_37_5:A I
*I vs_33_5:A I
*I vs_28_5:A I
*I vs_26_5:A I
*I vs_23_5:A I
*I vs_20_5:A I
*I vs_18_5:A I
*I vs_16_5:A I
*I vs_15_5:A I
*I vs_2_5:A I
*I vs_1_5:A I
*CAP
1 pgm_lp5:1 1.104089e-01
*RES
1 lt_lp5:Z pgm_lp5:1 1.234415e+02
2 pgm_lp5:1 vs_63_5:A 1.000000e-03
3 pgm_lp5:1 vs_62_5:A 1.000000e-03
4 pgm_lp5:1 vs_60_5:A 1.000000e-03
5 pgm_lp5:1 vs_57_5:A 1.000000e-03
6 pgm_lp5:1 vs_46_5:A 1.000000e-03
7 pgm_lp5:1 vs_40_5:A 1.000000e-03
8 pgm_lp5:1 vs_39_5:A 1.000000e-03
9 pgm_lp5:1 vs_38_5:A 1.000000e-03
10 pgm_lp5:1 vs_37_5:A 1.000000e-03
11 pgm_lp5:1 vs_33_5:A 1.000000e-03
12 pgm_lp5:1 vs_28_5:A 1.000000e-03
13 pgm_lp5:1 vs_26_5:A 1.000000e-03
14 pgm_lp5:1 vs_23_5:A 1.000000e-03
15 pgm_lp5:1 vs_20_5:A 1.000000e-03
16 pgm_lp5:1 vs_18_5:A 1.000000e-03
17 pgm_lp5:1 vs_16_5:A 1.000000e-03
18 pgm_lp5:1 vs_15_5:A 1.000000e-03
19 pgm_lp5:1 vs_2_5:A 1.000000e-03
20 pgm_lp5:1 vs_1_5:A 1.000000e-03
*END

*D_NET pgm_lp50 1.045681e-01
*CONN
*I lt_lp50:Z O
*I vs_62_50:A I
*I vs_53_50:A I
*I vs_49_50:A I
*I vs_38_50:A I
*I vs_37_50:A I
*I vs_36_50:A I
*I vs_35_50:A I
*I vs_34_50:A I
*I vs_33_50:A I
*I vs_32_50:A I
*I vs_31_50:A I
*I vs_25_50:A I
*I vs_21_50:A I
*I vs_19_50:A I
*I vs_12_50:A I
*I vs_11_50:A I
*I vs_6_50:A I
*I vs_2_50:A I
*CAP
1 pgm_lp50:1 1.045681e-01
*RES
1 lt_lp50:Z pgm_lp50:1 1.178536e+02
2 pgm_lp50:1 vs_62_50:A 1.000000e-03
3 pgm_lp50:1 vs_53_50:A 1.000000e-03
4 pgm_lp50:1 vs_49_50:A 1.000000e-03
5 pgm_lp50:1 vs_38_50:A 1.000000e-03
6 pgm_lp50:1 vs_37_50:A 1.000000e-03
7 pgm_lp50:1 vs_36_50:A 1.000000e-03
8 pgm_lp50:1 vs_35_50:A 1.000000e-03
9 pgm_lp50:1 vs_34_50:A 1.000000e-03
10 pgm_lp50:1 vs_33_50:A 1.000000e-03
11 pgm_lp50:1 vs_32_50:A 1.000000e-03
12 pgm_lp50:1 vs_31_50:A 1.000000e-03
13 pgm_lp50:1 vs_25_50:A 1.000000e-03
14 pgm_lp50:1 vs_21_50:A 1.000000e-03
15 pgm_lp50:1 vs_19_50:A 1.000000e-03
16 pgm_lp50:1 vs_12_50:A 1.000000e-03
17 pgm_lp50:1 vs_11_50:A 1.000000e-03
18 pgm_lp50:1 vs_6_50:A 1.000000e-03
19 pgm_lp50:1 vs_2_50:A 1.000000e-03
*END

*D_NET pgm_lp51 8.904686e-02
*CONN
*I lt_lp51:Z O
*I vs_57_51:A I
*I vs_56_51:A I
*I vs_52_51:A I
*I vs_48_51:A I
*I vs_45_51:A I
*I vs_41_51:A I
*I vs_40_51:A I
*I vs_34_51:A I
*I vs_32_51:A I
*I vs_31_51:A I
*I vs_30_51:A I
*I vs_25_51:A I
*I vs_18_51:A I
*I vs_14_51:A I
*I vs_9_51:A I
*I vs_6_51:A I
*CAP
1 pgm_lp51:1 8.904686e-02
*RES
1 lt_lp51:Z pgm_lp51:1 1.004845e+02
2 pgm_lp51:1 vs_57_51:A 1.000000e-03
3 pgm_lp51:1 vs_56_51:A 1.000000e-03
4 pgm_lp51:1 vs_52_51:A 1.000000e-03
5 pgm_lp51:1 vs_48_51:A 1.000000e-03
6 pgm_lp51:1 vs_45_51:A 1.000000e-03
7 pgm_lp51:1 vs_41_51:A 1.000000e-03
8 pgm_lp51:1 vs_40_51:A 1.000000e-03
9 pgm_lp51:1 vs_34_51:A 1.000000e-03
10 pgm_lp51:1 vs_32_51:A 1.000000e-03
11 pgm_lp51:1 vs_31_51:A 1.000000e-03
12 pgm_lp51:1 vs_30_51:A 1.000000e-03
13 pgm_lp51:1 vs_25_51:A 1.000000e-03
14 pgm_lp51:1 vs_18_51:A 1.000000e-03
15 pgm_lp51:1 vs_14_51:A 1.000000e-03
16 pgm_lp51:1 vs_9_51:A 1.000000e-03
17 pgm_lp51:1 vs_6_51:A 1.000000e-03
*END

*D_NET pgm_lp52 1.112395e-01
*CONN
*I lt_lp52:Z O
*I vs_63_52:A I
*I vs_62_52:A I
*I vs_60_52:A I
*I vs_57_52:A I
*I vs_56_52:A I
*I vs_49_52:A I
*I vs_47_52:A I
*I vs_46_52:A I
*I vs_43_52:A I
*I vs_41_52:A I
*I vs_30_52:A I
*I vs_24_52:A I
*I vs_21_52:A I
*I vs_18_52:A I
*I vs_17_52:A I
*I vs_14_52:A I
*I vs_11_52:A I
*I vs_10_52:A I
*I vs_9_52:A I
*I vs_8_52:A I
*I vs_6_52:A I
*I vs_5_52:A I
*I vs_4_52:A I
*I vs_3_52:A I
*CAP
1 pgm_lp52:1 1.112395e-01
*RES
1 lt_lp52:Z pgm_lp52:1 1.226553e+02
2 pgm_lp52:1 vs_63_52:A 1.000000e-03
3 pgm_lp52:1 vs_62_52:A 1.000000e-03
4 pgm_lp52:1 vs_60_52:A 1.000000e-03
5 pgm_lp52:1 vs_57_52:A 1.000000e-03
6 pgm_lp52:1 vs_56_52:A 1.000000e-03
7 pgm_lp52:1 vs_49_52:A 1.000000e-03
8 pgm_lp52:1 vs_47_52:A 1.000000e-03
9 pgm_lp52:1 vs_46_52:A 1.000000e-03
10 pgm_lp52:1 vs_43_52:A 1.000000e-03
11 pgm_lp52:1 vs_41_52:A 1.000000e-03
12 pgm_lp52:1 vs_30_52:A 1.000000e-03
13 pgm_lp52:1 vs_24_52:A 1.000000e-03
14 pgm_lp52:1 vs_21_52:A 1.000000e-03
15 pgm_lp52:1 vs_18_52:A 1.000000e-03
16 pgm_lp52:1 vs_17_52:A 1.000000e-03
17 pgm_lp52:1 vs_14_52:A 1.000000e-03
18 pgm_lp52:1 vs_11_52:A 1.000000e-03
19 pgm_lp52:1 vs_10_52:A 1.000000e-03
20 pgm_lp52:1 vs_9_52:A 1.000000e-03
21 pgm_lp52:1 vs_8_52:A 1.000000e-03
22 pgm_lp52:1 vs_6_52:A 1.000000e-03
23 pgm_lp52:1 vs_5_52:A 1.000000e-03
24 pgm_lp52:1 vs_4_52:A 1.000000e-03
25 pgm_lp52:1 vs_3_52:A 1.000000e-03
*END

*D_NET pgm_lp53 9.484636e-02
*CONN
*I lt_lp53:Z O
*I vs_63_53:A I
*I vs_45_53:A I
*I vs_39_53:A I
*I vs_33_53:A I
*I vs_32_53:A I
*I vs_28_53:A I
*I vs_24_53:A I
*I vs_23_53:A I
*I vs_22_53:A I
*I vs_14_53:A I
*I vs_13_53:A I
*I vs_11_53:A I
*I vs_10_53:A I
*I vs_8_53:A I
*CAP
1 pgm_lp53:1 9.484636e-02
*RES
1 lt_lp53:Z pgm_lp53:1 1.076299e+02
2 pgm_lp53:1 vs_63_53:A 1.000000e-03
3 pgm_lp53:1 vs_45_53:A 1.000000e-03
4 pgm_lp53:1 vs_39_53:A 1.000000e-03
5 pgm_lp53:1 vs_33_53:A 1.000000e-03
6 pgm_lp53:1 vs_32_53:A 1.000000e-03
7 pgm_lp53:1 vs_28_53:A 1.000000e-03
8 pgm_lp53:1 vs_24_53:A 1.000000e-03
9 pgm_lp53:1 vs_23_53:A 1.000000e-03
10 pgm_lp53:1 vs_22_53:A 1.000000e-03
11 pgm_lp53:1 vs_14_53:A 1.000000e-03
12 pgm_lp53:1 vs_13_53:A 1.000000e-03
13 pgm_lp53:1 vs_11_53:A 1.000000e-03
14 pgm_lp53:1 vs_10_53:A 1.000000e-03
15 pgm_lp53:1 vs_8_53:A 1.000000e-03
*END

*D_NET pgm_lp54 9.748423e-02
*CONN
*I lt_lp54:Z O
*I vs_63_54:A I
*I vs_59_54:A I
*I vs_58_54:A I
*I vs_57_54:A I
*I vs_55_54:A I
*I vs_54_54:A I
*I vs_53_54:A I
*I vs_52_54:A I
*I vs_50_54:A I
*I vs_46_54:A I
*I vs_45_54:A I
*I vs_42_54:A I
*I vs_41_54:A I
*I vs_35_54:A I
*I vs_34_54:A I
*I vs_33_54:A I
*I vs_31_54:A I
*I vs_30_54:A I
*I vs_29_54:A I
*I vs_25_54:A I
*I vs_21_54:A I
*I vs_18_54:A I
*I vs_16_54:A I
*I vs_6_54:A I
*CAP
1 pgm_lp54:1 9.748423e-02
*RES
1 lt_lp54:Z pgm_lp54:1 1.100590e+02
2 pgm_lp54:1 vs_63_54:A 1.000000e-03
3 pgm_lp54:1 vs_59_54:A 1.000000e-03
4 pgm_lp54:1 vs_58_54:A 1.000000e-03
5 pgm_lp54:1 vs_57_54:A 1.000000e-03
6 pgm_lp54:1 vs_55_54:A 1.000000e-03
7 pgm_lp54:1 vs_54_54:A 1.000000e-03
8 pgm_lp54:1 vs_53_54:A 1.000000e-03
9 pgm_lp54:1 vs_52_54:A 1.000000e-03
10 pgm_lp54:1 vs_50_54:A 1.000000e-03
11 pgm_lp54:1 vs_46_54:A 1.000000e-03
12 pgm_lp54:1 vs_45_54:A 1.000000e-03
13 pgm_lp54:1 vs_42_54:A 1.000000e-03
14 pgm_lp54:1 vs_41_54:A 1.000000e-03
15 pgm_lp54:1 vs_35_54:A 1.000000e-03
16 pgm_lp54:1 vs_34_54:A 1.000000e-03
17 pgm_lp54:1 vs_33_54:A 1.000000e-03
18 pgm_lp54:1 vs_31_54:A 1.000000e-03
19 pgm_lp54:1 vs_30_54:A 1.000000e-03
20 pgm_lp54:1 vs_29_54:A 1.000000e-03
21 pgm_lp54:1 vs_25_54:A 1.000000e-03
22 pgm_lp54:1 vs_21_54:A 1.000000e-03
23 pgm_lp54:1 vs_18_54:A 1.000000e-03
24 pgm_lp54:1 vs_16_54:A 1.000000e-03
25 pgm_lp54:1 vs_6_54:A 1.000000e-03
*END

*D_NET pgm_lp55 9.068427e-02
*CONN
*I lt_lp55:Z O
*I vs_56_55:A I
*I vs_54_55:A I
*I vs_52_55:A I
*I vs_48_55:A I
*I vs_46_55:A I
*I vs_45_55:A I
*I vs_42_55:A I
*I vs_41_55:A I
*I vs_40_55:A I
*I vs_34_55:A I
*I vs_33_55:A I
*I vs_29_55:A I
*I vs_26_55:A I
*I vs_21_55:A I
*I vs_20_55:A I
*I vs_19_55:A I
*I vs_18_55:A I
*I vs_17_55:A I
*I vs_15_55:A I
*I vs_9_55:A I
*I vs_8_55:A I
*CAP
1 pgm_lp55:1 9.068427e-02
*RES
1 lt_lp55:Z pgm_lp55:1 1.020546e+02
2 pgm_lp55:1 vs_56_55:A 1.000000e-03
3 pgm_lp55:1 vs_54_55:A 1.000000e-03
4 pgm_lp55:1 vs_52_55:A 1.000000e-03
5 pgm_lp55:1 vs_48_55:A 1.000000e-03
6 pgm_lp55:1 vs_46_55:A 1.000000e-03
7 pgm_lp55:1 vs_45_55:A 1.000000e-03
8 pgm_lp55:1 vs_42_55:A 1.000000e-03
9 pgm_lp55:1 vs_41_55:A 1.000000e-03
10 pgm_lp55:1 vs_40_55:A 1.000000e-03
11 pgm_lp55:1 vs_34_55:A 1.000000e-03
12 pgm_lp55:1 vs_33_55:A 1.000000e-03
13 pgm_lp55:1 vs_29_55:A 1.000000e-03
14 pgm_lp55:1 vs_26_55:A 1.000000e-03
15 pgm_lp55:1 vs_21_55:A 1.000000e-03
16 pgm_lp55:1 vs_20_55:A 1.000000e-03
17 pgm_lp55:1 vs_19_55:A 1.000000e-03
18 pgm_lp55:1 vs_18_55:A 1.000000e-03
19 pgm_lp55:1 vs_17_55:A 1.000000e-03
20 pgm_lp55:1 vs_15_55:A 1.000000e-03
21 pgm_lp55:1 vs_9_55:A 1.000000e-03
22 pgm_lp55:1 vs_8_55:A 1.000000e-03
*END

*D_NET pgm_lp56 1.010997e-01
*CONN
*I lt_lp56:Z O
*I vs_62_56:A I
*I vs_58_56:A I
*I vs_56_56:A I
*I vs_54_56:A I
*I vs_51_56:A I
*I vs_49_56:A I
*I vs_46_56:A I
*I vs_43_56:A I
*I vs_40_56:A I
*I vs_39_56:A I
*I vs_37_56:A I
*I vs_34_56:A I
*I vs_27_56:A I
*I vs_26_56:A I
*I vs_25_56:A I
*I vs_17_56:A I
*I vs_15_56:A I
*I vs_10_56:A I
*I vs_7_56:A I
*I vs_4_56:A I
*CAP
1 pgm_lp56:1 1.010997e-01
*RES
1 lt_lp56:Z pgm_lp56:1 1.135859e+02
2 pgm_lp56:1 vs_62_56:A 1.000000e-03
3 pgm_lp56:1 vs_58_56:A 1.000000e-03
4 pgm_lp56:1 vs_56_56:A 1.000000e-03
5 pgm_lp56:1 vs_54_56:A 1.000000e-03
6 pgm_lp56:1 vs_51_56:A 1.000000e-03
7 pgm_lp56:1 vs_49_56:A 1.000000e-03
8 pgm_lp56:1 vs_46_56:A 1.000000e-03
9 pgm_lp56:1 vs_43_56:A 1.000000e-03
10 pgm_lp56:1 vs_40_56:A 1.000000e-03
11 pgm_lp56:1 vs_39_56:A 1.000000e-03
12 pgm_lp56:1 vs_37_56:A 1.000000e-03
13 pgm_lp56:1 vs_34_56:A 1.000000e-03
14 pgm_lp56:1 vs_27_56:A 1.000000e-03
15 pgm_lp56:1 vs_26_56:A 1.000000e-03
16 pgm_lp56:1 vs_25_56:A 1.000000e-03
17 pgm_lp56:1 vs_17_56:A 1.000000e-03
18 pgm_lp56:1 vs_15_56:A 1.000000e-03
19 pgm_lp56:1 vs_10_56:A 1.000000e-03
20 pgm_lp56:1 vs_7_56:A 1.000000e-03
21 pgm_lp56:1 vs_4_56:A 1.000000e-03
*END

*D_NET pgm_lp57 1.124671e-01
*CONN
*I lt_lp57:Z O
*I vs_63_57:A I
*I vs_55_57:A I
*I vs_49_57:A I
*I vs_46_57:A I
*I vs_43_57:A I
*I vs_40_57:A I
*I vs_38_57:A I
*I vs_35_57:A I
*I vs_32_57:A I
*I vs_28_57:A I
*I vs_24_57:A I
*I vs_23_57:A I
*I vs_18_57:A I
*I vs_16_57:A I
*I vs_10_57:A I
*I vs_8_57:A I
*I vs_4_57:A I
*I vs_3_57:A I
*I vs_1_57:A I
*CAP
1 pgm_lp57:1 1.124671e-01
*RES
1 lt_lp57:Z pgm_lp57:1 1.264970e+02
2 pgm_lp57:1 vs_63_57:A 1.000000e-03
3 pgm_lp57:1 vs_55_57:A 1.000000e-03
4 pgm_lp57:1 vs_49_57:A 1.000000e-03
5 pgm_lp57:1 vs_46_57:A 1.000000e-03
6 pgm_lp57:1 vs_43_57:A 1.000000e-03
7 pgm_lp57:1 vs_40_57:A 1.000000e-03
8 pgm_lp57:1 vs_38_57:A 1.000000e-03
9 pgm_lp57:1 vs_35_57:A 1.000000e-03
10 pgm_lp57:1 vs_32_57:A 1.000000e-03
11 pgm_lp57:1 vs_28_57:A 1.000000e-03
12 pgm_lp57:1 vs_24_57:A 1.000000e-03
13 pgm_lp57:1 vs_23_57:A 1.000000e-03
14 pgm_lp57:1 vs_18_57:A 1.000000e-03
15 pgm_lp57:1 vs_16_57:A 1.000000e-03
16 pgm_lp57:1 vs_10_57:A 1.000000e-03
17 pgm_lp57:1 vs_8_57:A 1.000000e-03
18 pgm_lp57:1 vs_4_57:A 1.000000e-03
19 pgm_lp57:1 vs_3_57:A 1.000000e-03
20 pgm_lp57:1 vs_1_57:A 1.000000e-03
*END

*D_NET pgm_lp58 1.062978e-01
*CONN
*I lt_lp58:Z O
*I vs_60_58:A I
*I vs_58_58:A I
*I vs_57_58:A I
*I vs_55_58:A I
*I vs_52_58:A I
*I vs_49_58:A I
*I vs_48_58:A I
*I vs_39_58:A I
*I vs_36_58:A I
*I vs_30_58:A I
*I vs_26_58:A I
*I vs_25_58:A I
*I vs_20_58:A I
*I vs_14_58:A I
*I vs_12_58:A I
*I vs_10_58:A I
*I vs_4_58:A I
*I vs_3_58:A I
*I vs_1_58:A I
*I vs_0_58:A I
*CAP
1 pgm_lp58:1 1.062978e-01
*RES
1 lt_lp58:Z pgm_lp58:1 1.200606e+02
2 pgm_lp58:1 vs_60_58:A 1.000000e-03
3 pgm_lp58:1 vs_58_58:A 1.000000e-03
4 pgm_lp58:1 vs_57_58:A 1.000000e-03
5 pgm_lp58:1 vs_55_58:A 1.000000e-03
6 pgm_lp58:1 vs_52_58:A 1.000000e-03
7 pgm_lp58:1 vs_49_58:A 1.000000e-03
8 pgm_lp58:1 vs_48_58:A 1.000000e-03
9 pgm_lp58:1 vs_39_58:A 1.000000e-03
10 pgm_lp58:1 vs_36_58:A 1.000000e-03
11 pgm_lp58:1 vs_30_58:A 1.000000e-03
12 pgm_lp58:1 vs_26_58:A 1.000000e-03
13 pgm_lp58:1 vs_25_58:A 1.000000e-03
14 pgm_lp58:1 vs_20_58:A 1.000000e-03
15 pgm_lp58:1 vs_14_58:A 1.000000e-03
16 pgm_lp58:1 vs_12_58:A 1.000000e-03
17 pgm_lp58:1 vs_10_58:A 1.000000e-03
18 pgm_lp58:1 vs_4_58:A 1.000000e-03
19 pgm_lp58:1 vs_3_58:A 1.000000e-03
20 pgm_lp58:1 vs_1_58:A 1.000000e-03
21 pgm_lp58:1 vs_0_58:A 1.000000e-03
*END

*D_NET pgm_lp59 1.158398e-01
*CONN
*I lt_lp59:Z O
*I vs_58_59:A I
*I vs_56_59:A I
*I vs_54_59:A I
*I vs_52_59:A I
*I vs_49_59:A I
*I vs_46_59:A I
*I vs_43_59:A I
*I vs_42_59:A I
*I vs_36_59:A I
*I vs_35_59:A I
*I vs_34_59:A I
*I vs_30_59:A I
*I vs_27_59:A I
*I vs_24_59:A I
*I vs_23_59:A I
*I vs_20_59:A I
*I vs_17_59:A I
*I vs_14_59:A I
*I vs_10_59:A I
*I vs_5_59:A I
*I vs_3_59:A I
*I vs_0_59:A I
*CAP
1 pgm_lp59:1 1.158398e-01
*RES
1 lt_lp59:Z pgm_lp59:1 1.278999e+02
2 pgm_lp59:1 vs_58_59:A 1.000000e-03
3 pgm_lp59:1 vs_56_59:A 1.000000e-03
4 pgm_lp59:1 vs_54_59:A 1.000000e-03
5 pgm_lp59:1 vs_52_59:A 1.000000e-03
6 pgm_lp59:1 vs_49_59:A 1.000000e-03
7 pgm_lp59:1 vs_46_59:A 1.000000e-03
8 pgm_lp59:1 vs_43_59:A 1.000000e-03
9 pgm_lp59:1 vs_42_59:A 1.000000e-03
10 pgm_lp59:1 vs_36_59:A 1.000000e-03
11 pgm_lp59:1 vs_35_59:A 1.000000e-03
12 pgm_lp59:1 vs_34_59:A 1.000000e-03
13 pgm_lp59:1 vs_30_59:A 1.000000e-03
14 pgm_lp59:1 vs_27_59:A 1.000000e-03
15 pgm_lp59:1 vs_24_59:A 1.000000e-03
16 pgm_lp59:1 vs_23_59:A 1.000000e-03
17 pgm_lp59:1 vs_20_59:A 1.000000e-03
18 pgm_lp59:1 vs_17_59:A 1.000000e-03
19 pgm_lp59:1 vs_14_59:A 1.000000e-03
20 pgm_lp59:1 vs_10_59:A 1.000000e-03
21 pgm_lp59:1 vs_5_59:A 1.000000e-03
22 pgm_lp59:1 vs_3_59:A 1.000000e-03
23 pgm_lp59:1 vs_0_59:A 1.000000e-03
*END

*D_NET pgm_lp6 1.002346e-01
*CONN
*I lt_lp6:Z O
*I vs_63_6:A I
*I vs_62_6:A I
*I vs_61_6:A I
*I vs_59_6:A I
*I vs_58_6:A I
*I vs_53_6:A I
*I vs_51_6:A I
*I vs_50_6:A I
*I vs_48_6:A I
*I vs_34_6:A I
*I vs_31_6:A I
*I vs_29_6:A I
*I vs_28_6:A I
*I vs_23_6:A I
*I vs_17_6:A I
*I vs_7_6:A I
*I vs_4_6:A I
*CAP
1 pgm_lp6:1 1.002346e-01
*RES
1 lt_lp6:Z pgm_lp6:1 1.122161e+02
2 pgm_lp6:1 vs_63_6:A 1.000000e-03
3 pgm_lp6:1 vs_62_6:A 1.000000e-03
4 pgm_lp6:1 vs_61_6:A 1.000000e-03
5 pgm_lp6:1 vs_59_6:A 1.000000e-03
6 pgm_lp6:1 vs_58_6:A 1.000000e-03
7 pgm_lp6:1 vs_53_6:A 1.000000e-03
8 pgm_lp6:1 vs_51_6:A 1.000000e-03
9 pgm_lp6:1 vs_50_6:A 1.000000e-03
10 pgm_lp6:1 vs_48_6:A 1.000000e-03
11 pgm_lp6:1 vs_34_6:A 1.000000e-03
12 pgm_lp6:1 vs_31_6:A 1.000000e-03
13 pgm_lp6:1 vs_29_6:A 1.000000e-03
14 pgm_lp6:1 vs_28_6:A 1.000000e-03
15 pgm_lp6:1 vs_23_6:A 1.000000e-03
16 pgm_lp6:1 vs_17_6:A 1.000000e-03
17 pgm_lp6:1 vs_7_6:A 1.000000e-03
18 pgm_lp6:1 vs_4_6:A 1.000000e-03
*END

*D_NET pgm_lp60 9.250103e-02
*CONN
*I lt_lp60:Z O
*I vs_58_60:A I
*I vs_50_60:A I
*I vs_47_60:A I
*I vs_45_60:A I
*I vs_43_60:A I
*I vs_34_60:A I
*I vs_30_60:A I
*I vs_23_60:A I
*I vs_22_60:A I
*I vs_18_60:A I
*I vs_15_60:A I
*I vs_14_60:A I
*I vs_13_60:A I
*I vs_12_60:A I
*I vs_8_60:A I
*I vs_6_60:A I
*I vs_5_60:A I
*CAP
1 pgm_lp60:1 9.250103e-02
*RES
1 lt_lp60:Z pgm_lp60:1 1.030198e+02
2 pgm_lp60:1 vs_58_60:A 1.000000e-03
3 pgm_lp60:1 vs_50_60:A 1.000000e-03
4 pgm_lp60:1 vs_47_60:A 1.000000e-03
5 pgm_lp60:1 vs_45_60:A 1.000000e-03
6 pgm_lp60:1 vs_43_60:A 1.000000e-03
7 pgm_lp60:1 vs_34_60:A 1.000000e-03
8 pgm_lp60:1 vs_30_60:A 1.000000e-03
9 pgm_lp60:1 vs_23_60:A 1.000000e-03
10 pgm_lp60:1 vs_22_60:A 1.000000e-03
11 pgm_lp60:1 vs_18_60:A 1.000000e-03
12 pgm_lp60:1 vs_15_60:A 1.000000e-03
13 pgm_lp60:1 vs_14_60:A 1.000000e-03
14 pgm_lp60:1 vs_13_60:A 1.000000e-03
15 pgm_lp60:1 vs_12_60:A 1.000000e-03
16 pgm_lp60:1 vs_8_60:A 1.000000e-03
17 pgm_lp60:1 vs_6_60:A 1.000000e-03
18 pgm_lp60:1 vs_5_60:A 1.000000e-03
*END

*D_NET pgm_lp61 9.594478e-02
*CONN
*I lt_lp61:Z O
*I vs_62_61:A I
*I vs_58_61:A I
*I vs_56_61:A I
*I vs_54_61:A I
*I vs_50_61:A I
*I vs_48_61:A I
*I vs_46_61:A I
*I vs_45_61:A I
*I vs_43_61:A I
*I vs_40_61:A I
*I vs_39_61:A I
*I vs_38_61:A I
*I vs_37_61:A I
*I vs_36_61:A I
*I vs_31_61:A I
*I vs_28_61:A I
*I vs_22_61:A I
*I vs_20_61:A I
*I vs_19_61:A I
*I vs_16_61:A I
*I vs_14_61:A I
*I vs_7_61:A I
*CAP
1 pgm_lp61:1 9.594478e-02
*RES
1 lt_lp61:Z pgm_lp61:1 1.065718e+02
2 pgm_lp61:1 vs_62_61:A 1.000000e-03
3 pgm_lp61:1 vs_58_61:A 1.000000e-03
4 pgm_lp61:1 vs_56_61:A 1.000000e-03
5 pgm_lp61:1 vs_54_61:A 1.000000e-03
6 pgm_lp61:1 vs_50_61:A 1.000000e-03
7 pgm_lp61:1 vs_48_61:A 1.000000e-03
8 pgm_lp61:1 vs_46_61:A 1.000000e-03
9 pgm_lp61:1 vs_45_61:A 1.000000e-03
10 pgm_lp61:1 vs_43_61:A 1.000000e-03
11 pgm_lp61:1 vs_40_61:A 1.000000e-03
12 pgm_lp61:1 vs_39_61:A 1.000000e-03
13 pgm_lp61:1 vs_38_61:A 1.000000e-03
14 pgm_lp61:1 vs_37_61:A 1.000000e-03
15 pgm_lp61:1 vs_36_61:A 1.000000e-03
16 pgm_lp61:1 vs_31_61:A 1.000000e-03
17 pgm_lp61:1 vs_28_61:A 1.000000e-03
18 pgm_lp61:1 vs_22_61:A 1.000000e-03
19 pgm_lp61:1 vs_20_61:A 1.000000e-03
20 pgm_lp61:1 vs_19_61:A 1.000000e-03
21 pgm_lp61:1 vs_16_61:A 1.000000e-03
22 pgm_lp61:1 vs_14_61:A 1.000000e-03
23 pgm_lp61:1 vs_7_61:A 1.000000e-03
*END

*D_NET pgm_lp62 1.110114e-01
*CONN
*I lt_lp62:Z O
*I vs_62_62:A I
*I vs_61_62:A I
*I vs_59_62:A I
*I vs_55_62:A I
*I vs_54_62:A I
*I vs_50_62:A I
*I vs_46_62:A I
*I vs_45_62:A I
*I vs_42_62:A I
*I vs_39_62:A I
*I vs_37_62:A I
*I vs_35_62:A I
*I vs_31_62:A I
*I vs_27_62:A I
*I vs_19_62:A I
*I vs_15_62:A I
*I vs_7_62:A I
*I vs_4_62:A I
*CAP
1 pgm_lp62:1 1.110114e-01
*RES
1 lt_lp62:Z pgm_lp62:1 1.235609e+02
2 pgm_lp62:1 vs_62_62:A 1.000000e-03
3 pgm_lp62:1 vs_61_62:A 1.000000e-03
4 pgm_lp62:1 vs_59_62:A 1.000000e-03
5 pgm_lp62:1 vs_55_62:A 1.000000e-03
6 pgm_lp62:1 vs_54_62:A 1.000000e-03
7 pgm_lp62:1 vs_50_62:A 1.000000e-03
8 pgm_lp62:1 vs_46_62:A 1.000000e-03
9 pgm_lp62:1 vs_45_62:A 1.000000e-03
10 pgm_lp62:1 vs_42_62:A 1.000000e-03
11 pgm_lp62:1 vs_39_62:A 1.000000e-03
12 pgm_lp62:1 vs_37_62:A 1.000000e-03
13 pgm_lp62:1 vs_35_62:A 1.000000e-03
14 pgm_lp62:1 vs_31_62:A 1.000000e-03
15 pgm_lp62:1 vs_27_62:A 1.000000e-03
16 pgm_lp62:1 vs_19_62:A 1.000000e-03
17 pgm_lp62:1 vs_15_62:A 1.000000e-03
18 pgm_lp62:1 vs_7_62:A 1.000000e-03
19 pgm_lp62:1 vs_4_62:A 1.000000e-03
*END

*D_NET pgm_lp63 1.026372e-01
*CONN
*I lt_lp63:Z O
*I vs_58_63:A I
*I vs_56_63:A I
*I vs_52_63:A I
*I vs_51_63:A I
*I vs_46_63:A I
*I vs_39_63:A I
*I vs_38_63:A I
*I vs_34_63:A I
*I vs_30_63:A I
*I vs_28_63:A I
*I vs_23_63:A I
*I vs_22_63:A I
*I vs_21_63:A I
*I vs_20_63:A I
*I vs_19_63:A I
*I vs_16_63:A I
*I vs_15_63:A I
*I vs_11_63:A I
*I vs_9_63:A I
*I vs_8_63:A I
*I vs_1_63:A I
*CAP
1 pgm_lp63:1 1.026372e-01
*RES
1 lt_lp63:Z pgm_lp63:1 1.143459e+02
2 pgm_lp63:1 vs_58_63:A 1.000000e-03
3 pgm_lp63:1 vs_56_63:A 1.000000e-03
4 pgm_lp63:1 vs_52_63:A 1.000000e-03
5 pgm_lp63:1 vs_51_63:A 1.000000e-03
6 pgm_lp63:1 vs_46_63:A 1.000000e-03
7 pgm_lp63:1 vs_39_63:A 1.000000e-03
8 pgm_lp63:1 vs_38_63:A 1.000000e-03
9 pgm_lp63:1 vs_34_63:A 1.000000e-03
10 pgm_lp63:1 vs_30_63:A 1.000000e-03
11 pgm_lp63:1 vs_28_63:A 1.000000e-03
12 pgm_lp63:1 vs_23_63:A 1.000000e-03
13 pgm_lp63:1 vs_22_63:A 1.000000e-03
14 pgm_lp63:1 vs_21_63:A 1.000000e-03
15 pgm_lp63:1 vs_20_63:A 1.000000e-03
16 pgm_lp63:1 vs_19_63:A 1.000000e-03
17 pgm_lp63:1 vs_16_63:A 1.000000e-03
18 pgm_lp63:1 vs_15_63:A 1.000000e-03
19 pgm_lp63:1 vs_11_63:A 1.000000e-03
20 pgm_lp63:1 vs_9_63:A 1.000000e-03
21 pgm_lp63:1 vs_8_63:A 1.000000e-03
22 pgm_lp63:1 vs_1_63:A 1.000000e-03
*END

*D_NET pgm_lp7 1.026775e-01
*CONN
*I lt_lp7:Z O
*I vs_60_7:A I
*I vs_58_7:A I
*I vs_56_7:A I
*I vs_38_7:A I
*I vs_36_7:A I
*I vs_33_7:A I
*I vs_31_7:A I
*I vs_26_7:A I
*I vs_21_7:A I
*I vs_18_7:A I
*I vs_13_7:A I
*I vs_11_7:A I
*I vs_10_7:A I
*I vs_7_7:A I
*I vs_4_7:A I
*I vs_2_7:A I
*CAP
1 pgm_lp7:1 1.026775e-01
*RES
1 lt_lp7:Z pgm_lp7:1 1.149560e+02
2 pgm_lp7:1 vs_60_7:A 1.000000e-03
3 pgm_lp7:1 vs_58_7:A 1.000000e-03
4 pgm_lp7:1 vs_56_7:A 1.000000e-03
5 pgm_lp7:1 vs_38_7:A 1.000000e-03
6 pgm_lp7:1 vs_36_7:A 1.000000e-03
7 pgm_lp7:1 vs_33_7:A 1.000000e-03
8 pgm_lp7:1 vs_31_7:A 1.000000e-03
9 pgm_lp7:1 vs_26_7:A 1.000000e-03
10 pgm_lp7:1 vs_21_7:A 1.000000e-03
11 pgm_lp7:1 vs_18_7:A 1.000000e-03
12 pgm_lp7:1 vs_13_7:A 1.000000e-03
13 pgm_lp7:1 vs_11_7:A 1.000000e-03
14 pgm_lp7:1 vs_10_7:A 1.000000e-03
15 pgm_lp7:1 vs_7_7:A 1.000000e-03
16 pgm_lp7:1 vs_4_7:A 1.000000e-03
17 pgm_lp7:1 vs_2_7:A 1.000000e-03
*END

*D_NET pgm_lp8 9.458381e-02
*CONN
*I lt_lp8:Z O
*I vs_57_8:A I
*I vs_55_8:A I
*I vs_53_8:A I
*I vs_46_8:A I
*I vs_44_8:A I
*I vs_38_8:A I
*I vs_35_8:A I
*I vs_32_8:A I
*I vs_16_8:A I
*I vs_8_8:A I
*I vs_7_8:A I
*I vs_5_8:A I
*I vs_3_8:A I
*I vs_1_8:A I
*CAP
1 pgm_lp8:1 9.458381e-02
*RES
1 lt_lp8:Z pgm_lp8:1 1.059915e+02
2 pgm_lp8:1 vs_57_8:A 1.000000e-03
3 pgm_lp8:1 vs_55_8:A 1.000000e-03
4 pgm_lp8:1 vs_53_8:A 1.000000e-03
5 pgm_lp8:1 vs_46_8:A 1.000000e-03
6 pgm_lp8:1 vs_44_8:A 1.000000e-03
7 pgm_lp8:1 vs_38_8:A 1.000000e-03
8 pgm_lp8:1 vs_35_8:A 1.000000e-03
9 pgm_lp8:1 vs_32_8:A 1.000000e-03
10 pgm_lp8:1 vs_16_8:A 1.000000e-03
11 pgm_lp8:1 vs_8_8:A 1.000000e-03
12 pgm_lp8:1 vs_7_8:A 1.000000e-03
13 pgm_lp8:1 vs_5_8:A 1.000000e-03
14 pgm_lp8:1 vs_3_8:A 1.000000e-03
15 pgm_lp8:1 vs_1_8:A 1.000000e-03
*END

*D_NET pgm_lp9 9.795248e-02
*CONN
*I lt_lp9:Z O
*I vs_56_9:A I
*I vs_55_9:A I
*I vs_53_9:A I
*I vs_52_9:A I
*I vs_43_9:A I
*I vs_34_9:A I
*I vs_27_9:A I
*I vs_19_9:A I
*I vs_17_9:A I
*I vs_16_9:A I
*I vs_13_9:A I
*I vs_5_9:A I
*I vs_2_9:A I
*I vs_1_9:A I
*CAP
1 pgm_lp9:1 9.795248e-02
*RES
1 lt_lp9:Z pgm_lp9:1 1.087419e+02
2 pgm_lp9:1 vs_56_9:A 1.000000e-03
3 pgm_lp9:1 vs_55_9:A 1.000000e-03
4 pgm_lp9:1 vs_53_9:A 1.000000e-03
5 pgm_lp9:1 vs_52_9:A 1.000000e-03
6 pgm_lp9:1 vs_43_9:A 1.000000e-03
7 pgm_lp9:1 vs_34_9:A 1.000000e-03
8 pgm_lp9:1 vs_27_9:A 1.000000e-03
9 pgm_lp9:1 vs_19_9:A 1.000000e-03
10 pgm_lp9:1 vs_17_9:A 1.000000e-03
11 pgm_lp9:1 vs_16_9:A 1.000000e-03
12 pgm_lp9:1 vs_13_9:A 1.000000e-03
13 pgm_lp9:1 vs_5_9:A 1.000000e-03
14 pgm_lp9:1 vs_2_9:A 1.000000e-03
15 pgm_lp9:1 vs_1_9:A 1.000000e-03
*END

