*SPEF "ieee 1481-1999"
*DESIGN "top"
*DATE "r3"
*VENDOR "r3_prog_spef"
*PROGRAM "r3_prog_spef.py"
*VERSION "1"
*DESIGN_FLOW "NAME_SCOPE LOCAL" "PIN_CAP NONE"
*DIVIDER /
*DELIMITER :
*BUS_DELIMITER []
*T_UNIT 1 NS
*C_UNIT 1 PF
*R_UNIT 1 OHM
*L_UNIT 1 HENRY

*D_NET pgm_ln0 1.121803e-01
*CONN
*I lt_ln0:Z O
*I vs_63_0:A I
*I vs_62_0:A I
*I vs_61_0:A I
*I vs_60_0:A I
*I vs_59_0:A I
*I vs_58_0:A I
*I vs_57_0:A I
*I vs_56_0:A I
*I vs_55_0:A I
*I vs_54_0:A I
*I vs_53_0:A I
*I vs_52_0:A I
*I vs_51_0:A I
*I vs_50_0:A I
*I vs_49_0:A I
*I vs_48_0:A I
*I vs_47_0:A I
*I vs_46_0:A I
*I vs_45_0:A I
*I vs_44_0:A I
*I vs_43_0:A I
*I vs_42_0:A I
*I vs_41_0:A I
*I vs_40_0:A I
*I vs_39_0:A I
*I vs_38_0:A I
*I vs_37_0:A I
*I vs_36_0:A I
*I vs_35_0:A I
*I vs_34_0:A I
*I vs_33_0:A I
*I vs_32_0:A I
*I vs_31_0:A I
*I vs_30_0:A I
*I vs_29_0:A I
*I vs_28_0:A I
*I vs_27_0:A I
*I vs_26_0:A I
*I vs_25_0:A I
*I vs_24_0:A I
*I vs_23_0:A I
*I vs_22_0:A I
*I vs_21_0:A I
*I vs_20_0:A I
*I vs_19_0:A I
*I vs_18_0:A I
*I vs_17_0:A I
*I vs_16_0:A I
*I vs_15_0:A I
*I vs_14_0:A I
*I vs_13_0:A I
*I vs_12_0:A I
*I vs_11_0:A I
*I vs_10_0:A I
*I vs_9_0:A I
*I vs_8_0:A I
*I vs_7_0:A I
*I vs_6_0:A I
*I vs_5_0:A I
*I vs_4_0:A I
*I vs_3_0:A I
*I vs_2_0:A I
*I vs_1_0:A I
*I vs_0_0:A I
*CAP
1 pgm_ln0:1 1.121803e-01
*RES
1 lt_ln0:Z pgm_ln0:1 1.273002e+02
2 pgm_ln0:1 vs_63_0:A 1.000000e-03
3 pgm_ln0:1 vs_62_0:A 1.000000e-03
4 pgm_ln0:1 vs_61_0:A 1.000000e-03
5 pgm_ln0:1 vs_60_0:A 1.000000e-03
6 pgm_ln0:1 vs_59_0:A 1.000000e-03
7 pgm_ln0:1 vs_58_0:A 1.000000e-03
8 pgm_ln0:1 vs_57_0:A 1.000000e-03
9 pgm_ln0:1 vs_56_0:A 1.000000e-03
10 pgm_ln0:1 vs_55_0:A 1.000000e-03
11 pgm_ln0:1 vs_54_0:A 1.000000e-03
12 pgm_ln0:1 vs_53_0:A 1.000000e-03
13 pgm_ln0:1 vs_52_0:A 1.000000e-03
14 pgm_ln0:1 vs_51_0:A 1.000000e-03
15 pgm_ln0:1 vs_50_0:A 1.000000e-03
16 pgm_ln0:1 vs_49_0:A 1.000000e-03
17 pgm_ln0:1 vs_48_0:A 1.000000e-03
18 pgm_ln0:1 vs_47_0:A 1.000000e-03
19 pgm_ln0:1 vs_46_0:A 1.000000e-03
20 pgm_ln0:1 vs_45_0:A 1.000000e-03
21 pgm_ln0:1 vs_44_0:A 1.000000e-03
22 pgm_ln0:1 vs_43_0:A 1.000000e-03
23 pgm_ln0:1 vs_42_0:A 1.000000e-03
24 pgm_ln0:1 vs_41_0:A 1.000000e-03
25 pgm_ln0:1 vs_40_0:A 1.000000e-03
26 pgm_ln0:1 vs_39_0:A 1.000000e-03
27 pgm_ln0:1 vs_38_0:A 1.000000e-03
28 pgm_ln0:1 vs_37_0:A 1.000000e-03
29 pgm_ln0:1 vs_36_0:A 1.000000e-03
30 pgm_ln0:1 vs_35_0:A 1.000000e-03
31 pgm_ln0:1 vs_34_0:A 1.000000e-03
32 pgm_ln0:1 vs_33_0:A 1.000000e-03
33 pgm_ln0:1 vs_32_0:A 1.000000e-03
34 pgm_ln0:1 vs_31_0:A 1.000000e-03
35 pgm_ln0:1 vs_30_0:A 1.000000e-03
36 pgm_ln0:1 vs_29_0:A 1.000000e-03
37 pgm_ln0:1 vs_28_0:A 1.000000e-03
38 pgm_ln0:1 vs_27_0:A 1.000000e-03
39 pgm_ln0:1 vs_26_0:A 1.000000e-03
40 pgm_ln0:1 vs_25_0:A 1.000000e-03
41 pgm_ln0:1 vs_24_0:A 1.000000e-03
42 pgm_ln0:1 vs_23_0:A 1.000000e-03
43 pgm_ln0:1 vs_22_0:A 1.000000e-03
44 pgm_ln0:1 vs_21_0:A 1.000000e-03
45 pgm_ln0:1 vs_20_0:A 1.000000e-03
46 pgm_ln0:1 vs_19_0:A 1.000000e-03
47 pgm_ln0:1 vs_18_0:A 1.000000e-03
48 pgm_ln0:1 vs_17_0:A 1.000000e-03
49 pgm_ln0:1 vs_16_0:A 1.000000e-03
50 pgm_ln0:1 vs_15_0:A 1.000000e-03
51 pgm_ln0:1 vs_14_0:A 1.000000e-03
52 pgm_ln0:1 vs_13_0:A 1.000000e-03
53 pgm_ln0:1 vs_12_0:A 1.000000e-03
54 pgm_ln0:1 vs_11_0:A 1.000000e-03
55 pgm_ln0:1 vs_10_0:A 1.000000e-03
56 pgm_ln0:1 vs_9_0:A 1.000000e-03
57 pgm_ln0:1 vs_8_0:A 1.000000e-03
58 pgm_ln0:1 vs_7_0:A 1.000000e-03
59 pgm_ln0:1 vs_6_0:A 1.000000e-03
60 pgm_ln0:1 vs_5_0:A 1.000000e-03
61 pgm_ln0:1 vs_4_0:A 1.000000e-03
62 pgm_ln0:1 vs_3_0:A 1.000000e-03
63 pgm_ln0:1 vs_2_0:A 1.000000e-03
64 pgm_ln0:1 vs_1_0:A 1.000000e-03
65 pgm_ln0:1 vs_0_0:A 1.000000e-03
*END

*D_NET pgm_ln11 1.098636e-01
*CONN
*I lt_ln11:Z O
*I vs_63_11:A I
*I vs_62_11:A I
*I vs_61_11:A I
*I vs_60_11:A I
*I vs_59_11:A I
*I vs_58_11:A I
*I vs_57_11:A I
*I vs_56_11:A I
*I vs_55_11:A I
*I vs_54_11:A I
*I vs_53_11:A I
*I vs_52_11:A I
*I vs_51_11:A I
*I vs_50_11:A I
*I vs_49_11:A I
*I vs_48_11:A I
*I vs_47_11:A I
*I vs_46_11:A I
*I vs_45_11:A I
*I vs_44_11:A I
*I vs_43_11:A I
*I vs_42_11:A I
*I vs_41_11:A I
*I vs_40_11:A I
*I vs_39_11:A I
*I vs_38_11:A I
*I vs_37_11:A I
*I vs_36_11:A I
*I vs_35_11:A I
*I vs_34_11:A I
*I vs_33_11:A I
*I vs_32_11:A I
*I vs_31_11:A I
*I vs_30_11:A I
*I vs_29_11:A I
*I vs_28_11:A I
*I vs_27_11:A I
*I vs_26_11:A I
*I vs_25_11:A I
*I vs_24_11:A I
*I vs_23_11:A I
*I vs_22_11:A I
*I vs_21_11:A I
*I vs_20_11:A I
*I vs_19_11:A I
*I vs_18_11:A I
*I vs_17_11:A I
*I vs_16_11:A I
*I vs_15_11:A I
*I vs_14_11:A I
*I vs_13_11:A I
*I vs_12_11:A I
*I vs_11_11:A I
*I vs_10_11:A I
*I vs_9_11:A I
*I vs_8_11:A I
*I vs_7_11:A I
*I vs_6_11:A I
*I vs_5_11:A I
*I vs_4_11:A I
*I vs_3_11:A I
*I vs_2_11:A I
*I vs_1_11:A I
*I vs_0_11:A I
*CAP
1 pgm_ln11:1 1.098636e-01
*RES
1 lt_ln11:Z pgm_ln11:1 1.246712e+02
2 pgm_ln11:1 vs_63_11:A 1.000000e-03
3 pgm_ln11:1 vs_62_11:A 1.000000e-03
4 pgm_ln11:1 vs_61_11:A 1.000000e-03
5 pgm_ln11:1 vs_60_11:A 1.000000e-03
6 pgm_ln11:1 vs_59_11:A 1.000000e-03
7 pgm_ln11:1 vs_58_11:A 1.000000e-03
8 pgm_ln11:1 vs_57_11:A 1.000000e-03
9 pgm_ln11:1 vs_56_11:A 1.000000e-03
10 pgm_ln11:1 vs_55_11:A 1.000000e-03
11 pgm_ln11:1 vs_54_11:A 1.000000e-03
12 pgm_ln11:1 vs_53_11:A 1.000000e-03
13 pgm_ln11:1 vs_52_11:A 1.000000e-03
14 pgm_ln11:1 vs_51_11:A 1.000000e-03
15 pgm_ln11:1 vs_50_11:A 1.000000e-03
16 pgm_ln11:1 vs_49_11:A 1.000000e-03
17 pgm_ln11:1 vs_48_11:A 1.000000e-03
18 pgm_ln11:1 vs_47_11:A 1.000000e-03
19 pgm_ln11:1 vs_46_11:A 1.000000e-03
20 pgm_ln11:1 vs_45_11:A 1.000000e-03
21 pgm_ln11:1 vs_44_11:A 1.000000e-03
22 pgm_ln11:1 vs_43_11:A 1.000000e-03
23 pgm_ln11:1 vs_42_11:A 1.000000e-03
24 pgm_ln11:1 vs_41_11:A 1.000000e-03
25 pgm_ln11:1 vs_40_11:A 1.000000e-03
26 pgm_ln11:1 vs_39_11:A 1.000000e-03
27 pgm_ln11:1 vs_38_11:A 1.000000e-03
28 pgm_ln11:1 vs_37_11:A 1.000000e-03
29 pgm_ln11:1 vs_36_11:A 1.000000e-03
30 pgm_ln11:1 vs_35_11:A 1.000000e-03
31 pgm_ln11:1 vs_34_11:A 1.000000e-03
32 pgm_ln11:1 vs_33_11:A 1.000000e-03
33 pgm_ln11:1 vs_32_11:A 1.000000e-03
34 pgm_ln11:1 vs_31_11:A 1.000000e-03
35 pgm_ln11:1 vs_30_11:A 1.000000e-03
36 pgm_ln11:1 vs_29_11:A 1.000000e-03
37 pgm_ln11:1 vs_28_11:A 1.000000e-03
38 pgm_ln11:1 vs_27_11:A 1.000000e-03
39 pgm_ln11:1 vs_26_11:A 1.000000e-03
40 pgm_ln11:1 vs_25_11:A 1.000000e-03
41 pgm_ln11:1 vs_24_11:A 1.000000e-03
42 pgm_ln11:1 vs_23_11:A 1.000000e-03
43 pgm_ln11:1 vs_22_11:A 1.000000e-03
44 pgm_ln11:1 vs_21_11:A 1.000000e-03
45 pgm_ln11:1 vs_20_11:A 1.000000e-03
46 pgm_ln11:1 vs_19_11:A 1.000000e-03
47 pgm_ln11:1 vs_18_11:A 1.000000e-03
48 pgm_ln11:1 vs_17_11:A 1.000000e-03
49 pgm_ln11:1 vs_16_11:A 1.000000e-03
50 pgm_ln11:1 vs_15_11:A 1.000000e-03
51 pgm_ln11:1 vs_14_11:A 1.000000e-03
52 pgm_ln11:1 vs_13_11:A 1.000000e-03
53 pgm_ln11:1 vs_12_11:A 1.000000e-03
54 pgm_ln11:1 vs_11_11:A 1.000000e-03
55 pgm_ln11:1 vs_10_11:A 1.000000e-03
56 pgm_ln11:1 vs_9_11:A 1.000000e-03
57 pgm_ln11:1 vs_8_11:A 1.000000e-03
58 pgm_ln11:1 vs_7_11:A 1.000000e-03
59 pgm_ln11:1 vs_6_11:A 1.000000e-03
60 pgm_ln11:1 vs_5_11:A 1.000000e-03
61 pgm_ln11:1 vs_4_11:A 1.000000e-03
62 pgm_ln11:1 vs_3_11:A 1.000000e-03
63 pgm_ln11:1 vs_2_11:A 1.000000e-03
64 pgm_ln11:1 vs_1_11:A 1.000000e-03
65 pgm_ln11:1 vs_0_11:A 1.000000e-03
*END

*D_NET pgm_ln17 1.074106e-01
*CONN
*I lt_ln17:Z O
*I vs_63_17:A I
*I vs_62_17:A I
*I vs_61_17:A I
*I vs_60_17:A I
*I vs_59_17:A I
*I vs_58_17:A I
*I vs_57_17:A I
*I vs_56_17:A I
*I vs_55_17:A I
*I vs_54_17:A I
*I vs_53_17:A I
*I vs_52_17:A I
*I vs_51_17:A I
*I vs_50_17:A I
*I vs_49_17:A I
*I vs_48_17:A I
*I vs_47_17:A I
*I vs_46_17:A I
*I vs_45_17:A I
*I vs_44_17:A I
*I vs_43_17:A I
*I vs_42_17:A I
*I vs_41_17:A I
*I vs_40_17:A I
*I vs_39_17:A I
*I vs_38_17:A I
*I vs_37_17:A I
*I vs_36_17:A I
*I vs_35_17:A I
*I vs_34_17:A I
*I vs_33_17:A I
*I vs_32_17:A I
*I vs_31_17:A I
*I vs_30_17:A I
*I vs_29_17:A I
*I vs_28_17:A I
*I vs_27_17:A I
*I vs_26_17:A I
*I vs_25_17:A I
*I vs_24_17:A I
*I vs_23_17:A I
*I vs_22_17:A I
*I vs_21_17:A I
*I vs_20_17:A I
*I vs_19_17:A I
*I vs_18_17:A I
*I vs_17_17:A I
*I vs_16_17:A I
*I vs_15_17:A I
*I vs_14_17:A I
*I vs_13_17:A I
*I vs_12_17:A I
*I vs_11_17:A I
*I vs_10_17:A I
*I vs_9_17:A I
*I vs_8_17:A I
*I vs_7_17:A I
*I vs_6_17:A I
*I vs_5_17:A I
*I vs_4_17:A I
*I vs_3_17:A I
*I vs_2_17:A I
*I vs_1_17:A I
*I vs_0_17:A I
*CAP
1 pgm_ln17:1 1.074106e-01
*RES
1 lt_ln17:Z pgm_ln17:1 1.218876e+02
2 pgm_ln17:1 vs_63_17:A 1.000000e-03
3 pgm_ln17:1 vs_62_17:A 1.000000e-03
4 pgm_ln17:1 vs_61_17:A 1.000000e-03
5 pgm_ln17:1 vs_60_17:A 1.000000e-03
6 pgm_ln17:1 vs_59_17:A 1.000000e-03
7 pgm_ln17:1 vs_58_17:A 1.000000e-03
8 pgm_ln17:1 vs_57_17:A 1.000000e-03
9 pgm_ln17:1 vs_56_17:A 1.000000e-03
10 pgm_ln17:1 vs_55_17:A 1.000000e-03
11 pgm_ln17:1 vs_54_17:A 1.000000e-03
12 pgm_ln17:1 vs_53_17:A 1.000000e-03
13 pgm_ln17:1 vs_52_17:A 1.000000e-03
14 pgm_ln17:1 vs_51_17:A 1.000000e-03
15 pgm_ln17:1 vs_50_17:A 1.000000e-03
16 pgm_ln17:1 vs_49_17:A 1.000000e-03
17 pgm_ln17:1 vs_48_17:A 1.000000e-03
18 pgm_ln17:1 vs_47_17:A 1.000000e-03
19 pgm_ln17:1 vs_46_17:A 1.000000e-03
20 pgm_ln17:1 vs_45_17:A 1.000000e-03
21 pgm_ln17:1 vs_44_17:A 1.000000e-03
22 pgm_ln17:1 vs_43_17:A 1.000000e-03
23 pgm_ln17:1 vs_42_17:A 1.000000e-03
24 pgm_ln17:1 vs_41_17:A 1.000000e-03
25 pgm_ln17:1 vs_40_17:A 1.000000e-03
26 pgm_ln17:1 vs_39_17:A 1.000000e-03
27 pgm_ln17:1 vs_38_17:A 1.000000e-03
28 pgm_ln17:1 vs_37_17:A 1.000000e-03
29 pgm_ln17:1 vs_36_17:A 1.000000e-03
30 pgm_ln17:1 vs_35_17:A 1.000000e-03
31 pgm_ln17:1 vs_34_17:A 1.000000e-03
32 pgm_ln17:1 vs_33_17:A 1.000000e-03
33 pgm_ln17:1 vs_32_17:A 1.000000e-03
34 pgm_ln17:1 vs_31_17:A 1.000000e-03
35 pgm_ln17:1 vs_30_17:A 1.000000e-03
36 pgm_ln17:1 vs_29_17:A 1.000000e-03
37 pgm_ln17:1 vs_28_17:A 1.000000e-03
38 pgm_ln17:1 vs_27_17:A 1.000000e-03
39 pgm_ln17:1 vs_26_17:A 1.000000e-03
40 pgm_ln17:1 vs_25_17:A 1.000000e-03
41 pgm_ln17:1 vs_24_17:A 1.000000e-03
42 pgm_ln17:1 vs_23_17:A 1.000000e-03
43 pgm_ln17:1 vs_22_17:A 1.000000e-03
44 pgm_ln17:1 vs_21_17:A 1.000000e-03
45 pgm_ln17:1 vs_20_17:A 1.000000e-03
46 pgm_ln17:1 vs_19_17:A 1.000000e-03
47 pgm_ln17:1 vs_18_17:A 1.000000e-03
48 pgm_ln17:1 vs_17_17:A 1.000000e-03
49 pgm_ln17:1 vs_16_17:A 1.000000e-03
50 pgm_ln17:1 vs_15_17:A 1.000000e-03
51 pgm_ln17:1 vs_14_17:A 1.000000e-03
52 pgm_ln17:1 vs_13_17:A 1.000000e-03
53 pgm_ln17:1 vs_12_17:A 1.000000e-03
54 pgm_ln17:1 vs_11_17:A 1.000000e-03
55 pgm_ln17:1 vs_10_17:A 1.000000e-03
56 pgm_ln17:1 vs_9_17:A 1.000000e-03
57 pgm_ln17:1 vs_8_17:A 1.000000e-03
58 pgm_ln17:1 vs_7_17:A 1.000000e-03
59 pgm_ln17:1 vs_6_17:A 1.000000e-03
60 pgm_ln17:1 vs_5_17:A 1.000000e-03
61 pgm_ln17:1 vs_4_17:A 1.000000e-03
62 pgm_ln17:1 vs_3_17:A 1.000000e-03
63 pgm_ln17:1 vs_2_17:A 1.000000e-03
64 pgm_ln17:1 vs_1_17:A 1.000000e-03
65 pgm_ln17:1 vs_0_17:A 1.000000e-03
*END

*D_NET pgm_ln2 1.121803e-01
*CONN
*I lt_ln2:Z O
*I vs_63_2:A I
*I vs_62_2:A I
*I vs_61_2:A I
*I vs_60_2:A I
*I vs_59_2:A I
*I vs_58_2:A I
*I vs_57_2:A I
*I vs_56_2:A I
*I vs_55_2:A I
*I vs_54_2:A I
*I vs_53_2:A I
*I vs_52_2:A I
*I vs_51_2:A I
*I vs_50_2:A I
*I vs_49_2:A I
*I vs_48_2:A I
*I vs_47_2:A I
*I vs_46_2:A I
*I vs_45_2:A I
*I vs_44_2:A I
*I vs_43_2:A I
*I vs_42_2:A I
*I vs_41_2:A I
*I vs_40_2:A I
*I vs_39_2:A I
*I vs_38_2:A I
*I vs_37_2:A I
*I vs_36_2:A I
*I vs_35_2:A I
*I vs_34_2:A I
*I vs_33_2:A I
*I vs_32_2:A I
*I vs_31_2:A I
*I vs_30_2:A I
*I vs_29_2:A I
*I vs_28_2:A I
*I vs_27_2:A I
*I vs_26_2:A I
*I vs_25_2:A I
*I vs_24_2:A I
*I vs_23_2:A I
*I vs_22_2:A I
*I vs_21_2:A I
*I vs_20_2:A I
*I vs_19_2:A I
*I vs_18_2:A I
*I vs_17_2:A I
*I vs_16_2:A I
*I vs_15_2:A I
*I vs_14_2:A I
*I vs_13_2:A I
*I vs_12_2:A I
*I vs_11_2:A I
*I vs_10_2:A I
*I vs_9_2:A I
*I vs_8_2:A I
*I vs_7_2:A I
*I vs_6_2:A I
*I vs_5_2:A I
*I vs_4_2:A I
*I vs_3_2:A I
*I vs_2_2:A I
*I vs_1_2:A I
*I vs_0_2:A I
*CAP
1 pgm_ln2:1 1.121803e-01
*RES
1 lt_ln2:Z pgm_ln2:1 1.273002e+02
2 pgm_ln2:1 vs_63_2:A 1.000000e-03
3 pgm_ln2:1 vs_62_2:A 1.000000e-03
4 pgm_ln2:1 vs_61_2:A 1.000000e-03
5 pgm_ln2:1 vs_60_2:A 1.000000e-03
6 pgm_ln2:1 vs_59_2:A 1.000000e-03
7 pgm_ln2:1 vs_58_2:A 1.000000e-03
8 pgm_ln2:1 vs_57_2:A 1.000000e-03
9 pgm_ln2:1 vs_56_2:A 1.000000e-03
10 pgm_ln2:1 vs_55_2:A 1.000000e-03
11 pgm_ln2:1 vs_54_2:A 1.000000e-03
12 pgm_ln2:1 vs_53_2:A 1.000000e-03
13 pgm_ln2:1 vs_52_2:A 1.000000e-03
14 pgm_ln2:1 vs_51_2:A 1.000000e-03
15 pgm_ln2:1 vs_50_2:A 1.000000e-03
16 pgm_ln2:1 vs_49_2:A 1.000000e-03
17 pgm_ln2:1 vs_48_2:A 1.000000e-03
18 pgm_ln2:1 vs_47_2:A 1.000000e-03
19 pgm_ln2:1 vs_46_2:A 1.000000e-03
20 pgm_ln2:1 vs_45_2:A 1.000000e-03
21 pgm_ln2:1 vs_44_2:A 1.000000e-03
22 pgm_ln2:1 vs_43_2:A 1.000000e-03
23 pgm_ln2:1 vs_42_2:A 1.000000e-03
24 pgm_ln2:1 vs_41_2:A 1.000000e-03
25 pgm_ln2:1 vs_40_2:A 1.000000e-03
26 pgm_ln2:1 vs_39_2:A 1.000000e-03
27 pgm_ln2:1 vs_38_2:A 1.000000e-03
28 pgm_ln2:1 vs_37_2:A 1.000000e-03
29 pgm_ln2:1 vs_36_2:A 1.000000e-03
30 pgm_ln2:1 vs_35_2:A 1.000000e-03
31 pgm_ln2:1 vs_34_2:A 1.000000e-03
32 pgm_ln2:1 vs_33_2:A 1.000000e-03
33 pgm_ln2:1 vs_32_2:A 1.000000e-03
34 pgm_ln2:1 vs_31_2:A 1.000000e-03
35 pgm_ln2:1 vs_30_2:A 1.000000e-03
36 pgm_ln2:1 vs_29_2:A 1.000000e-03
37 pgm_ln2:1 vs_28_2:A 1.000000e-03
38 pgm_ln2:1 vs_27_2:A 1.000000e-03
39 pgm_ln2:1 vs_26_2:A 1.000000e-03
40 pgm_ln2:1 vs_25_2:A 1.000000e-03
41 pgm_ln2:1 vs_24_2:A 1.000000e-03
42 pgm_ln2:1 vs_23_2:A 1.000000e-03
43 pgm_ln2:1 vs_22_2:A 1.000000e-03
44 pgm_ln2:1 vs_21_2:A 1.000000e-03
45 pgm_ln2:1 vs_20_2:A 1.000000e-03
46 pgm_ln2:1 vs_19_2:A 1.000000e-03
47 pgm_ln2:1 vs_18_2:A 1.000000e-03
48 pgm_ln2:1 vs_17_2:A 1.000000e-03
49 pgm_ln2:1 vs_16_2:A 1.000000e-03
50 pgm_ln2:1 vs_15_2:A 1.000000e-03
51 pgm_ln2:1 vs_14_2:A 1.000000e-03
52 pgm_ln2:1 vs_13_2:A 1.000000e-03
53 pgm_ln2:1 vs_12_2:A 1.000000e-03
54 pgm_ln2:1 vs_11_2:A 1.000000e-03
55 pgm_ln2:1 vs_10_2:A 1.000000e-03
56 pgm_ln2:1 vs_9_2:A 1.000000e-03
57 pgm_ln2:1 vs_8_2:A 1.000000e-03
58 pgm_ln2:1 vs_7_2:A 1.000000e-03
59 pgm_ln2:1 vs_6_2:A 1.000000e-03
60 pgm_ln2:1 vs_5_2:A 1.000000e-03
61 pgm_ln2:1 vs_4_2:A 1.000000e-03
62 pgm_ln2:1 vs_3_2:A 1.000000e-03
63 pgm_ln2:1 vs_2_2:A 1.000000e-03
64 pgm_ln2:1 vs_1_2:A 1.000000e-03
65 pgm_ln2:1 vs_0_2:A 1.000000e-03
*END

*D_NET pgm_ln21 1.070017e-01
*CONN
*I lt_ln21:Z O
*I vs_63_21:A I
*I vs_62_21:A I
*I vs_61_21:A I
*I vs_60_21:A I
*I vs_59_21:A I
*I vs_58_21:A I
*I vs_57_21:A I
*I vs_56_21:A I
*I vs_55_21:A I
*I vs_54_21:A I
*I vs_53_21:A I
*I vs_52_21:A I
*I vs_51_21:A I
*I vs_50_21:A I
*I vs_49_21:A I
*I vs_48_21:A I
*I vs_47_21:A I
*I vs_46_21:A I
*I vs_45_21:A I
*I vs_44_21:A I
*I vs_43_21:A I
*I vs_42_21:A I
*I vs_41_21:A I
*I vs_40_21:A I
*I vs_39_21:A I
*I vs_38_21:A I
*I vs_37_21:A I
*I vs_36_21:A I
*I vs_35_21:A I
*I vs_34_21:A I
*I vs_33_21:A I
*I vs_32_21:A I
*I vs_31_21:A I
*I vs_30_21:A I
*I vs_29_21:A I
*I vs_28_21:A I
*I vs_27_21:A I
*I vs_26_21:A I
*I vs_25_21:A I
*I vs_24_21:A I
*I vs_23_21:A I
*I vs_22_21:A I
*I vs_21_21:A I
*I vs_20_21:A I
*I vs_19_21:A I
*I vs_18_21:A I
*I vs_17_21:A I
*I vs_16_21:A I
*I vs_15_21:A I
*I vs_14_21:A I
*I vs_13_21:A I
*I vs_12_21:A I
*I vs_11_21:A I
*I vs_10_21:A I
*I vs_9_21:A I
*I vs_8_21:A I
*I vs_7_21:A I
*I vs_6_21:A I
*I vs_5_21:A I
*I vs_4_21:A I
*I vs_3_21:A I
*I vs_2_21:A I
*I vs_1_21:A I
*I vs_0_21:A I
*CAP
1 pgm_ln21:1 1.070017e-01
*RES
1 lt_ln21:Z pgm_ln21:1 1.214237e+02
2 pgm_ln21:1 vs_63_21:A 1.000000e-03
3 pgm_ln21:1 vs_62_21:A 1.000000e-03
4 pgm_ln21:1 vs_61_21:A 1.000000e-03
5 pgm_ln21:1 vs_60_21:A 1.000000e-03
6 pgm_ln21:1 vs_59_21:A 1.000000e-03
7 pgm_ln21:1 vs_58_21:A 1.000000e-03
8 pgm_ln21:1 vs_57_21:A 1.000000e-03
9 pgm_ln21:1 vs_56_21:A 1.000000e-03
10 pgm_ln21:1 vs_55_21:A 1.000000e-03
11 pgm_ln21:1 vs_54_21:A 1.000000e-03
12 pgm_ln21:1 vs_53_21:A 1.000000e-03
13 pgm_ln21:1 vs_52_21:A 1.000000e-03
14 pgm_ln21:1 vs_51_21:A 1.000000e-03
15 pgm_ln21:1 vs_50_21:A 1.000000e-03
16 pgm_ln21:1 vs_49_21:A 1.000000e-03
17 pgm_ln21:1 vs_48_21:A 1.000000e-03
18 pgm_ln21:1 vs_47_21:A 1.000000e-03
19 pgm_ln21:1 vs_46_21:A 1.000000e-03
20 pgm_ln21:1 vs_45_21:A 1.000000e-03
21 pgm_ln21:1 vs_44_21:A 1.000000e-03
22 pgm_ln21:1 vs_43_21:A 1.000000e-03
23 pgm_ln21:1 vs_42_21:A 1.000000e-03
24 pgm_ln21:1 vs_41_21:A 1.000000e-03
25 pgm_ln21:1 vs_40_21:A 1.000000e-03
26 pgm_ln21:1 vs_39_21:A 1.000000e-03
27 pgm_ln21:1 vs_38_21:A 1.000000e-03
28 pgm_ln21:1 vs_37_21:A 1.000000e-03
29 pgm_ln21:1 vs_36_21:A 1.000000e-03
30 pgm_ln21:1 vs_35_21:A 1.000000e-03
31 pgm_ln21:1 vs_34_21:A 1.000000e-03
32 pgm_ln21:1 vs_33_21:A 1.000000e-03
33 pgm_ln21:1 vs_32_21:A 1.000000e-03
34 pgm_ln21:1 vs_31_21:A 1.000000e-03
35 pgm_ln21:1 vs_30_21:A 1.000000e-03
36 pgm_ln21:1 vs_29_21:A 1.000000e-03
37 pgm_ln21:1 vs_28_21:A 1.000000e-03
38 pgm_ln21:1 vs_27_21:A 1.000000e-03
39 pgm_ln21:1 vs_26_21:A 1.000000e-03
40 pgm_ln21:1 vs_25_21:A 1.000000e-03
41 pgm_ln21:1 vs_24_21:A 1.000000e-03
42 pgm_ln21:1 vs_23_21:A 1.000000e-03
43 pgm_ln21:1 vs_22_21:A 1.000000e-03
44 pgm_ln21:1 vs_21_21:A 1.000000e-03
45 pgm_ln21:1 vs_20_21:A 1.000000e-03
46 pgm_ln21:1 vs_19_21:A 1.000000e-03
47 pgm_ln21:1 vs_18_21:A 1.000000e-03
48 pgm_ln21:1 vs_17_21:A 1.000000e-03
49 pgm_ln21:1 vs_16_21:A 1.000000e-03
50 pgm_ln21:1 vs_15_21:A 1.000000e-03
51 pgm_ln21:1 vs_14_21:A 1.000000e-03
52 pgm_ln21:1 vs_13_21:A 1.000000e-03
53 pgm_ln21:1 vs_12_21:A 1.000000e-03
54 pgm_ln21:1 vs_11_21:A 1.000000e-03
55 pgm_ln21:1 vs_10_21:A 1.000000e-03
56 pgm_ln21:1 vs_9_21:A 1.000000e-03
57 pgm_ln21:1 vs_8_21:A 1.000000e-03
58 pgm_ln21:1 vs_7_21:A 1.000000e-03
59 pgm_ln21:1 vs_6_21:A 1.000000e-03
60 pgm_ln21:1 vs_5_21:A 1.000000e-03
61 pgm_ln21:1 vs_4_21:A 1.000000e-03
62 pgm_ln21:1 vs_3_21:A 1.000000e-03
63 pgm_ln21:1 vs_2_21:A 1.000000e-03
64 pgm_ln21:1 vs_1_21:A 1.000000e-03
65 pgm_ln21:1 vs_0_21:A 1.000000e-03
*END

*D_NET pgm_ln24 1.074106e-01
*CONN
*I lt_ln24:Z O
*I vs_63_24:A I
*I vs_62_24:A I
*I vs_61_24:A I
*I vs_60_24:A I
*I vs_59_24:A I
*I vs_58_24:A I
*I vs_57_24:A I
*I vs_56_24:A I
*I vs_55_24:A I
*I vs_54_24:A I
*I vs_53_24:A I
*I vs_52_24:A I
*I vs_51_24:A I
*I vs_50_24:A I
*I vs_49_24:A I
*I vs_48_24:A I
*I vs_47_24:A I
*I vs_46_24:A I
*I vs_45_24:A I
*I vs_44_24:A I
*I vs_43_24:A I
*I vs_42_24:A I
*I vs_41_24:A I
*I vs_40_24:A I
*I vs_39_24:A I
*I vs_38_24:A I
*I vs_37_24:A I
*I vs_36_24:A I
*I vs_35_24:A I
*I vs_34_24:A I
*I vs_33_24:A I
*I vs_32_24:A I
*I vs_31_24:A I
*I vs_30_24:A I
*I vs_29_24:A I
*I vs_28_24:A I
*I vs_27_24:A I
*I vs_26_24:A I
*I vs_25_24:A I
*I vs_24_24:A I
*I vs_23_24:A I
*I vs_22_24:A I
*I vs_21_24:A I
*I vs_20_24:A I
*I vs_19_24:A I
*I vs_18_24:A I
*I vs_17_24:A I
*I vs_16_24:A I
*I vs_15_24:A I
*I vs_14_24:A I
*I vs_13_24:A I
*I vs_12_24:A I
*I vs_11_24:A I
*I vs_10_24:A I
*I vs_9_24:A I
*I vs_8_24:A I
*I vs_7_24:A I
*I vs_6_24:A I
*I vs_5_24:A I
*I vs_4_24:A I
*I vs_3_24:A I
*I vs_2_24:A I
*I vs_1_24:A I
*I vs_0_24:A I
*CAP
1 pgm_ln24:1 1.074106e-01
*RES
1 lt_ln24:Z pgm_ln24:1 1.218876e+02
2 pgm_ln24:1 vs_63_24:A 1.000000e-03
3 pgm_ln24:1 vs_62_24:A 1.000000e-03
4 pgm_ln24:1 vs_61_24:A 1.000000e-03
5 pgm_ln24:1 vs_60_24:A 1.000000e-03
6 pgm_ln24:1 vs_59_24:A 1.000000e-03
7 pgm_ln24:1 vs_58_24:A 1.000000e-03
8 pgm_ln24:1 vs_57_24:A 1.000000e-03
9 pgm_ln24:1 vs_56_24:A 1.000000e-03
10 pgm_ln24:1 vs_55_24:A 1.000000e-03
11 pgm_ln24:1 vs_54_24:A 1.000000e-03
12 pgm_ln24:1 vs_53_24:A 1.000000e-03
13 pgm_ln24:1 vs_52_24:A 1.000000e-03
14 pgm_ln24:1 vs_51_24:A 1.000000e-03
15 pgm_ln24:1 vs_50_24:A 1.000000e-03
16 pgm_ln24:1 vs_49_24:A 1.000000e-03
17 pgm_ln24:1 vs_48_24:A 1.000000e-03
18 pgm_ln24:1 vs_47_24:A 1.000000e-03
19 pgm_ln24:1 vs_46_24:A 1.000000e-03
20 pgm_ln24:1 vs_45_24:A 1.000000e-03
21 pgm_ln24:1 vs_44_24:A 1.000000e-03
22 pgm_ln24:1 vs_43_24:A 1.000000e-03
23 pgm_ln24:1 vs_42_24:A 1.000000e-03
24 pgm_ln24:1 vs_41_24:A 1.000000e-03
25 pgm_ln24:1 vs_40_24:A 1.000000e-03
26 pgm_ln24:1 vs_39_24:A 1.000000e-03
27 pgm_ln24:1 vs_38_24:A 1.000000e-03
28 pgm_ln24:1 vs_37_24:A 1.000000e-03
29 pgm_ln24:1 vs_36_24:A 1.000000e-03
30 pgm_ln24:1 vs_35_24:A 1.000000e-03
31 pgm_ln24:1 vs_34_24:A 1.000000e-03
32 pgm_ln24:1 vs_33_24:A 1.000000e-03
33 pgm_ln24:1 vs_32_24:A 1.000000e-03
34 pgm_ln24:1 vs_31_24:A 1.000000e-03
35 pgm_ln24:1 vs_30_24:A 1.000000e-03
36 pgm_ln24:1 vs_29_24:A 1.000000e-03
37 pgm_ln24:1 vs_28_24:A 1.000000e-03
38 pgm_ln24:1 vs_27_24:A 1.000000e-03
39 pgm_ln24:1 vs_26_24:A 1.000000e-03
40 pgm_ln24:1 vs_25_24:A 1.000000e-03
41 pgm_ln24:1 vs_24_24:A 1.000000e-03
42 pgm_ln24:1 vs_23_24:A 1.000000e-03
43 pgm_ln24:1 vs_22_24:A 1.000000e-03
44 pgm_ln24:1 vs_21_24:A 1.000000e-03
45 pgm_ln24:1 vs_20_24:A 1.000000e-03
46 pgm_ln24:1 vs_19_24:A 1.000000e-03
47 pgm_ln24:1 vs_18_24:A 1.000000e-03
48 pgm_ln24:1 vs_17_24:A 1.000000e-03
49 pgm_ln24:1 vs_16_24:A 1.000000e-03
50 pgm_ln24:1 vs_15_24:A 1.000000e-03
51 pgm_ln24:1 vs_14_24:A 1.000000e-03
52 pgm_ln24:1 vs_13_24:A 1.000000e-03
53 pgm_ln24:1 vs_12_24:A 1.000000e-03
54 pgm_ln24:1 vs_11_24:A 1.000000e-03
55 pgm_ln24:1 vs_10_24:A 1.000000e-03
56 pgm_ln24:1 vs_9_24:A 1.000000e-03
57 pgm_ln24:1 vs_8_24:A 1.000000e-03
58 pgm_ln24:1 vs_7_24:A 1.000000e-03
59 pgm_ln24:1 vs_6_24:A 1.000000e-03
60 pgm_ln24:1 vs_5_24:A 1.000000e-03
61 pgm_ln24:1 vs_4_24:A 1.000000e-03
62 pgm_ln24:1 vs_3_24:A 1.000000e-03
63 pgm_ln24:1 vs_2_24:A 1.000000e-03
64 pgm_ln24:1 vs_1_24:A 1.000000e-03
65 pgm_ln24:1 vs_0_24:A 1.000000e-03
*END

*D_NET pgm_ln29 1.138127e-01
*CONN
*I lt_ln29:Z O
*I vs_63_29:A I
*I vs_62_29:A I
*I vs_61_29:A I
*I vs_60_29:A I
*I vs_59_29:A I
*I vs_58_29:A I
*I vs_57_29:A I
*I vs_56_29:A I
*I vs_55_29:A I
*I vs_54_29:A I
*I vs_53_29:A I
*I vs_52_29:A I
*I vs_51_29:A I
*I vs_50_29:A I
*I vs_49_29:A I
*I vs_48_29:A I
*I vs_47_29:A I
*I vs_46_29:A I
*I vs_45_29:A I
*I vs_44_29:A I
*I vs_43_29:A I
*I vs_42_29:A I
*I vs_41_29:A I
*I vs_40_29:A I
*I vs_39_29:A I
*I vs_38_29:A I
*I vs_37_29:A I
*I vs_36_29:A I
*I vs_35_29:A I
*I vs_34_29:A I
*I vs_33_29:A I
*I vs_32_29:A I
*I vs_31_29:A I
*I vs_30_29:A I
*I vs_29_29:A I
*I vs_28_29:A I
*I vs_27_29:A I
*I vs_26_29:A I
*I vs_25_29:A I
*I vs_24_29:A I
*I vs_23_29:A I
*I vs_22_29:A I
*I vs_21_29:A I
*I vs_20_29:A I
*I vs_19_29:A I
*I vs_18_29:A I
*I vs_17_29:A I
*I vs_16_29:A I
*I vs_15_29:A I
*I vs_14_29:A I
*I vs_13_29:A I
*I vs_12_29:A I
*I vs_11_29:A I
*I vs_10_29:A I
*I vs_9_29:A I
*I vs_8_29:A I
*I vs_7_29:A I
*I vs_6_29:A I
*I vs_5_29:A I
*I vs_4_29:A I
*I vs_3_29:A I
*I vs_2_29:A I
*I vs_1_29:A I
*I vs_0_29:A I
*CAP
1 pgm_ln29:1 1.138127e-01
*RES
1 lt_ln29:Z pgm_ln29:1 1.291526e+02
2 pgm_ln29:1 vs_63_29:A 1.000000e-03
3 pgm_ln29:1 vs_62_29:A 1.000000e-03
4 pgm_ln29:1 vs_61_29:A 1.000000e-03
5 pgm_ln29:1 vs_60_29:A 1.000000e-03
6 pgm_ln29:1 vs_59_29:A 1.000000e-03
7 pgm_ln29:1 vs_58_29:A 1.000000e-03
8 pgm_ln29:1 vs_57_29:A 1.000000e-03
9 pgm_ln29:1 vs_56_29:A 1.000000e-03
10 pgm_ln29:1 vs_55_29:A 1.000000e-03
11 pgm_ln29:1 vs_54_29:A 1.000000e-03
12 pgm_ln29:1 vs_53_29:A 1.000000e-03
13 pgm_ln29:1 vs_52_29:A 1.000000e-03
14 pgm_ln29:1 vs_51_29:A 1.000000e-03
15 pgm_ln29:1 vs_50_29:A 1.000000e-03
16 pgm_ln29:1 vs_49_29:A 1.000000e-03
17 pgm_ln29:1 vs_48_29:A 1.000000e-03
18 pgm_ln29:1 vs_47_29:A 1.000000e-03
19 pgm_ln29:1 vs_46_29:A 1.000000e-03
20 pgm_ln29:1 vs_45_29:A 1.000000e-03
21 pgm_ln29:1 vs_44_29:A 1.000000e-03
22 pgm_ln29:1 vs_43_29:A 1.000000e-03
23 pgm_ln29:1 vs_42_29:A 1.000000e-03
24 pgm_ln29:1 vs_41_29:A 1.000000e-03
25 pgm_ln29:1 vs_40_29:A 1.000000e-03
26 pgm_ln29:1 vs_39_29:A 1.000000e-03
27 pgm_ln29:1 vs_38_29:A 1.000000e-03
28 pgm_ln29:1 vs_37_29:A 1.000000e-03
29 pgm_ln29:1 vs_36_29:A 1.000000e-03
30 pgm_ln29:1 vs_35_29:A 1.000000e-03
31 pgm_ln29:1 vs_34_29:A 1.000000e-03
32 pgm_ln29:1 vs_33_29:A 1.000000e-03
33 pgm_ln29:1 vs_32_29:A 1.000000e-03
34 pgm_ln29:1 vs_31_29:A 1.000000e-03
35 pgm_ln29:1 vs_30_29:A 1.000000e-03
36 pgm_ln29:1 vs_29_29:A 1.000000e-03
37 pgm_ln29:1 vs_28_29:A 1.000000e-03
38 pgm_ln29:1 vs_27_29:A 1.000000e-03
39 pgm_ln29:1 vs_26_29:A 1.000000e-03
40 pgm_ln29:1 vs_25_29:A 1.000000e-03
41 pgm_ln29:1 vs_24_29:A 1.000000e-03
42 pgm_ln29:1 vs_23_29:A 1.000000e-03
43 pgm_ln29:1 vs_22_29:A 1.000000e-03
44 pgm_ln29:1 vs_21_29:A 1.000000e-03
45 pgm_ln29:1 vs_20_29:A 1.000000e-03
46 pgm_ln29:1 vs_19_29:A 1.000000e-03
47 pgm_ln29:1 vs_18_29:A 1.000000e-03
48 pgm_ln29:1 vs_17_29:A 1.000000e-03
49 pgm_ln29:1 vs_16_29:A 1.000000e-03
50 pgm_ln29:1 vs_15_29:A 1.000000e-03
51 pgm_ln29:1 vs_14_29:A 1.000000e-03
52 pgm_ln29:1 vs_13_29:A 1.000000e-03
53 pgm_ln29:1 vs_12_29:A 1.000000e-03
54 pgm_ln29:1 vs_11_29:A 1.000000e-03
55 pgm_ln29:1 vs_10_29:A 1.000000e-03
56 pgm_ln29:1 vs_9_29:A 1.000000e-03
57 pgm_ln29:1 vs_8_29:A 1.000000e-03
58 pgm_ln29:1 vs_7_29:A 1.000000e-03
59 pgm_ln29:1 vs_6_29:A 1.000000e-03
60 pgm_ln29:1 vs_5_29:A 1.000000e-03
61 pgm_ln29:1 vs_4_29:A 1.000000e-03
62 pgm_ln29:1 vs_3_29:A 1.000000e-03
63 pgm_ln29:1 vs_2_29:A 1.000000e-03
64 pgm_ln29:1 vs_1_29:A 1.000000e-03
65 pgm_ln29:1 vs_0_29:A 1.000000e-03
*END

*D_NET pgm_ln36 1.121803e-01
*CONN
*I lt_ln36:Z O
*I vs_63_36:A I
*I vs_62_36:A I
*I vs_61_36:A I
*I vs_60_36:A I
*I vs_59_36:A I
*I vs_58_36:A I
*I vs_57_36:A I
*I vs_56_36:A I
*I vs_55_36:A I
*I vs_54_36:A I
*I vs_53_36:A I
*I vs_52_36:A I
*I vs_51_36:A I
*I vs_50_36:A I
*I vs_49_36:A I
*I vs_48_36:A I
*I vs_47_36:A I
*I vs_46_36:A I
*I vs_45_36:A I
*I vs_44_36:A I
*I vs_43_36:A I
*I vs_42_36:A I
*I vs_41_36:A I
*I vs_40_36:A I
*I vs_39_36:A I
*I vs_38_36:A I
*I vs_37_36:A I
*I vs_36_36:A I
*I vs_35_36:A I
*I vs_34_36:A I
*I vs_33_36:A I
*I vs_32_36:A I
*I vs_31_36:A I
*I vs_30_36:A I
*I vs_29_36:A I
*I vs_28_36:A I
*I vs_27_36:A I
*I vs_26_36:A I
*I vs_25_36:A I
*I vs_24_36:A I
*I vs_23_36:A I
*I vs_22_36:A I
*I vs_21_36:A I
*I vs_20_36:A I
*I vs_19_36:A I
*I vs_18_36:A I
*I vs_17_36:A I
*I vs_16_36:A I
*I vs_15_36:A I
*I vs_14_36:A I
*I vs_13_36:A I
*I vs_12_36:A I
*I vs_11_36:A I
*I vs_10_36:A I
*I vs_9_36:A I
*I vs_8_36:A I
*I vs_7_36:A I
*I vs_6_36:A I
*I vs_5_36:A I
*I vs_4_36:A I
*I vs_3_36:A I
*I vs_2_36:A I
*I vs_1_36:A I
*I vs_0_36:A I
*CAP
1 pgm_ln36:1 1.121803e-01
*RES
1 lt_ln36:Z pgm_ln36:1 1.273002e+02
2 pgm_ln36:1 vs_63_36:A 1.000000e-03
3 pgm_ln36:1 vs_62_36:A 1.000000e-03
4 pgm_ln36:1 vs_61_36:A 1.000000e-03
5 pgm_ln36:1 vs_60_36:A 1.000000e-03
6 pgm_ln36:1 vs_59_36:A 1.000000e-03
7 pgm_ln36:1 vs_58_36:A 1.000000e-03
8 pgm_ln36:1 vs_57_36:A 1.000000e-03
9 pgm_ln36:1 vs_56_36:A 1.000000e-03
10 pgm_ln36:1 vs_55_36:A 1.000000e-03
11 pgm_ln36:1 vs_54_36:A 1.000000e-03
12 pgm_ln36:1 vs_53_36:A 1.000000e-03
13 pgm_ln36:1 vs_52_36:A 1.000000e-03
14 pgm_ln36:1 vs_51_36:A 1.000000e-03
15 pgm_ln36:1 vs_50_36:A 1.000000e-03
16 pgm_ln36:1 vs_49_36:A 1.000000e-03
17 pgm_ln36:1 vs_48_36:A 1.000000e-03
18 pgm_ln36:1 vs_47_36:A 1.000000e-03
19 pgm_ln36:1 vs_46_36:A 1.000000e-03
20 pgm_ln36:1 vs_45_36:A 1.000000e-03
21 pgm_ln36:1 vs_44_36:A 1.000000e-03
22 pgm_ln36:1 vs_43_36:A 1.000000e-03
23 pgm_ln36:1 vs_42_36:A 1.000000e-03
24 pgm_ln36:1 vs_41_36:A 1.000000e-03
25 pgm_ln36:1 vs_40_36:A 1.000000e-03
26 pgm_ln36:1 vs_39_36:A 1.000000e-03
27 pgm_ln36:1 vs_38_36:A 1.000000e-03
28 pgm_ln36:1 vs_37_36:A 1.000000e-03
29 pgm_ln36:1 vs_36_36:A 1.000000e-03
30 pgm_ln36:1 vs_35_36:A 1.000000e-03
31 pgm_ln36:1 vs_34_36:A 1.000000e-03
32 pgm_ln36:1 vs_33_36:A 1.000000e-03
33 pgm_ln36:1 vs_32_36:A 1.000000e-03
34 pgm_ln36:1 vs_31_36:A 1.000000e-03
35 pgm_ln36:1 vs_30_36:A 1.000000e-03
36 pgm_ln36:1 vs_29_36:A 1.000000e-03
37 pgm_ln36:1 vs_28_36:A 1.000000e-03
38 pgm_ln36:1 vs_27_36:A 1.000000e-03
39 pgm_ln36:1 vs_26_36:A 1.000000e-03
40 pgm_ln36:1 vs_25_36:A 1.000000e-03
41 pgm_ln36:1 vs_24_36:A 1.000000e-03
42 pgm_ln36:1 vs_23_36:A 1.000000e-03
43 pgm_ln36:1 vs_22_36:A 1.000000e-03
44 pgm_ln36:1 vs_21_36:A 1.000000e-03
45 pgm_ln36:1 vs_20_36:A 1.000000e-03
46 pgm_ln36:1 vs_19_36:A 1.000000e-03
47 pgm_ln36:1 vs_18_36:A 1.000000e-03
48 pgm_ln36:1 vs_17_36:A 1.000000e-03
49 pgm_ln36:1 vs_16_36:A 1.000000e-03
50 pgm_ln36:1 vs_15_36:A 1.000000e-03
51 pgm_ln36:1 vs_14_36:A 1.000000e-03
52 pgm_ln36:1 vs_13_36:A 1.000000e-03
53 pgm_ln36:1 vs_12_36:A 1.000000e-03
54 pgm_ln36:1 vs_11_36:A 1.000000e-03
55 pgm_ln36:1 vs_10_36:A 1.000000e-03
56 pgm_ln36:1 vs_9_36:A 1.000000e-03
57 pgm_ln36:1 vs_8_36:A 1.000000e-03
58 pgm_ln36:1 vs_7_36:A 1.000000e-03
59 pgm_ln36:1 vs_6_36:A 1.000000e-03
60 pgm_ln36:1 vs_5_36:A 1.000000e-03
61 pgm_ln36:1 vs_4_36:A 1.000000e-03
62 pgm_ln36:1 vs_3_36:A 1.000000e-03
63 pgm_ln36:1 vs_2_36:A 1.000000e-03
64 pgm_ln36:1 vs_1_36:A 1.000000e-03
65 pgm_ln36:1 vs_0_36:A 1.000000e-03
*END

*D_NET pgm_ln40 1.074106e-01
*CONN
*I lt_ln40:Z O
*I vs_63_40:A I
*I vs_62_40:A I
*I vs_61_40:A I
*I vs_60_40:A I
*I vs_59_40:A I
*I vs_58_40:A I
*I vs_57_40:A I
*I vs_56_40:A I
*I vs_55_40:A I
*I vs_54_40:A I
*I vs_53_40:A I
*I vs_52_40:A I
*I vs_51_40:A I
*I vs_50_40:A I
*I vs_49_40:A I
*I vs_48_40:A I
*I vs_47_40:A I
*I vs_46_40:A I
*I vs_45_40:A I
*I vs_44_40:A I
*I vs_43_40:A I
*I vs_42_40:A I
*I vs_41_40:A I
*I vs_40_40:A I
*I vs_39_40:A I
*I vs_38_40:A I
*I vs_37_40:A I
*I vs_36_40:A I
*I vs_35_40:A I
*I vs_34_40:A I
*I vs_33_40:A I
*I vs_32_40:A I
*I vs_31_40:A I
*I vs_30_40:A I
*I vs_29_40:A I
*I vs_28_40:A I
*I vs_27_40:A I
*I vs_26_40:A I
*I vs_25_40:A I
*I vs_24_40:A I
*I vs_23_40:A I
*I vs_22_40:A I
*I vs_21_40:A I
*I vs_20_40:A I
*I vs_19_40:A I
*I vs_18_40:A I
*I vs_17_40:A I
*I vs_16_40:A I
*I vs_15_40:A I
*I vs_14_40:A I
*I vs_13_40:A I
*I vs_12_40:A I
*I vs_11_40:A I
*I vs_10_40:A I
*I vs_9_40:A I
*I vs_8_40:A I
*I vs_7_40:A I
*I vs_6_40:A I
*I vs_5_40:A I
*I vs_4_40:A I
*I vs_3_40:A I
*I vs_2_40:A I
*I vs_1_40:A I
*I vs_0_40:A I
*CAP
1 pgm_ln40:1 1.074106e-01
*RES
1 lt_ln40:Z pgm_ln40:1 1.218876e+02
2 pgm_ln40:1 vs_63_40:A 1.000000e-03
3 pgm_ln40:1 vs_62_40:A 1.000000e-03
4 pgm_ln40:1 vs_61_40:A 1.000000e-03
5 pgm_ln40:1 vs_60_40:A 1.000000e-03
6 pgm_ln40:1 vs_59_40:A 1.000000e-03
7 pgm_ln40:1 vs_58_40:A 1.000000e-03
8 pgm_ln40:1 vs_57_40:A 1.000000e-03
9 pgm_ln40:1 vs_56_40:A 1.000000e-03
10 pgm_ln40:1 vs_55_40:A 1.000000e-03
11 pgm_ln40:1 vs_54_40:A 1.000000e-03
12 pgm_ln40:1 vs_53_40:A 1.000000e-03
13 pgm_ln40:1 vs_52_40:A 1.000000e-03
14 pgm_ln40:1 vs_51_40:A 1.000000e-03
15 pgm_ln40:1 vs_50_40:A 1.000000e-03
16 pgm_ln40:1 vs_49_40:A 1.000000e-03
17 pgm_ln40:1 vs_48_40:A 1.000000e-03
18 pgm_ln40:1 vs_47_40:A 1.000000e-03
19 pgm_ln40:1 vs_46_40:A 1.000000e-03
20 pgm_ln40:1 vs_45_40:A 1.000000e-03
21 pgm_ln40:1 vs_44_40:A 1.000000e-03
22 pgm_ln40:1 vs_43_40:A 1.000000e-03
23 pgm_ln40:1 vs_42_40:A 1.000000e-03
24 pgm_ln40:1 vs_41_40:A 1.000000e-03
25 pgm_ln40:1 vs_40_40:A 1.000000e-03
26 pgm_ln40:1 vs_39_40:A 1.000000e-03
27 pgm_ln40:1 vs_38_40:A 1.000000e-03
28 pgm_ln40:1 vs_37_40:A 1.000000e-03
29 pgm_ln40:1 vs_36_40:A 1.000000e-03
30 pgm_ln40:1 vs_35_40:A 1.000000e-03
31 pgm_ln40:1 vs_34_40:A 1.000000e-03
32 pgm_ln40:1 vs_33_40:A 1.000000e-03
33 pgm_ln40:1 vs_32_40:A 1.000000e-03
34 pgm_ln40:1 vs_31_40:A 1.000000e-03
35 pgm_ln40:1 vs_30_40:A 1.000000e-03
36 pgm_ln40:1 vs_29_40:A 1.000000e-03
37 pgm_ln40:1 vs_28_40:A 1.000000e-03
38 pgm_ln40:1 vs_27_40:A 1.000000e-03
39 pgm_ln40:1 vs_26_40:A 1.000000e-03
40 pgm_ln40:1 vs_25_40:A 1.000000e-03
41 pgm_ln40:1 vs_24_40:A 1.000000e-03
42 pgm_ln40:1 vs_23_40:A 1.000000e-03
43 pgm_ln40:1 vs_22_40:A 1.000000e-03
44 pgm_ln40:1 vs_21_40:A 1.000000e-03
45 pgm_ln40:1 vs_20_40:A 1.000000e-03
46 pgm_ln40:1 vs_19_40:A 1.000000e-03
47 pgm_ln40:1 vs_18_40:A 1.000000e-03
48 pgm_ln40:1 vs_17_40:A 1.000000e-03
49 pgm_ln40:1 vs_16_40:A 1.000000e-03
50 pgm_ln40:1 vs_15_40:A 1.000000e-03
51 pgm_ln40:1 vs_14_40:A 1.000000e-03
52 pgm_ln40:1 vs_13_40:A 1.000000e-03
53 pgm_ln40:1 vs_12_40:A 1.000000e-03
54 pgm_ln40:1 vs_11_40:A 1.000000e-03
55 pgm_ln40:1 vs_10_40:A 1.000000e-03
56 pgm_ln40:1 vs_9_40:A 1.000000e-03
57 pgm_ln40:1 vs_8_40:A 1.000000e-03
58 pgm_ln40:1 vs_7_40:A 1.000000e-03
59 pgm_ln40:1 vs_6_40:A 1.000000e-03
60 pgm_ln40:1 vs_5_40:A 1.000000e-03
61 pgm_ln40:1 vs_4_40:A 1.000000e-03
62 pgm_ln40:1 vs_3_40:A 1.000000e-03
63 pgm_ln40:1 vs_2_40:A 1.000000e-03
64 pgm_ln40:1 vs_1_40:A 1.000000e-03
65 pgm_ln40:1 vs_0_40:A 1.000000e-03
*END

*D_NET pgm_ln41 1.074106e-01
*CONN
*I lt_ln41:Z O
*I vs_63_41:A I
*I vs_62_41:A I
*I vs_61_41:A I
*I vs_60_41:A I
*I vs_59_41:A I
*I vs_58_41:A I
*I vs_57_41:A I
*I vs_56_41:A I
*I vs_55_41:A I
*I vs_54_41:A I
*I vs_53_41:A I
*I vs_52_41:A I
*I vs_51_41:A I
*I vs_50_41:A I
*I vs_49_41:A I
*I vs_48_41:A I
*I vs_47_41:A I
*I vs_46_41:A I
*I vs_45_41:A I
*I vs_44_41:A I
*I vs_43_41:A I
*I vs_42_41:A I
*I vs_41_41:A I
*I vs_40_41:A I
*I vs_39_41:A I
*I vs_38_41:A I
*I vs_37_41:A I
*I vs_36_41:A I
*I vs_35_41:A I
*I vs_34_41:A I
*I vs_33_41:A I
*I vs_32_41:A I
*I vs_31_41:A I
*I vs_30_41:A I
*I vs_29_41:A I
*I vs_28_41:A I
*I vs_27_41:A I
*I vs_26_41:A I
*I vs_25_41:A I
*I vs_24_41:A I
*I vs_23_41:A I
*I vs_22_41:A I
*I vs_21_41:A I
*I vs_20_41:A I
*I vs_19_41:A I
*I vs_18_41:A I
*I vs_17_41:A I
*I vs_16_41:A I
*I vs_15_41:A I
*I vs_14_41:A I
*I vs_13_41:A I
*I vs_12_41:A I
*I vs_11_41:A I
*I vs_10_41:A I
*I vs_9_41:A I
*I vs_8_41:A I
*I vs_7_41:A I
*I vs_6_41:A I
*I vs_5_41:A I
*I vs_4_41:A I
*I vs_3_41:A I
*I vs_2_41:A I
*I vs_1_41:A I
*I vs_0_41:A I
*CAP
1 pgm_ln41:1 1.074106e-01
*RES
1 lt_ln41:Z pgm_ln41:1 1.218876e+02
2 pgm_ln41:1 vs_63_41:A 1.000000e-03
3 pgm_ln41:1 vs_62_41:A 1.000000e-03
4 pgm_ln41:1 vs_61_41:A 1.000000e-03
5 pgm_ln41:1 vs_60_41:A 1.000000e-03
6 pgm_ln41:1 vs_59_41:A 1.000000e-03
7 pgm_ln41:1 vs_58_41:A 1.000000e-03
8 pgm_ln41:1 vs_57_41:A 1.000000e-03
9 pgm_ln41:1 vs_56_41:A 1.000000e-03
10 pgm_ln41:1 vs_55_41:A 1.000000e-03
11 pgm_ln41:1 vs_54_41:A 1.000000e-03
12 pgm_ln41:1 vs_53_41:A 1.000000e-03
13 pgm_ln41:1 vs_52_41:A 1.000000e-03
14 pgm_ln41:1 vs_51_41:A 1.000000e-03
15 pgm_ln41:1 vs_50_41:A 1.000000e-03
16 pgm_ln41:1 vs_49_41:A 1.000000e-03
17 pgm_ln41:1 vs_48_41:A 1.000000e-03
18 pgm_ln41:1 vs_47_41:A 1.000000e-03
19 pgm_ln41:1 vs_46_41:A 1.000000e-03
20 pgm_ln41:1 vs_45_41:A 1.000000e-03
21 pgm_ln41:1 vs_44_41:A 1.000000e-03
22 pgm_ln41:1 vs_43_41:A 1.000000e-03
23 pgm_ln41:1 vs_42_41:A 1.000000e-03
24 pgm_ln41:1 vs_41_41:A 1.000000e-03
25 pgm_ln41:1 vs_40_41:A 1.000000e-03
26 pgm_ln41:1 vs_39_41:A 1.000000e-03
27 pgm_ln41:1 vs_38_41:A 1.000000e-03
28 pgm_ln41:1 vs_37_41:A 1.000000e-03
29 pgm_ln41:1 vs_36_41:A 1.000000e-03
30 pgm_ln41:1 vs_35_41:A 1.000000e-03
31 pgm_ln41:1 vs_34_41:A 1.000000e-03
32 pgm_ln41:1 vs_33_41:A 1.000000e-03
33 pgm_ln41:1 vs_32_41:A 1.000000e-03
34 pgm_ln41:1 vs_31_41:A 1.000000e-03
35 pgm_ln41:1 vs_30_41:A 1.000000e-03
36 pgm_ln41:1 vs_29_41:A 1.000000e-03
37 pgm_ln41:1 vs_28_41:A 1.000000e-03
38 pgm_ln41:1 vs_27_41:A 1.000000e-03
39 pgm_ln41:1 vs_26_41:A 1.000000e-03
40 pgm_ln41:1 vs_25_41:A 1.000000e-03
41 pgm_ln41:1 vs_24_41:A 1.000000e-03
42 pgm_ln41:1 vs_23_41:A 1.000000e-03
43 pgm_ln41:1 vs_22_41:A 1.000000e-03
44 pgm_ln41:1 vs_21_41:A 1.000000e-03
45 pgm_ln41:1 vs_20_41:A 1.000000e-03
46 pgm_ln41:1 vs_19_41:A 1.000000e-03
47 pgm_ln41:1 vs_18_41:A 1.000000e-03
48 pgm_ln41:1 vs_17_41:A 1.000000e-03
49 pgm_ln41:1 vs_16_41:A 1.000000e-03
50 pgm_ln41:1 vs_15_41:A 1.000000e-03
51 pgm_ln41:1 vs_14_41:A 1.000000e-03
52 pgm_ln41:1 vs_13_41:A 1.000000e-03
53 pgm_ln41:1 vs_12_41:A 1.000000e-03
54 pgm_ln41:1 vs_11_41:A 1.000000e-03
55 pgm_ln41:1 vs_10_41:A 1.000000e-03
56 pgm_ln41:1 vs_9_41:A 1.000000e-03
57 pgm_ln41:1 vs_8_41:A 1.000000e-03
58 pgm_ln41:1 vs_7_41:A 1.000000e-03
59 pgm_ln41:1 vs_6_41:A 1.000000e-03
60 pgm_ln41:1 vs_5_41:A 1.000000e-03
61 pgm_ln41:1 vs_4_41:A 1.000000e-03
62 pgm_ln41:1 vs_3_41:A 1.000000e-03
63 pgm_ln41:1 vs_2_41:A 1.000000e-03
64 pgm_ln41:1 vs_1_41:A 1.000000e-03
65 pgm_ln41:1 vs_0_41:A 1.000000e-03
*END

*D_NET pgm_ln46 1.122484e-01
*CONN
*I lt_ln46:Z O
*I vs_63_46:A I
*I vs_62_46:A I
*I vs_61_46:A I
*I vs_60_46:A I
*I vs_59_46:A I
*I vs_58_46:A I
*I vs_57_46:A I
*I vs_56_46:A I
*I vs_55_46:A I
*I vs_54_46:A I
*I vs_53_46:A I
*I vs_52_46:A I
*I vs_51_46:A I
*I vs_50_46:A I
*I vs_49_46:A I
*I vs_48_46:A I
*I vs_47_46:A I
*I vs_46_46:A I
*I vs_45_46:A I
*I vs_44_46:A I
*I vs_43_46:A I
*I vs_42_46:A I
*I vs_41_46:A I
*I vs_40_46:A I
*I vs_39_46:A I
*I vs_38_46:A I
*I vs_37_46:A I
*I vs_36_46:A I
*I vs_35_46:A I
*I vs_34_46:A I
*I vs_33_46:A I
*I vs_32_46:A I
*I vs_31_46:A I
*I vs_30_46:A I
*I vs_29_46:A I
*I vs_28_46:A I
*I vs_27_46:A I
*I vs_26_46:A I
*I vs_25_46:A I
*I vs_24_46:A I
*I vs_23_46:A I
*I vs_22_46:A I
*I vs_21_46:A I
*I vs_20_46:A I
*I vs_19_46:A I
*I vs_18_46:A I
*I vs_17_46:A I
*I vs_16_46:A I
*I vs_15_46:A I
*I vs_14_46:A I
*I vs_13_46:A I
*I vs_12_46:A I
*I vs_11_46:A I
*I vs_10_46:A I
*I vs_9_46:A I
*I vs_8_46:A I
*I vs_7_46:A I
*I vs_6_46:A I
*I vs_5_46:A I
*I vs_4_46:A I
*I vs_3_46:A I
*I vs_2_46:A I
*I vs_1_46:A I
*I vs_0_46:A I
*CAP
1 pgm_ln46:1 1.122484e-01
*RES
1 lt_ln46:Z pgm_ln46:1 1.273775e+02
2 pgm_ln46:1 vs_63_46:A 1.000000e-03
3 pgm_ln46:1 vs_62_46:A 1.000000e-03
4 pgm_ln46:1 vs_61_46:A 1.000000e-03
5 pgm_ln46:1 vs_60_46:A 1.000000e-03
6 pgm_ln46:1 vs_59_46:A 1.000000e-03
7 pgm_ln46:1 vs_58_46:A 1.000000e-03
8 pgm_ln46:1 vs_57_46:A 1.000000e-03
9 pgm_ln46:1 vs_56_46:A 1.000000e-03
10 pgm_ln46:1 vs_55_46:A 1.000000e-03
11 pgm_ln46:1 vs_54_46:A 1.000000e-03
12 pgm_ln46:1 vs_53_46:A 1.000000e-03
13 pgm_ln46:1 vs_52_46:A 1.000000e-03
14 pgm_ln46:1 vs_51_46:A 1.000000e-03
15 pgm_ln46:1 vs_50_46:A 1.000000e-03
16 pgm_ln46:1 vs_49_46:A 1.000000e-03
17 pgm_ln46:1 vs_48_46:A 1.000000e-03
18 pgm_ln46:1 vs_47_46:A 1.000000e-03
19 pgm_ln46:1 vs_46_46:A 1.000000e-03
20 pgm_ln46:1 vs_45_46:A 1.000000e-03
21 pgm_ln46:1 vs_44_46:A 1.000000e-03
22 pgm_ln46:1 vs_43_46:A 1.000000e-03
23 pgm_ln46:1 vs_42_46:A 1.000000e-03
24 pgm_ln46:1 vs_41_46:A 1.000000e-03
25 pgm_ln46:1 vs_40_46:A 1.000000e-03
26 pgm_ln46:1 vs_39_46:A 1.000000e-03
27 pgm_ln46:1 vs_38_46:A 1.000000e-03
28 pgm_ln46:1 vs_37_46:A 1.000000e-03
29 pgm_ln46:1 vs_36_46:A 1.000000e-03
30 pgm_ln46:1 vs_35_46:A 1.000000e-03
31 pgm_ln46:1 vs_34_46:A 1.000000e-03
32 pgm_ln46:1 vs_33_46:A 1.000000e-03
33 pgm_ln46:1 vs_32_46:A 1.000000e-03
34 pgm_ln46:1 vs_31_46:A 1.000000e-03
35 pgm_ln46:1 vs_30_46:A 1.000000e-03
36 pgm_ln46:1 vs_29_46:A 1.000000e-03
37 pgm_ln46:1 vs_28_46:A 1.000000e-03
38 pgm_ln46:1 vs_27_46:A 1.000000e-03
39 pgm_ln46:1 vs_26_46:A 1.000000e-03
40 pgm_ln46:1 vs_25_46:A 1.000000e-03
41 pgm_ln46:1 vs_24_46:A 1.000000e-03
42 pgm_ln46:1 vs_23_46:A 1.000000e-03
43 pgm_ln46:1 vs_22_46:A 1.000000e-03
44 pgm_ln46:1 vs_21_46:A 1.000000e-03
45 pgm_ln46:1 vs_20_46:A 1.000000e-03
46 pgm_ln46:1 vs_19_46:A 1.000000e-03
47 pgm_ln46:1 vs_18_46:A 1.000000e-03
48 pgm_ln46:1 vs_17_46:A 1.000000e-03
49 pgm_ln46:1 vs_16_46:A 1.000000e-03
50 pgm_ln46:1 vs_15_46:A 1.000000e-03
51 pgm_ln46:1 vs_14_46:A 1.000000e-03
52 pgm_ln46:1 vs_13_46:A 1.000000e-03
53 pgm_ln46:1 vs_12_46:A 1.000000e-03
54 pgm_ln46:1 vs_11_46:A 1.000000e-03
55 pgm_ln46:1 vs_10_46:A 1.000000e-03
56 pgm_ln46:1 vs_9_46:A 1.000000e-03
57 pgm_ln46:1 vs_8_46:A 1.000000e-03
58 pgm_ln46:1 vs_7_46:A 1.000000e-03
59 pgm_ln46:1 vs_6_46:A 1.000000e-03
60 pgm_ln46:1 vs_5_46:A 1.000000e-03
61 pgm_ln46:1 vs_4_46:A 1.000000e-03
62 pgm_ln46:1 vs_3_46:A 1.000000e-03
63 pgm_ln46:1 vs_2_46:A 1.000000e-03
64 pgm_ln46:1 vs_1_46:A 1.000000e-03
65 pgm_ln46:1 vs_0_46:A 1.000000e-03
*END

*D_NET pgm_ln47 1.070017e-01
*CONN
*I lt_ln47:Z O
*I vs_63_47:A I
*I vs_62_47:A I
*I vs_61_47:A I
*I vs_60_47:A I
*I vs_59_47:A I
*I vs_58_47:A I
*I vs_57_47:A I
*I vs_56_47:A I
*I vs_55_47:A I
*I vs_54_47:A I
*I vs_53_47:A I
*I vs_52_47:A I
*I vs_51_47:A I
*I vs_50_47:A I
*I vs_49_47:A I
*I vs_48_47:A I
*I vs_47_47:A I
*I vs_46_47:A I
*I vs_45_47:A I
*I vs_44_47:A I
*I vs_43_47:A I
*I vs_42_47:A I
*I vs_41_47:A I
*I vs_40_47:A I
*I vs_39_47:A I
*I vs_38_47:A I
*I vs_37_47:A I
*I vs_36_47:A I
*I vs_35_47:A I
*I vs_34_47:A I
*I vs_33_47:A I
*I vs_32_47:A I
*I vs_31_47:A I
*I vs_30_47:A I
*I vs_29_47:A I
*I vs_28_47:A I
*I vs_27_47:A I
*I vs_26_47:A I
*I vs_25_47:A I
*I vs_24_47:A I
*I vs_23_47:A I
*I vs_22_47:A I
*I vs_21_47:A I
*I vs_20_47:A I
*I vs_19_47:A I
*I vs_18_47:A I
*I vs_17_47:A I
*I vs_16_47:A I
*I vs_15_47:A I
*I vs_14_47:A I
*I vs_13_47:A I
*I vs_12_47:A I
*I vs_11_47:A I
*I vs_10_47:A I
*I vs_9_47:A I
*I vs_8_47:A I
*I vs_7_47:A I
*I vs_6_47:A I
*I vs_5_47:A I
*I vs_4_47:A I
*I vs_3_47:A I
*I vs_2_47:A I
*I vs_1_47:A I
*I vs_0_47:A I
*CAP
1 pgm_ln47:1 1.070017e-01
*RES
1 lt_ln47:Z pgm_ln47:1 1.214237e+02
2 pgm_ln47:1 vs_63_47:A 1.000000e-03
3 pgm_ln47:1 vs_62_47:A 1.000000e-03
4 pgm_ln47:1 vs_61_47:A 1.000000e-03
5 pgm_ln47:1 vs_60_47:A 1.000000e-03
6 pgm_ln47:1 vs_59_47:A 1.000000e-03
7 pgm_ln47:1 vs_58_47:A 1.000000e-03
8 pgm_ln47:1 vs_57_47:A 1.000000e-03
9 pgm_ln47:1 vs_56_47:A 1.000000e-03
10 pgm_ln47:1 vs_55_47:A 1.000000e-03
11 pgm_ln47:1 vs_54_47:A 1.000000e-03
12 pgm_ln47:1 vs_53_47:A 1.000000e-03
13 pgm_ln47:1 vs_52_47:A 1.000000e-03
14 pgm_ln47:1 vs_51_47:A 1.000000e-03
15 pgm_ln47:1 vs_50_47:A 1.000000e-03
16 pgm_ln47:1 vs_49_47:A 1.000000e-03
17 pgm_ln47:1 vs_48_47:A 1.000000e-03
18 pgm_ln47:1 vs_47_47:A 1.000000e-03
19 pgm_ln47:1 vs_46_47:A 1.000000e-03
20 pgm_ln47:1 vs_45_47:A 1.000000e-03
21 pgm_ln47:1 vs_44_47:A 1.000000e-03
22 pgm_ln47:1 vs_43_47:A 1.000000e-03
23 pgm_ln47:1 vs_42_47:A 1.000000e-03
24 pgm_ln47:1 vs_41_47:A 1.000000e-03
25 pgm_ln47:1 vs_40_47:A 1.000000e-03
26 pgm_ln47:1 vs_39_47:A 1.000000e-03
27 pgm_ln47:1 vs_38_47:A 1.000000e-03
28 pgm_ln47:1 vs_37_47:A 1.000000e-03
29 pgm_ln47:1 vs_36_47:A 1.000000e-03
30 pgm_ln47:1 vs_35_47:A 1.000000e-03
31 pgm_ln47:1 vs_34_47:A 1.000000e-03
32 pgm_ln47:1 vs_33_47:A 1.000000e-03
33 pgm_ln47:1 vs_32_47:A 1.000000e-03
34 pgm_ln47:1 vs_31_47:A 1.000000e-03
35 pgm_ln47:1 vs_30_47:A 1.000000e-03
36 pgm_ln47:1 vs_29_47:A 1.000000e-03
37 pgm_ln47:1 vs_28_47:A 1.000000e-03
38 pgm_ln47:1 vs_27_47:A 1.000000e-03
39 pgm_ln47:1 vs_26_47:A 1.000000e-03
40 pgm_ln47:1 vs_25_47:A 1.000000e-03
41 pgm_ln47:1 vs_24_47:A 1.000000e-03
42 pgm_ln47:1 vs_23_47:A 1.000000e-03
43 pgm_ln47:1 vs_22_47:A 1.000000e-03
44 pgm_ln47:1 vs_21_47:A 1.000000e-03
45 pgm_ln47:1 vs_20_47:A 1.000000e-03
46 pgm_ln47:1 vs_19_47:A 1.000000e-03
47 pgm_ln47:1 vs_18_47:A 1.000000e-03
48 pgm_ln47:1 vs_17_47:A 1.000000e-03
49 pgm_ln47:1 vs_16_47:A 1.000000e-03
50 pgm_ln47:1 vs_15_47:A 1.000000e-03
51 pgm_ln47:1 vs_14_47:A 1.000000e-03
52 pgm_ln47:1 vs_13_47:A 1.000000e-03
53 pgm_ln47:1 vs_12_47:A 1.000000e-03
54 pgm_ln47:1 vs_11_47:A 1.000000e-03
55 pgm_ln47:1 vs_10_47:A 1.000000e-03
56 pgm_ln47:1 vs_9_47:A 1.000000e-03
57 pgm_ln47:1 vs_8_47:A 1.000000e-03
58 pgm_ln47:1 vs_7_47:A 1.000000e-03
59 pgm_ln47:1 vs_6_47:A 1.000000e-03
60 pgm_ln47:1 vs_5_47:A 1.000000e-03
61 pgm_ln47:1 vs_4_47:A 1.000000e-03
62 pgm_ln47:1 vs_3_47:A 1.000000e-03
63 pgm_ln47:1 vs_2_47:A 1.000000e-03
64 pgm_ln47:1 vs_1_47:A 1.000000e-03
65 pgm_ln47:1 vs_0_47:A 1.000000e-03
*END

*D_NET pgm_ln48 1.122484e-01
*CONN
*I lt_ln48:Z O
*I vs_63_48:A I
*I vs_62_48:A I
*I vs_61_48:A I
*I vs_60_48:A I
*I vs_59_48:A I
*I vs_58_48:A I
*I vs_57_48:A I
*I vs_56_48:A I
*I vs_55_48:A I
*I vs_54_48:A I
*I vs_53_48:A I
*I vs_52_48:A I
*I vs_51_48:A I
*I vs_50_48:A I
*I vs_49_48:A I
*I vs_48_48:A I
*I vs_47_48:A I
*I vs_46_48:A I
*I vs_45_48:A I
*I vs_44_48:A I
*I vs_43_48:A I
*I vs_42_48:A I
*I vs_41_48:A I
*I vs_40_48:A I
*I vs_39_48:A I
*I vs_38_48:A I
*I vs_37_48:A I
*I vs_36_48:A I
*I vs_35_48:A I
*I vs_34_48:A I
*I vs_33_48:A I
*I vs_32_48:A I
*I vs_31_48:A I
*I vs_30_48:A I
*I vs_29_48:A I
*I vs_28_48:A I
*I vs_27_48:A I
*I vs_26_48:A I
*I vs_25_48:A I
*I vs_24_48:A I
*I vs_23_48:A I
*I vs_22_48:A I
*I vs_21_48:A I
*I vs_20_48:A I
*I vs_19_48:A I
*I vs_18_48:A I
*I vs_17_48:A I
*I vs_16_48:A I
*I vs_15_48:A I
*I vs_14_48:A I
*I vs_13_48:A I
*I vs_12_48:A I
*I vs_11_48:A I
*I vs_10_48:A I
*I vs_9_48:A I
*I vs_8_48:A I
*I vs_7_48:A I
*I vs_6_48:A I
*I vs_5_48:A I
*I vs_4_48:A I
*I vs_3_48:A I
*I vs_2_48:A I
*I vs_1_48:A I
*I vs_0_48:A I
*CAP
1 pgm_ln48:1 1.122484e-01
*RES
1 lt_ln48:Z pgm_ln48:1 1.273775e+02
2 pgm_ln48:1 vs_63_48:A 1.000000e-03
3 pgm_ln48:1 vs_62_48:A 1.000000e-03
4 pgm_ln48:1 vs_61_48:A 1.000000e-03
5 pgm_ln48:1 vs_60_48:A 1.000000e-03
6 pgm_ln48:1 vs_59_48:A 1.000000e-03
7 pgm_ln48:1 vs_58_48:A 1.000000e-03
8 pgm_ln48:1 vs_57_48:A 1.000000e-03
9 pgm_ln48:1 vs_56_48:A 1.000000e-03
10 pgm_ln48:1 vs_55_48:A 1.000000e-03
11 pgm_ln48:1 vs_54_48:A 1.000000e-03
12 pgm_ln48:1 vs_53_48:A 1.000000e-03
13 pgm_ln48:1 vs_52_48:A 1.000000e-03
14 pgm_ln48:1 vs_51_48:A 1.000000e-03
15 pgm_ln48:1 vs_50_48:A 1.000000e-03
16 pgm_ln48:1 vs_49_48:A 1.000000e-03
17 pgm_ln48:1 vs_48_48:A 1.000000e-03
18 pgm_ln48:1 vs_47_48:A 1.000000e-03
19 pgm_ln48:1 vs_46_48:A 1.000000e-03
20 pgm_ln48:1 vs_45_48:A 1.000000e-03
21 pgm_ln48:1 vs_44_48:A 1.000000e-03
22 pgm_ln48:1 vs_43_48:A 1.000000e-03
23 pgm_ln48:1 vs_42_48:A 1.000000e-03
24 pgm_ln48:1 vs_41_48:A 1.000000e-03
25 pgm_ln48:1 vs_40_48:A 1.000000e-03
26 pgm_ln48:1 vs_39_48:A 1.000000e-03
27 pgm_ln48:1 vs_38_48:A 1.000000e-03
28 pgm_ln48:1 vs_37_48:A 1.000000e-03
29 pgm_ln48:1 vs_36_48:A 1.000000e-03
30 pgm_ln48:1 vs_35_48:A 1.000000e-03
31 pgm_ln48:1 vs_34_48:A 1.000000e-03
32 pgm_ln48:1 vs_33_48:A 1.000000e-03
33 pgm_ln48:1 vs_32_48:A 1.000000e-03
34 pgm_ln48:1 vs_31_48:A 1.000000e-03
35 pgm_ln48:1 vs_30_48:A 1.000000e-03
36 pgm_ln48:1 vs_29_48:A 1.000000e-03
37 pgm_ln48:1 vs_28_48:A 1.000000e-03
38 pgm_ln48:1 vs_27_48:A 1.000000e-03
39 pgm_ln48:1 vs_26_48:A 1.000000e-03
40 pgm_ln48:1 vs_25_48:A 1.000000e-03
41 pgm_ln48:1 vs_24_48:A 1.000000e-03
42 pgm_ln48:1 vs_23_48:A 1.000000e-03
43 pgm_ln48:1 vs_22_48:A 1.000000e-03
44 pgm_ln48:1 vs_21_48:A 1.000000e-03
45 pgm_ln48:1 vs_20_48:A 1.000000e-03
46 pgm_ln48:1 vs_19_48:A 1.000000e-03
47 pgm_ln48:1 vs_18_48:A 1.000000e-03
48 pgm_ln48:1 vs_17_48:A 1.000000e-03
49 pgm_ln48:1 vs_16_48:A 1.000000e-03
50 pgm_ln48:1 vs_15_48:A 1.000000e-03
51 pgm_ln48:1 vs_14_48:A 1.000000e-03
52 pgm_ln48:1 vs_13_48:A 1.000000e-03
53 pgm_ln48:1 vs_12_48:A 1.000000e-03
54 pgm_ln48:1 vs_11_48:A 1.000000e-03
55 pgm_ln48:1 vs_10_48:A 1.000000e-03
56 pgm_ln48:1 vs_9_48:A 1.000000e-03
57 pgm_ln48:1 vs_8_48:A 1.000000e-03
58 pgm_ln48:1 vs_7_48:A 1.000000e-03
59 pgm_ln48:1 vs_6_48:A 1.000000e-03
60 pgm_ln48:1 vs_5_48:A 1.000000e-03
61 pgm_ln48:1 vs_4_48:A 1.000000e-03
62 pgm_ln48:1 vs_3_48:A 1.000000e-03
63 pgm_ln48:1 vs_2_48:A 1.000000e-03
64 pgm_ln48:1 vs_1_48:A 1.000000e-03
65 pgm_ln48:1 vs_0_48:A 1.000000e-03
*END

*D_NET pgm_ln51 1.074106e-01
*CONN
*I lt_ln51:Z O
*I vs_63_51:A I
*I vs_62_51:A I
*I vs_61_51:A I
*I vs_60_51:A I
*I vs_59_51:A I
*I vs_58_51:A I
*I vs_57_51:A I
*I vs_56_51:A I
*I vs_55_51:A I
*I vs_54_51:A I
*I vs_53_51:A I
*I vs_52_51:A I
*I vs_51_51:A I
*I vs_50_51:A I
*I vs_49_51:A I
*I vs_48_51:A I
*I vs_47_51:A I
*I vs_46_51:A I
*I vs_45_51:A I
*I vs_44_51:A I
*I vs_43_51:A I
*I vs_42_51:A I
*I vs_41_51:A I
*I vs_40_51:A I
*I vs_39_51:A I
*I vs_38_51:A I
*I vs_37_51:A I
*I vs_36_51:A I
*I vs_35_51:A I
*I vs_34_51:A I
*I vs_33_51:A I
*I vs_32_51:A I
*I vs_31_51:A I
*I vs_30_51:A I
*I vs_29_51:A I
*I vs_28_51:A I
*I vs_27_51:A I
*I vs_26_51:A I
*I vs_25_51:A I
*I vs_24_51:A I
*I vs_23_51:A I
*I vs_22_51:A I
*I vs_21_51:A I
*I vs_20_51:A I
*I vs_19_51:A I
*I vs_18_51:A I
*I vs_17_51:A I
*I vs_16_51:A I
*I vs_15_51:A I
*I vs_14_51:A I
*I vs_13_51:A I
*I vs_12_51:A I
*I vs_11_51:A I
*I vs_10_51:A I
*I vs_9_51:A I
*I vs_8_51:A I
*I vs_7_51:A I
*I vs_6_51:A I
*I vs_5_51:A I
*I vs_4_51:A I
*I vs_3_51:A I
*I vs_2_51:A I
*I vs_1_51:A I
*I vs_0_51:A I
*CAP
1 pgm_ln51:1 1.074106e-01
*RES
1 lt_ln51:Z pgm_ln51:1 1.218876e+02
2 pgm_ln51:1 vs_63_51:A 1.000000e-03
3 pgm_ln51:1 vs_62_51:A 1.000000e-03
4 pgm_ln51:1 vs_61_51:A 1.000000e-03
5 pgm_ln51:1 vs_60_51:A 1.000000e-03
6 pgm_ln51:1 vs_59_51:A 1.000000e-03
7 pgm_ln51:1 vs_58_51:A 1.000000e-03
8 pgm_ln51:1 vs_57_51:A 1.000000e-03
9 pgm_ln51:1 vs_56_51:A 1.000000e-03
10 pgm_ln51:1 vs_55_51:A 1.000000e-03
11 pgm_ln51:1 vs_54_51:A 1.000000e-03
12 pgm_ln51:1 vs_53_51:A 1.000000e-03
13 pgm_ln51:1 vs_52_51:A 1.000000e-03
14 pgm_ln51:1 vs_51_51:A 1.000000e-03
15 pgm_ln51:1 vs_50_51:A 1.000000e-03
16 pgm_ln51:1 vs_49_51:A 1.000000e-03
17 pgm_ln51:1 vs_48_51:A 1.000000e-03
18 pgm_ln51:1 vs_47_51:A 1.000000e-03
19 pgm_ln51:1 vs_46_51:A 1.000000e-03
20 pgm_ln51:1 vs_45_51:A 1.000000e-03
21 pgm_ln51:1 vs_44_51:A 1.000000e-03
22 pgm_ln51:1 vs_43_51:A 1.000000e-03
23 pgm_ln51:1 vs_42_51:A 1.000000e-03
24 pgm_ln51:1 vs_41_51:A 1.000000e-03
25 pgm_ln51:1 vs_40_51:A 1.000000e-03
26 pgm_ln51:1 vs_39_51:A 1.000000e-03
27 pgm_ln51:1 vs_38_51:A 1.000000e-03
28 pgm_ln51:1 vs_37_51:A 1.000000e-03
29 pgm_ln51:1 vs_36_51:A 1.000000e-03
30 pgm_ln51:1 vs_35_51:A 1.000000e-03
31 pgm_ln51:1 vs_34_51:A 1.000000e-03
32 pgm_ln51:1 vs_33_51:A 1.000000e-03
33 pgm_ln51:1 vs_32_51:A 1.000000e-03
34 pgm_ln51:1 vs_31_51:A 1.000000e-03
35 pgm_ln51:1 vs_30_51:A 1.000000e-03
36 pgm_ln51:1 vs_29_51:A 1.000000e-03
37 pgm_ln51:1 vs_28_51:A 1.000000e-03
38 pgm_ln51:1 vs_27_51:A 1.000000e-03
39 pgm_ln51:1 vs_26_51:A 1.000000e-03
40 pgm_ln51:1 vs_25_51:A 1.000000e-03
41 pgm_ln51:1 vs_24_51:A 1.000000e-03
42 pgm_ln51:1 vs_23_51:A 1.000000e-03
43 pgm_ln51:1 vs_22_51:A 1.000000e-03
44 pgm_ln51:1 vs_21_51:A 1.000000e-03
45 pgm_ln51:1 vs_20_51:A 1.000000e-03
46 pgm_ln51:1 vs_19_51:A 1.000000e-03
47 pgm_ln51:1 vs_18_51:A 1.000000e-03
48 pgm_ln51:1 vs_17_51:A 1.000000e-03
49 pgm_ln51:1 vs_16_51:A 1.000000e-03
50 pgm_ln51:1 vs_15_51:A 1.000000e-03
51 pgm_ln51:1 vs_14_51:A 1.000000e-03
52 pgm_ln51:1 vs_13_51:A 1.000000e-03
53 pgm_ln51:1 vs_12_51:A 1.000000e-03
54 pgm_ln51:1 vs_11_51:A 1.000000e-03
55 pgm_ln51:1 vs_10_51:A 1.000000e-03
56 pgm_ln51:1 vs_9_51:A 1.000000e-03
57 pgm_ln51:1 vs_8_51:A 1.000000e-03
58 pgm_ln51:1 vs_7_51:A 1.000000e-03
59 pgm_ln51:1 vs_6_51:A 1.000000e-03
60 pgm_ln51:1 vs_5_51:A 1.000000e-03
61 pgm_ln51:1 vs_4_51:A 1.000000e-03
62 pgm_ln51:1 vs_3_51:A 1.000000e-03
63 pgm_ln51:1 vs_2_51:A 1.000000e-03
64 pgm_ln51:1 vs_1_51:A 1.000000e-03
65 pgm_ln51:1 vs_0_51:A 1.000000e-03
*END

*D_NET pgm_ln53 1.076979e-01
*CONN
*I lt_ln53:Z O
*I vs_63_53:A I
*I vs_62_53:A I
*I vs_61_53:A I
*I vs_60_53:A I
*I vs_59_53:A I
*I vs_58_53:A I
*I vs_57_53:A I
*I vs_56_53:A I
*I vs_55_53:A I
*I vs_54_53:A I
*I vs_53_53:A I
*I vs_52_53:A I
*I vs_51_53:A I
*I vs_50_53:A I
*I vs_49_53:A I
*I vs_48_53:A I
*I vs_47_53:A I
*I vs_46_53:A I
*I vs_45_53:A I
*I vs_44_53:A I
*I vs_43_53:A I
*I vs_42_53:A I
*I vs_41_53:A I
*I vs_40_53:A I
*I vs_39_53:A I
*I vs_38_53:A I
*I vs_37_53:A I
*I vs_36_53:A I
*I vs_35_53:A I
*I vs_34_53:A I
*I vs_33_53:A I
*I vs_32_53:A I
*I vs_31_53:A I
*I vs_30_53:A I
*I vs_29_53:A I
*I vs_28_53:A I
*I vs_27_53:A I
*I vs_26_53:A I
*I vs_25_53:A I
*I vs_24_53:A I
*I vs_23_53:A I
*I vs_22_53:A I
*I vs_21_53:A I
*I vs_20_53:A I
*I vs_19_53:A I
*I vs_18_53:A I
*I vs_17_53:A I
*I vs_16_53:A I
*I vs_15_53:A I
*I vs_14_53:A I
*I vs_13_53:A I
*I vs_12_53:A I
*I vs_11_53:A I
*I vs_10_53:A I
*I vs_9_53:A I
*I vs_8_53:A I
*I vs_7_53:A I
*I vs_6_53:A I
*I vs_5_53:A I
*I vs_4_53:A I
*I vs_3_53:A I
*I vs_2_53:A I
*I vs_1_53:A I
*I vs_0_53:A I
*CAP
1 pgm_ln53:1 1.076979e-01
*RES
1 lt_ln53:Z pgm_ln53:1 1.222137e+02
2 pgm_ln53:1 vs_63_53:A 1.000000e-03
3 pgm_ln53:1 vs_62_53:A 1.000000e-03
4 pgm_ln53:1 vs_61_53:A 1.000000e-03
5 pgm_ln53:1 vs_60_53:A 1.000000e-03
6 pgm_ln53:1 vs_59_53:A 1.000000e-03
7 pgm_ln53:1 vs_58_53:A 1.000000e-03
8 pgm_ln53:1 vs_57_53:A 1.000000e-03
9 pgm_ln53:1 vs_56_53:A 1.000000e-03
10 pgm_ln53:1 vs_55_53:A 1.000000e-03
11 pgm_ln53:1 vs_54_53:A 1.000000e-03
12 pgm_ln53:1 vs_53_53:A 1.000000e-03
13 pgm_ln53:1 vs_52_53:A 1.000000e-03
14 pgm_ln53:1 vs_51_53:A 1.000000e-03
15 pgm_ln53:1 vs_50_53:A 1.000000e-03
16 pgm_ln53:1 vs_49_53:A 1.000000e-03
17 pgm_ln53:1 vs_48_53:A 1.000000e-03
18 pgm_ln53:1 vs_47_53:A 1.000000e-03
19 pgm_ln53:1 vs_46_53:A 1.000000e-03
20 pgm_ln53:1 vs_45_53:A 1.000000e-03
21 pgm_ln53:1 vs_44_53:A 1.000000e-03
22 pgm_ln53:1 vs_43_53:A 1.000000e-03
23 pgm_ln53:1 vs_42_53:A 1.000000e-03
24 pgm_ln53:1 vs_41_53:A 1.000000e-03
25 pgm_ln53:1 vs_40_53:A 1.000000e-03
26 pgm_ln53:1 vs_39_53:A 1.000000e-03
27 pgm_ln53:1 vs_38_53:A 1.000000e-03
28 pgm_ln53:1 vs_37_53:A 1.000000e-03
29 pgm_ln53:1 vs_36_53:A 1.000000e-03
30 pgm_ln53:1 vs_35_53:A 1.000000e-03
31 pgm_ln53:1 vs_34_53:A 1.000000e-03
32 pgm_ln53:1 vs_33_53:A 1.000000e-03
33 pgm_ln53:1 vs_32_53:A 1.000000e-03
34 pgm_ln53:1 vs_31_53:A 1.000000e-03
35 pgm_ln53:1 vs_30_53:A 1.000000e-03
36 pgm_ln53:1 vs_29_53:A 1.000000e-03
37 pgm_ln53:1 vs_28_53:A 1.000000e-03
38 pgm_ln53:1 vs_27_53:A 1.000000e-03
39 pgm_ln53:1 vs_26_53:A 1.000000e-03
40 pgm_ln53:1 vs_25_53:A 1.000000e-03
41 pgm_ln53:1 vs_24_53:A 1.000000e-03
42 pgm_ln53:1 vs_23_53:A 1.000000e-03
43 pgm_ln53:1 vs_22_53:A 1.000000e-03
44 pgm_ln53:1 vs_21_53:A 1.000000e-03
45 pgm_ln53:1 vs_20_53:A 1.000000e-03
46 pgm_ln53:1 vs_19_53:A 1.000000e-03
47 pgm_ln53:1 vs_18_53:A 1.000000e-03
48 pgm_ln53:1 vs_17_53:A 1.000000e-03
49 pgm_ln53:1 vs_16_53:A 1.000000e-03
50 pgm_ln53:1 vs_15_53:A 1.000000e-03
51 pgm_ln53:1 vs_14_53:A 1.000000e-03
52 pgm_ln53:1 vs_13_53:A 1.000000e-03
53 pgm_ln53:1 vs_12_53:A 1.000000e-03
54 pgm_ln53:1 vs_11_53:A 1.000000e-03
55 pgm_ln53:1 vs_10_53:A 1.000000e-03
56 pgm_ln53:1 vs_9_53:A 1.000000e-03
57 pgm_ln53:1 vs_8_53:A 1.000000e-03
58 pgm_ln53:1 vs_7_53:A 1.000000e-03
59 pgm_ln53:1 vs_6_53:A 1.000000e-03
60 pgm_ln53:1 vs_5_53:A 1.000000e-03
61 pgm_ln53:1 vs_4_53:A 1.000000e-03
62 pgm_ln53:1 vs_3_53:A 1.000000e-03
63 pgm_ln53:1 vs_2_53:A 1.000000e-03
64 pgm_ln53:1 vs_1_53:A 1.000000e-03
65 pgm_ln53:1 vs_0_53:A 1.000000e-03
*END

*D_NET pgm_ln54 1.074106e-01
*CONN
*I lt_ln54:Z O
*I vs_63_54:A I
*I vs_62_54:A I
*I vs_61_54:A I
*I vs_60_54:A I
*I vs_59_54:A I
*I vs_58_54:A I
*I vs_57_54:A I
*I vs_56_54:A I
*I vs_55_54:A I
*I vs_54_54:A I
*I vs_53_54:A I
*I vs_52_54:A I
*I vs_51_54:A I
*I vs_50_54:A I
*I vs_49_54:A I
*I vs_48_54:A I
*I vs_47_54:A I
*I vs_46_54:A I
*I vs_45_54:A I
*I vs_44_54:A I
*I vs_43_54:A I
*I vs_42_54:A I
*I vs_41_54:A I
*I vs_40_54:A I
*I vs_39_54:A I
*I vs_38_54:A I
*I vs_37_54:A I
*I vs_36_54:A I
*I vs_35_54:A I
*I vs_34_54:A I
*I vs_33_54:A I
*I vs_32_54:A I
*I vs_31_54:A I
*I vs_30_54:A I
*I vs_29_54:A I
*I vs_28_54:A I
*I vs_27_54:A I
*I vs_26_54:A I
*I vs_25_54:A I
*I vs_24_54:A I
*I vs_23_54:A I
*I vs_22_54:A I
*I vs_21_54:A I
*I vs_20_54:A I
*I vs_19_54:A I
*I vs_18_54:A I
*I vs_17_54:A I
*I vs_16_54:A I
*I vs_15_54:A I
*I vs_14_54:A I
*I vs_13_54:A I
*I vs_12_54:A I
*I vs_11_54:A I
*I vs_10_54:A I
*I vs_9_54:A I
*I vs_8_54:A I
*I vs_7_54:A I
*I vs_6_54:A I
*I vs_5_54:A I
*I vs_4_54:A I
*I vs_3_54:A I
*I vs_2_54:A I
*I vs_1_54:A I
*I vs_0_54:A I
*CAP
1 pgm_ln54:1 1.074106e-01
*RES
1 lt_ln54:Z pgm_ln54:1 1.218876e+02
2 pgm_ln54:1 vs_63_54:A 1.000000e-03
3 pgm_ln54:1 vs_62_54:A 1.000000e-03
4 pgm_ln54:1 vs_61_54:A 1.000000e-03
5 pgm_ln54:1 vs_60_54:A 1.000000e-03
6 pgm_ln54:1 vs_59_54:A 1.000000e-03
7 pgm_ln54:1 vs_58_54:A 1.000000e-03
8 pgm_ln54:1 vs_57_54:A 1.000000e-03
9 pgm_ln54:1 vs_56_54:A 1.000000e-03
10 pgm_ln54:1 vs_55_54:A 1.000000e-03
11 pgm_ln54:1 vs_54_54:A 1.000000e-03
12 pgm_ln54:1 vs_53_54:A 1.000000e-03
13 pgm_ln54:1 vs_52_54:A 1.000000e-03
14 pgm_ln54:1 vs_51_54:A 1.000000e-03
15 pgm_ln54:1 vs_50_54:A 1.000000e-03
16 pgm_ln54:1 vs_49_54:A 1.000000e-03
17 pgm_ln54:1 vs_48_54:A 1.000000e-03
18 pgm_ln54:1 vs_47_54:A 1.000000e-03
19 pgm_ln54:1 vs_46_54:A 1.000000e-03
20 pgm_ln54:1 vs_45_54:A 1.000000e-03
21 pgm_ln54:1 vs_44_54:A 1.000000e-03
22 pgm_ln54:1 vs_43_54:A 1.000000e-03
23 pgm_ln54:1 vs_42_54:A 1.000000e-03
24 pgm_ln54:1 vs_41_54:A 1.000000e-03
25 pgm_ln54:1 vs_40_54:A 1.000000e-03
26 pgm_ln54:1 vs_39_54:A 1.000000e-03
27 pgm_ln54:1 vs_38_54:A 1.000000e-03
28 pgm_ln54:1 vs_37_54:A 1.000000e-03
29 pgm_ln54:1 vs_36_54:A 1.000000e-03
30 pgm_ln54:1 vs_35_54:A 1.000000e-03
31 pgm_ln54:1 vs_34_54:A 1.000000e-03
32 pgm_ln54:1 vs_33_54:A 1.000000e-03
33 pgm_ln54:1 vs_32_54:A 1.000000e-03
34 pgm_ln54:1 vs_31_54:A 1.000000e-03
35 pgm_ln54:1 vs_30_54:A 1.000000e-03
36 pgm_ln54:1 vs_29_54:A 1.000000e-03
37 pgm_ln54:1 vs_28_54:A 1.000000e-03
38 pgm_ln54:1 vs_27_54:A 1.000000e-03
39 pgm_ln54:1 vs_26_54:A 1.000000e-03
40 pgm_ln54:1 vs_25_54:A 1.000000e-03
41 pgm_ln54:1 vs_24_54:A 1.000000e-03
42 pgm_ln54:1 vs_23_54:A 1.000000e-03
43 pgm_ln54:1 vs_22_54:A 1.000000e-03
44 pgm_ln54:1 vs_21_54:A 1.000000e-03
45 pgm_ln54:1 vs_20_54:A 1.000000e-03
46 pgm_ln54:1 vs_19_54:A 1.000000e-03
47 pgm_ln54:1 vs_18_54:A 1.000000e-03
48 pgm_ln54:1 vs_17_54:A 1.000000e-03
49 pgm_ln54:1 vs_16_54:A 1.000000e-03
50 pgm_ln54:1 vs_15_54:A 1.000000e-03
51 pgm_ln54:1 vs_14_54:A 1.000000e-03
52 pgm_ln54:1 vs_13_54:A 1.000000e-03
53 pgm_ln54:1 vs_12_54:A 1.000000e-03
54 pgm_ln54:1 vs_11_54:A 1.000000e-03
55 pgm_ln54:1 vs_10_54:A 1.000000e-03
56 pgm_ln54:1 vs_9_54:A 1.000000e-03
57 pgm_ln54:1 vs_8_54:A 1.000000e-03
58 pgm_ln54:1 vs_7_54:A 1.000000e-03
59 pgm_ln54:1 vs_6_54:A 1.000000e-03
60 pgm_ln54:1 vs_5_54:A 1.000000e-03
61 pgm_ln54:1 vs_4_54:A 1.000000e-03
62 pgm_ln54:1 vs_3_54:A 1.000000e-03
63 pgm_ln54:1 vs_2_54:A 1.000000e-03
64 pgm_ln54:1 vs_1_54:A 1.000000e-03
65 pgm_ln54:1 vs_0_54:A 1.000000e-03
*END

*D_NET pgm_ln58 1.121803e-01
*CONN
*I lt_ln58:Z O
*I vs_63_58:A I
*I vs_62_58:A I
*I vs_61_58:A I
*I vs_60_58:A I
*I vs_59_58:A I
*I vs_58_58:A I
*I vs_57_58:A I
*I vs_56_58:A I
*I vs_55_58:A I
*I vs_54_58:A I
*I vs_53_58:A I
*I vs_52_58:A I
*I vs_51_58:A I
*I vs_50_58:A I
*I vs_49_58:A I
*I vs_48_58:A I
*I vs_47_58:A I
*I vs_46_58:A I
*I vs_45_58:A I
*I vs_44_58:A I
*I vs_43_58:A I
*I vs_42_58:A I
*I vs_41_58:A I
*I vs_40_58:A I
*I vs_39_58:A I
*I vs_38_58:A I
*I vs_37_58:A I
*I vs_36_58:A I
*I vs_35_58:A I
*I vs_34_58:A I
*I vs_33_58:A I
*I vs_32_58:A I
*I vs_31_58:A I
*I vs_30_58:A I
*I vs_29_58:A I
*I vs_28_58:A I
*I vs_27_58:A I
*I vs_26_58:A I
*I vs_25_58:A I
*I vs_24_58:A I
*I vs_23_58:A I
*I vs_22_58:A I
*I vs_21_58:A I
*I vs_20_58:A I
*I vs_19_58:A I
*I vs_18_58:A I
*I vs_17_58:A I
*I vs_16_58:A I
*I vs_15_58:A I
*I vs_14_58:A I
*I vs_13_58:A I
*I vs_12_58:A I
*I vs_11_58:A I
*I vs_10_58:A I
*I vs_9_58:A I
*I vs_8_58:A I
*I vs_7_58:A I
*I vs_6_58:A I
*I vs_5_58:A I
*I vs_4_58:A I
*I vs_3_58:A I
*I vs_2_58:A I
*I vs_1_58:A I
*I vs_0_58:A I
*CAP
1 pgm_ln58:1 1.121803e-01
*RES
1 lt_ln58:Z pgm_ln58:1 1.273002e+02
2 pgm_ln58:1 vs_63_58:A 1.000000e-03
3 pgm_ln58:1 vs_62_58:A 1.000000e-03
4 pgm_ln58:1 vs_61_58:A 1.000000e-03
5 pgm_ln58:1 vs_60_58:A 1.000000e-03
6 pgm_ln58:1 vs_59_58:A 1.000000e-03
7 pgm_ln58:1 vs_58_58:A 1.000000e-03
8 pgm_ln58:1 vs_57_58:A 1.000000e-03
9 pgm_ln58:1 vs_56_58:A 1.000000e-03
10 pgm_ln58:1 vs_55_58:A 1.000000e-03
11 pgm_ln58:1 vs_54_58:A 1.000000e-03
12 pgm_ln58:1 vs_53_58:A 1.000000e-03
13 pgm_ln58:1 vs_52_58:A 1.000000e-03
14 pgm_ln58:1 vs_51_58:A 1.000000e-03
15 pgm_ln58:1 vs_50_58:A 1.000000e-03
16 pgm_ln58:1 vs_49_58:A 1.000000e-03
17 pgm_ln58:1 vs_48_58:A 1.000000e-03
18 pgm_ln58:1 vs_47_58:A 1.000000e-03
19 pgm_ln58:1 vs_46_58:A 1.000000e-03
20 pgm_ln58:1 vs_45_58:A 1.000000e-03
21 pgm_ln58:1 vs_44_58:A 1.000000e-03
22 pgm_ln58:1 vs_43_58:A 1.000000e-03
23 pgm_ln58:1 vs_42_58:A 1.000000e-03
24 pgm_ln58:1 vs_41_58:A 1.000000e-03
25 pgm_ln58:1 vs_40_58:A 1.000000e-03
26 pgm_ln58:1 vs_39_58:A 1.000000e-03
27 pgm_ln58:1 vs_38_58:A 1.000000e-03
28 pgm_ln58:1 vs_37_58:A 1.000000e-03
29 pgm_ln58:1 vs_36_58:A 1.000000e-03
30 pgm_ln58:1 vs_35_58:A 1.000000e-03
31 pgm_ln58:1 vs_34_58:A 1.000000e-03
32 pgm_ln58:1 vs_33_58:A 1.000000e-03
33 pgm_ln58:1 vs_32_58:A 1.000000e-03
34 pgm_ln58:1 vs_31_58:A 1.000000e-03
35 pgm_ln58:1 vs_30_58:A 1.000000e-03
36 pgm_ln58:1 vs_29_58:A 1.000000e-03
37 pgm_ln58:1 vs_28_58:A 1.000000e-03
38 pgm_ln58:1 vs_27_58:A 1.000000e-03
39 pgm_ln58:1 vs_26_58:A 1.000000e-03
40 pgm_ln58:1 vs_25_58:A 1.000000e-03
41 pgm_ln58:1 vs_24_58:A 1.000000e-03
42 pgm_ln58:1 vs_23_58:A 1.000000e-03
43 pgm_ln58:1 vs_22_58:A 1.000000e-03
44 pgm_ln58:1 vs_21_58:A 1.000000e-03
45 pgm_ln58:1 vs_20_58:A 1.000000e-03
46 pgm_ln58:1 vs_19_58:A 1.000000e-03
47 pgm_ln58:1 vs_18_58:A 1.000000e-03
48 pgm_ln58:1 vs_17_58:A 1.000000e-03
49 pgm_ln58:1 vs_16_58:A 1.000000e-03
50 pgm_ln58:1 vs_15_58:A 1.000000e-03
51 pgm_ln58:1 vs_14_58:A 1.000000e-03
52 pgm_ln58:1 vs_13_58:A 1.000000e-03
53 pgm_ln58:1 vs_12_58:A 1.000000e-03
54 pgm_ln58:1 vs_11_58:A 1.000000e-03
55 pgm_ln58:1 vs_10_58:A 1.000000e-03
56 pgm_ln58:1 vs_9_58:A 1.000000e-03
57 pgm_ln58:1 vs_8_58:A 1.000000e-03
58 pgm_ln58:1 vs_7_58:A 1.000000e-03
59 pgm_ln58:1 vs_6_58:A 1.000000e-03
60 pgm_ln58:1 vs_5_58:A 1.000000e-03
61 pgm_ln58:1 vs_4_58:A 1.000000e-03
62 pgm_ln58:1 vs_3_58:A 1.000000e-03
63 pgm_ln58:1 vs_2_58:A 1.000000e-03
64 pgm_ln58:1 vs_1_58:A 1.000000e-03
65 pgm_ln58:1 vs_0_58:A 1.000000e-03
*END

*D_NET pgm_ln6 1.095910e-01
*CONN
*I lt_ln6:Z O
*I vs_63_6:A I
*I vs_62_6:A I
*I vs_61_6:A I
*I vs_60_6:A I
*I vs_59_6:A I
*I vs_58_6:A I
*I vs_57_6:A I
*I vs_56_6:A I
*I vs_55_6:A I
*I vs_54_6:A I
*I vs_53_6:A I
*I vs_52_6:A I
*I vs_51_6:A I
*I vs_50_6:A I
*I vs_49_6:A I
*I vs_48_6:A I
*I vs_47_6:A I
*I vs_46_6:A I
*I vs_45_6:A I
*I vs_44_6:A I
*I vs_43_6:A I
*I vs_42_6:A I
*I vs_41_6:A I
*I vs_40_6:A I
*I vs_39_6:A I
*I vs_38_6:A I
*I vs_37_6:A I
*I vs_36_6:A I
*I vs_35_6:A I
*I vs_34_6:A I
*I vs_33_6:A I
*I vs_32_6:A I
*I vs_31_6:A I
*I vs_30_6:A I
*I vs_29_6:A I
*I vs_28_6:A I
*I vs_27_6:A I
*I vs_26_6:A I
*I vs_25_6:A I
*I vs_24_6:A I
*I vs_23_6:A I
*I vs_22_6:A I
*I vs_21_6:A I
*I vs_20_6:A I
*I vs_19_6:A I
*I vs_18_6:A I
*I vs_17_6:A I
*I vs_16_6:A I
*I vs_15_6:A I
*I vs_14_6:A I
*I vs_13_6:A I
*I vs_12_6:A I
*I vs_11_6:A I
*I vs_10_6:A I
*I vs_9_6:A I
*I vs_8_6:A I
*I vs_7_6:A I
*I vs_6_6:A I
*I vs_5_6:A I
*I vs_4_6:A I
*I vs_3_6:A I
*I vs_2_6:A I
*I vs_1_6:A I
*I vs_0_6:A I
*CAP
1 pgm_ln6:1 1.095910e-01
*RES
1 lt_ln6:Z pgm_ln6:1 1.243619e+02
2 pgm_ln6:1 vs_63_6:A 1.000000e-03
3 pgm_ln6:1 vs_62_6:A 1.000000e-03
4 pgm_ln6:1 vs_61_6:A 1.000000e-03
5 pgm_ln6:1 vs_60_6:A 1.000000e-03
6 pgm_ln6:1 vs_59_6:A 1.000000e-03
7 pgm_ln6:1 vs_58_6:A 1.000000e-03
8 pgm_ln6:1 vs_57_6:A 1.000000e-03
9 pgm_ln6:1 vs_56_6:A 1.000000e-03
10 pgm_ln6:1 vs_55_6:A 1.000000e-03
11 pgm_ln6:1 vs_54_6:A 1.000000e-03
12 pgm_ln6:1 vs_53_6:A 1.000000e-03
13 pgm_ln6:1 vs_52_6:A 1.000000e-03
14 pgm_ln6:1 vs_51_6:A 1.000000e-03
15 pgm_ln6:1 vs_50_6:A 1.000000e-03
16 pgm_ln6:1 vs_49_6:A 1.000000e-03
17 pgm_ln6:1 vs_48_6:A 1.000000e-03
18 pgm_ln6:1 vs_47_6:A 1.000000e-03
19 pgm_ln6:1 vs_46_6:A 1.000000e-03
20 pgm_ln6:1 vs_45_6:A 1.000000e-03
21 pgm_ln6:1 vs_44_6:A 1.000000e-03
22 pgm_ln6:1 vs_43_6:A 1.000000e-03
23 pgm_ln6:1 vs_42_6:A 1.000000e-03
24 pgm_ln6:1 vs_41_6:A 1.000000e-03
25 pgm_ln6:1 vs_40_6:A 1.000000e-03
26 pgm_ln6:1 vs_39_6:A 1.000000e-03
27 pgm_ln6:1 vs_38_6:A 1.000000e-03
28 pgm_ln6:1 vs_37_6:A 1.000000e-03
29 pgm_ln6:1 vs_36_6:A 1.000000e-03
30 pgm_ln6:1 vs_35_6:A 1.000000e-03
31 pgm_ln6:1 vs_34_6:A 1.000000e-03
32 pgm_ln6:1 vs_33_6:A 1.000000e-03
33 pgm_ln6:1 vs_32_6:A 1.000000e-03
34 pgm_ln6:1 vs_31_6:A 1.000000e-03
35 pgm_ln6:1 vs_30_6:A 1.000000e-03
36 pgm_ln6:1 vs_29_6:A 1.000000e-03
37 pgm_ln6:1 vs_28_6:A 1.000000e-03
38 pgm_ln6:1 vs_27_6:A 1.000000e-03
39 pgm_ln6:1 vs_26_6:A 1.000000e-03
40 pgm_ln6:1 vs_25_6:A 1.000000e-03
41 pgm_ln6:1 vs_24_6:A 1.000000e-03
42 pgm_ln6:1 vs_23_6:A 1.000000e-03
43 pgm_ln6:1 vs_22_6:A 1.000000e-03
44 pgm_ln6:1 vs_21_6:A 1.000000e-03
45 pgm_ln6:1 vs_20_6:A 1.000000e-03
46 pgm_ln6:1 vs_19_6:A 1.000000e-03
47 pgm_ln6:1 vs_18_6:A 1.000000e-03
48 pgm_ln6:1 vs_17_6:A 1.000000e-03
49 pgm_ln6:1 vs_16_6:A 1.000000e-03
50 pgm_ln6:1 vs_15_6:A 1.000000e-03
51 pgm_ln6:1 vs_14_6:A 1.000000e-03
52 pgm_ln6:1 vs_13_6:A 1.000000e-03
53 pgm_ln6:1 vs_12_6:A 1.000000e-03
54 pgm_ln6:1 vs_11_6:A 1.000000e-03
55 pgm_ln6:1 vs_10_6:A 1.000000e-03
56 pgm_ln6:1 vs_9_6:A 1.000000e-03
57 pgm_ln6:1 vs_8_6:A 1.000000e-03
58 pgm_ln6:1 vs_7_6:A 1.000000e-03
59 pgm_ln6:1 vs_6_6:A 1.000000e-03
60 pgm_ln6:1 vs_5_6:A 1.000000e-03
61 pgm_ln6:1 vs_4_6:A 1.000000e-03
62 pgm_ln6:1 vs_3_6:A 1.000000e-03
63 pgm_ln6:1 vs_2_6:A 1.000000e-03
64 pgm_ln6:1 vs_1_6:A 1.000000e-03
65 pgm_ln6:1 vs_0_6:A 1.000000e-03
*END

*D_NET pgm_ln62 1.121122e-01
*CONN
*I lt_ln62:Z O
*I vs_63_62:A I
*I vs_62_62:A I
*I vs_61_62:A I
*I vs_60_62:A I
*I vs_59_62:A I
*I vs_58_62:A I
*I vs_57_62:A I
*I vs_56_62:A I
*I vs_55_62:A I
*I vs_54_62:A I
*I vs_53_62:A I
*I vs_52_62:A I
*I vs_51_62:A I
*I vs_50_62:A I
*I vs_49_62:A I
*I vs_48_62:A I
*I vs_47_62:A I
*I vs_46_62:A I
*I vs_45_62:A I
*I vs_44_62:A I
*I vs_43_62:A I
*I vs_42_62:A I
*I vs_41_62:A I
*I vs_40_62:A I
*I vs_39_62:A I
*I vs_38_62:A I
*I vs_37_62:A I
*I vs_36_62:A I
*I vs_35_62:A I
*I vs_34_62:A I
*I vs_33_62:A I
*I vs_32_62:A I
*I vs_31_62:A I
*I vs_30_62:A I
*I vs_29_62:A I
*I vs_28_62:A I
*I vs_27_62:A I
*I vs_26_62:A I
*I vs_25_62:A I
*I vs_24_62:A I
*I vs_23_62:A I
*I vs_22_62:A I
*I vs_21_62:A I
*I vs_20_62:A I
*I vs_19_62:A I
*I vs_18_62:A I
*I vs_17_62:A I
*I vs_16_62:A I
*I vs_15_62:A I
*I vs_14_62:A I
*I vs_13_62:A I
*I vs_12_62:A I
*I vs_11_62:A I
*I vs_10_62:A I
*I vs_9_62:A I
*I vs_8_62:A I
*I vs_7_62:A I
*I vs_6_62:A I
*I vs_5_62:A I
*I vs_4_62:A I
*I vs_3_62:A I
*I vs_2_62:A I
*I vs_1_62:A I
*I vs_0_62:A I
*CAP
1 pgm_ln62:1 1.121122e-01
*RES
1 lt_ln62:Z pgm_ln62:1 1.272229e+02
2 pgm_ln62:1 vs_63_62:A 1.000000e-03
3 pgm_ln62:1 vs_62_62:A 1.000000e-03
4 pgm_ln62:1 vs_61_62:A 1.000000e-03
5 pgm_ln62:1 vs_60_62:A 1.000000e-03
6 pgm_ln62:1 vs_59_62:A 1.000000e-03
7 pgm_ln62:1 vs_58_62:A 1.000000e-03
8 pgm_ln62:1 vs_57_62:A 1.000000e-03
9 pgm_ln62:1 vs_56_62:A 1.000000e-03
10 pgm_ln62:1 vs_55_62:A 1.000000e-03
11 pgm_ln62:1 vs_54_62:A 1.000000e-03
12 pgm_ln62:1 vs_53_62:A 1.000000e-03
13 pgm_ln62:1 vs_52_62:A 1.000000e-03
14 pgm_ln62:1 vs_51_62:A 1.000000e-03
15 pgm_ln62:1 vs_50_62:A 1.000000e-03
16 pgm_ln62:1 vs_49_62:A 1.000000e-03
17 pgm_ln62:1 vs_48_62:A 1.000000e-03
18 pgm_ln62:1 vs_47_62:A 1.000000e-03
19 pgm_ln62:1 vs_46_62:A 1.000000e-03
20 pgm_ln62:1 vs_45_62:A 1.000000e-03
21 pgm_ln62:1 vs_44_62:A 1.000000e-03
22 pgm_ln62:1 vs_43_62:A 1.000000e-03
23 pgm_ln62:1 vs_42_62:A 1.000000e-03
24 pgm_ln62:1 vs_41_62:A 1.000000e-03
25 pgm_ln62:1 vs_40_62:A 1.000000e-03
26 pgm_ln62:1 vs_39_62:A 1.000000e-03
27 pgm_ln62:1 vs_38_62:A 1.000000e-03
28 pgm_ln62:1 vs_37_62:A 1.000000e-03
29 pgm_ln62:1 vs_36_62:A 1.000000e-03
30 pgm_ln62:1 vs_35_62:A 1.000000e-03
31 pgm_ln62:1 vs_34_62:A 1.000000e-03
32 pgm_ln62:1 vs_33_62:A 1.000000e-03
33 pgm_ln62:1 vs_32_62:A 1.000000e-03
34 pgm_ln62:1 vs_31_62:A 1.000000e-03
35 pgm_ln62:1 vs_30_62:A 1.000000e-03
36 pgm_ln62:1 vs_29_62:A 1.000000e-03
37 pgm_ln62:1 vs_28_62:A 1.000000e-03
38 pgm_ln62:1 vs_27_62:A 1.000000e-03
39 pgm_ln62:1 vs_26_62:A 1.000000e-03
40 pgm_ln62:1 vs_25_62:A 1.000000e-03
41 pgm_ln62:1 vs_24_62:A 1.000000e-03
42 pgm_ln62:1 vs_23_62:A 1.000000e-03
43 pgm_ln62:1 vs_22_62:A 1.000000e-03
44 pgm_ln62:1 vs_21_62:A 1.000000e-03
45 pgm_ln62:1 vs_20_62:A 1.000000e-03
46 pgm_ln62:1 vs_19_62:A 1.000000e-03
47 pgm_ln62:1 vs_18_62:A 1.000000e-03
48 pgm_ln62:1 vs_17_62:A 1.000000e-03
49 pgm_ln62:1 vs_16_62:A 1.000000e-03
50 pgm_ln62:1 vs_15_62:A 1.000000e-03
51 pgm_ln62:1 vs_14_62:A 1.000000e-03
52 pgm_ln62:1 vs_13_62:A 1.000000e-03
53 pgm_ln62:1 vs_12_62:A 1.000000e-03
54 pgm_ln62:1 vs_11_62:A 1.000000e-03
55 pgm_ln62:1 vs_10_62:A 1.000000e-03
56 pgm_ln62:1 vs_9_62:A 1.000000e-03
57 pgm_ln62:1 vs_8_62:A 1.000000e-03
58 pgm_ln62:1 vs_7_62:A 1.000000e-03
59 pgm_ln62:1 vs_6_62:A 1.000000e-03
60 pgm_ln62:1 vs_5_62:A 1.000000e-03
61 pgm_ln62:1 vs_4_62:A 1.000000e-03
62 pgm_ln62:1 vs_3_62:A 1.000000e-03
63 pgm_ln62:1 vs_2_62:A 1.000000e-03
64 pgm_ln62:1 vs_1_62:A 1.000000e-03
65 pgm_ln62:1 vs_0_62:A 1.000000e-03
*END

*D_NET pgm_ln63 1.074106e-01
*CONN
*I lt_ln63:Z O
*I vs_63_63:A I
*I vs_62_63:A I
*I vs_61_63:A I
*I vs_60_63:A I
*I vs_59_63:A I
*I vs_58_63:A I
*I vs_57_63:A I
*I vs_56_63:A I
*I vs_55_63:A I
*I vs_54_63:A I
*I vs_53_63:A I
*I vs_52_63:A I
*I vs_51_63:A I
*I vs_50_63:A I
*I vs_49_63:A I
*I vs_48_63:A I
*I vs_47_63:A I
*I vs_46_63:A I
*I vs_45_63:A I
*I vs_44_63:A I
*I vs_43_63:A I
*I vs_42_63:A I
*I vs_41_63:A I
*I vs_40_63:A I
*I vs_39_63:A I
*I vs_38_63:A I
*I vs_37_63:A I
*I vs_36_63:A I
*I vs_35_63:A I
*I vs_34_63:A I
*I vs_33_63:A I
*I vs_32_63:A I
*I vs_31_63:A I
*I vs_30_63:A I
*I vs_29_63:A I
*I vs_28_63:A I
*I vs_27_63:A I
*I vs_26_63:A I
*I vs_25_63:A I
*I vs_24_63:A I
*I vs_23_63:A I
*I vs_22_63:A I
*I vs_21_63:A I
*I vs_20_63:A I
*I vs_19_63:A I
*I vs_18_63:A I
*I vs_17_63:A I
*I vs_16_63:A I
*I vs_15_63:A I
*I vs_14_63:A I
*I vs_13_63:A I
*I vs_12_63:A I
*I vs_11_63:A I
*I vs_10_63:A I
*I vs_9_63:A I
*I vs_8_63:A I
*I vs_7_63:A I
*I vs_6_63:A I
*I vs_5_63:A I
*I vs_4_63:A I
*I vs_3_63:A I
*I vs_2_63:A I
*I vs_1_63:A I
*I vs_0_63:A I
*CAP
1 pgm_ln63:1 1.074106e-01
*RES
1 lt_ln63:Z pgm_ln63:1 1.218876e+02
2 pgm_ln63:1 vs_63_63:A 1.000000e-03
3 pgm_ln63:1 vs_62_63:A 1.000000e-03
4 pgm_ln63:1 vs_61_63:A 1.000000e-03
5 pgm_ln63:1 vs_60_63:A 1.000000e-03
6 pgm_ln63:1 vs_59_63:A 1.000000e-03
7 pgm_ln63:1 vs_58_63:A 1.000000e-03
8 pgm_ln63:1 vs_57_63:A 1.000000e-03
9 pgm_ln63:1 vs_56_63:A 1.000000e-03
10 pgm_ln63:1 vs_55_63:A 1.000000e-03
11 pgm_ln63:1 vs_54_63:A 1.000000e-03
12 pgm_ln63:1 vs_53_63:A 1.000000e-03
13 pgm_ln63:1 vs_52_63:A 1.000000e-03
14 pgm_ln63:1 vs_51_63:A 1.000000e-03
15 pgm_ln63:1 vs_50_63:A 1.000000e-03
16 pgm_ln63:1 vs_49_63:A 1.000000e-03
17 pgm_ln63:1 vs_48_63:A 1.000000e-03
18 pgm_ln63:1 vs_47_63:A 1.000000e-03
19 pgm_ln63:1 vs_46_63:A 1.000000e-03
20 pgm_ln63:1 vs_45_63:A 1.000000e-03
21 pgm_ln63:1 vs_44_63:A 1.000000e-03
22 pgm_ln63:1 vs_43_63:A 1.000000e-03
23 pgm_ln63:1 vs_42_63:A 1.000000e-03
24 pgm_ln63:1 vs_41_63:A 1.000000e-03
25 pgm_ln63:1 vs_40_63:A 1.000000e-03
26 pgm_ln63:1 vs_39_63:A 1.000000e-03
27 pgm_ln63:1 vs_38_63:A 1.000000e-03
28 pgm_ln63:1 vs_37_63:A 1.000000e-03
29 pgm_ln63:1 vs_36_63:A 1.000000e-03
30 pgm_ln63:1 vs_35_63:A 1.000000e-03
31 pgm_ln63:1 vs_34_63:A 1.000000e-03
32 pgm_ln63:1 vs_33_63:A 1.000000e-03
33 pgm_ln63:1 vs_32_63:A 1.000000e-03
34 pgm_ln63:1 vs_31_63:A 1.000000e-03
35 pgm_ln63:1 vs_30_63:A 1.000000e-03
36 pgm_ln63:1 vs_29_63:A 1.000000e-03
37 pgm_ln63:1 vs_28_63:A 1.000000e-03
38 pgm_ln63:1 vs_27_63:A 1.000000e-03
39 pgm_ln63:1 vs_26_63:A 1.000000e-03
40 pgm_ln63:1 vs_25_63:A 1.000000e-03
41 pgm_ln63:1 vs_24_63:A 1.000000e-03
42 pgm_ln63:1 vs_23_63:A 1.000000e-03
43 pgm_ln63:1 vs_22_63:A 1.000000e-03
44 pgm_ln63:1 vs_21_63:A 1.000000e-03
45 pgm_ln63:1 vs_20_63:A 1.000000e-03
46 pgm_ln63:1 vs_19_63:A 1.000000e-03
47 pgm_ln63:1 vs_18_63:A 1.000000e-03
48 pgm_ln63:1 vs_17_63:A 1.000000e-03
49 pgm_ln63:1 vs_16_63:A 1.000000e-03
50 pgm_ln63:1 vs_15_63:A 1.000000e-03
51 pgm_ln63:1 vs_14_63:A 1.000000e-03
52 pgm_ln63:1 vs_13_63:A 1.000000e-03
53 pgm_ln63:1 vs_12_63:A 1.000000e-03
54 pgm_ln63:1 vs_11_63:A 1.000000e-03
55 pgm_ln63:1 vs_10_63:A 1.000000e-03
56 pgm_ln63:1 vs_9_63:A 1.000000e-03
57 pgm_ln63:1 vs_8_63:A 1.000000e-03
58 pgm_ln63:1 vs_7_63:A 1.000000e-03
59 pgm_ln63:1 vs_6_63:A 1.000000e-03
60 pgm_ln63:1 vs_5_63:A 1.000000e-03
61 pgm_ln63:1 vs_4_63:A 1.000000e-03
62 pgm_ln63:1 vs_3_63:A 1.000000e-03
63 pgm_ln63:1 vs_2_63:A 1.000000e-03
64 pgm_ln63:1 vs_1_63:A 1.000000e-03
65 pgm_ln63:1 vs_0_63:A 1.000000e-03
*END

*D_NET pgm_lp1 1.081660e-01
*CONN
*I lt_lp1:Z O
*I vs_63_1:A I
*I vs_62_1:A I
*I vs_61_1:A I
*I vs_60_1:A I
*I vs_59_1:A I
*I vs_58_1:A I
*I vs_57_1:A I
*I vs_56_1:A I
*I vs_55_1:A I
*I vs_54_1:A I
*I vs_53_1:A I
*I vs_52_1:A I
*I vs_51_1:A I
*I vs_50_1:A I
*I vs_49_1:A I
*I vs_48_1:A I
*I vs_47_1:A I
*I vs_46_1:A I
*I vs_45_1:A I
*I vs_44_1:A I
*I vs_43_1:A I
*I vs_42_1:A I
*I vs_41_1:A I
*I vs_40_1:A I
*I vs_39_1:A I
*I vs_38_1:A I
*I vs_37_1:A I
*I vs_36_1:A I
*I vs_35_1:A I
*I vs_34_1:A I
*I vs_33_1:A I
*I vs_32_1:A I
*I vs_31_1:A I
*I vs_30_1:A I
*I vs_29_1:A I
*I vs_28_1:A I
*I vs_27_1:A I
*I vs_26_1:A I
*I vs_25_1:A I
*I vs_24_1:A I
*I vs_23_1:A I
*I vs_22_1:A I
*I vs_21_1:A I
*I vs_20_1:A I
*I vs_19_1:A I
*I vs_18_1:A I
*I vs_17_1:A I
*I vs_16_1:A I
*I vs_15_1:A I
*I vs_14_1:A I
*I vs_13_1:A I
*I vs_12_1:A I
*I vs_11_1:A I
*I vs_10_1:A I
*I vs_9_1:A I
*I vs_8_1:A I
*I vs_7_1:A I
*I vs_6_1:A I
*I vs_5_1:A I
*I vs_4_1:A I
*I vs_3_1:A I
*I vs_2_1:A I
*I vs_1_1:A I
*I vs_0_1:A I
*CAP
1 pgm_lp1:1 1.081660e-01
*RES
1 lt_lp1:Z pgm_lp1:1 1.227449e+02
2 pgm_lp1:1 vs_63_1:A 1.000000e-03
3 pgm_lp1:1 vs_62_1:A 1.000000e-03
4 pgm_lp1:1 vs_61_1:A 1.000000e-03
5 pgm_lp1:1 vs_60_1:A 1.000000e-03
6 pgm_lp1:1 vs_59_1:A 1.000000e-03
7 pgm_lp1:1 vs_58_1:A 1.000000e-03
8 pgm_lp1:1 vs_57_1:A 1.000000e-03
9 pgm_lp1:1 vs_56_1:A 1.000000e-03
10 pgm_lp1:1 vs_55_1:A 1.000000e-03
11 pgm_lp1:1 vs_54_1:A 1.000000e-03
12 pgm_lp1:1 vs_53_1:A 1.000000e-03
13 pgm_lp1:1 vs_52_1:A 1.000000e-03
14 pgm_lp1:1 vs_51_1:A 1.000000e-03
15 pgm_lp1:1 vs_50_1:A 1.000000e-03
16 pgm_lp1:1 vs_49_1:A 1.000000e-03
17 pgm_lp1:1 vs_48_1:A 1.000000e-03
18 pgm_lp1:1 vs_47_1:A 1.000000e-03
19 pgm_lp1:1 vs_46_1:A 1.000000e-03
20 pgm_lp1:1 vs_45_1:A 1.000000e-03
21 pgm_lp1:1 vs_44_1:A 1.000000e-03
22 pgm_lp1:1 vs_43_1:A 1.000000e-03
23 pgm_lp1:1 vs_42_1:A 1.000000e-03
24 pgm_lp1:1 vs_41_1:A 1.000000e-03
25 pgm_lp1:1 vs_40_1:A 1.000000e-03
26 pgm_lp1:1 vs_39_1:A 1.000000e-03
27 pgm_lp1:1 vs_38_1:A 1.000000e-03
28 pgm_lp1:1 vs_37_1:A 1.000000e-03
29 pgm_lp1:1 vs_36_1:A 1.000000e-03
30 pgm_lp1:1 vs_35_1:A 1.000000e-03
31 pgm_lp1:1 vs_34_1:A 1.000000e-03
32 pgm_lp1:1 vs_33_1:A 1.000000e-03
33 pgm_lp1:1 vs_32_1:A 1.000000e-03
34 pgm_lp1:1 vs_31_1:A 1.000000e-03
35 pgm_lp1:1 vs_30_1:A 1.000000e-03
36 pgm_lp1:1 vs_29_1:A 1.000000e-03
37 pgm_lp1:1 vs_28_1:A 1.000000e-03
38 pgm_lp1:1 vs_27_1:A 1.000000e-03
39 pgm_lp1:1 vs_26_1:A 1.000000e-03
40 pgm_lp1:1 vs_25_1:A 1.000000e-03
41 pgm_lp1:1 vs_24_1:A 1.000000e-03
42 pgm_lp1:1 vs_23_1:A 1.000000e-03
43 pgm_lp1:1 vs_22_1:A 1.000000e-03
44 pgm_lp1:1 vs_21_1:A 1.000000e-03
45 pgm_lp1:1 vs_20_1:A 1.000000e-03
46 pgm_lp1:1 vs_19_1:A 1.000000e-03
47 pgm_lp1:1 vs_18_1:A 1.000000e-03
48 pgm_lp1:1 vs_17_1:A 1.000000e-03
49 pgm_lp1:1 vs_16_1:A 1.000000e-03
50 pgm_lp1:1 vs_15_1:A 1.000000e-03
51 pgm_lp1:1 vs_14_1:A 1.000000e-03
52 pgm_lp1:1 vs_13_1:A 1.000000e-03
53 pgm_lp1:1 vs_12_1:A 1.000000e-03
54 pgm_lp1:1 vs_11_1:A 1.000000e-03
55 pgm_lp1:1 vs_10_1:A 1.000000e-03
56 pgm_lp1:1 vs_9_1:A 1.000000e-03
57 pgm_lp1:1 vs_8_1:A 1.000000e-03
58 pgm_lp1:1 vs_7_1:A 1.000000e-03
59 pgm_lp1:1 vs_6_1:A 1.000000e-03
60 pgm_lp1:1 vs_5_1:A 1.000000e-03
61 pgm_lp1:1 vs_4_1:A 1.000000e-03
62 pgm_lp1:1 vs_3_1:A 1.000000e-03
63 pgm_lp1:1 vs_2_1:A 1.000000e-03
64 pgm_lp1:1 vs_1_1:A 1.000000e-03
65 pgm_lp1:1 vs_0_1:A 1.000000e-03
*END

*D_NET pgm_lp10 1.132083e-01
*CONN
*I lt_lp10:Z O
*I vs_63_10:A I
*I vs_62_10:A I
*I vs_61_10:A I
*I vs_60_10:A I
*I vs_59_10:A I
*I vs_58_10:A I
*I vs_57_10:A I
*I vs_56_10:A I
*I vs_55_10:A I
*I vs_54_10:A I
*I vs_53_10:A I
*I vs_52_10:A I
*I vs_51_10:A I
*I vs_50_10:A I
*I vs_49_10:A I
*I vs_48_10:A I
*I vs_47_10:A I
*I vs_46_10:A I
*I vs_45_10:A I
*I vs_44_10:A I
*I vs_43_10:A I
*I vs_42_10:A I
*I vs_41_10:A I
*I vs_40_10:A I
*I vs_39_10:A I
*I vs_38_10:A I
*I vs_37_10:A I
*I vs_36_10:A I
*I vs_35_10:A I
*I vs_34_10:A I
*I vs_33_10:A I
*I vs_32_10:A I
*I vs_31_10:A I
*I vs_30_10:A I
*I vs_29_10:A I
*I vs_28_10:A I
*I vs_27_10:A I
*I vs_26_10:A I
*I vs_25_10:A I
*I vs_24_10:A I
*I vs_23_10:A I
*I vs_22_10:A I
*I vs_21_10:A I
*I vs_20_10:A I
*I vs_19_10:A I
*I vs_18_10:A I
*I vs_17_10:A I
*I vs_16_10:A I
*I vs_15_10:A I
*I vs_14_10:A I
*I vs_13_10:A I
*I vs_12_10:A I
*I vs_11_10:A I
*I vs_10_10:A I
*I vs_9_10:A I
*I vs_8_10:A I
*I vs_7_10:A I
*I vs_6_10:A I
*I vs_5_10:A I
*I vs_4_10:A I
*I vs_3_10:A I
*I vs_2_10:A I
*I vs_1_10:A I
*I vs_0_10:A I
*CAP
1 pgm_lp10:1 1.132083e-01
*RES
1 lt_lp10:Z pgm_lp10:1 1.284668e+02
2 pgm_lp10:1 vs_63_10:A 1.000000e-03
3 pgm_lp10:1 vs_62_10:A 1.000000e-03
4 pgm_lp10:1 vs_61_10:A 1.000000e-03
5 pgm_lp10:1 vs_60_10:A 1.000000e-03
6 pgm_lp10:1 vs_59_10:A 1.000000e-03
7 pgm_lp10:1 vs_58_10:A 1.000000e-03
8 pgm_lp10:1 vs_57_10:A 1.000000e-03
9 pgm_lp10:1 vs_56_10:A 1.000000e-03
10 pgm_lp10:1 vs_55_10:A 1.000000e-03
11 pgm_lp10:1 vs_54_10:A 1.000000e-03
12 pgm_lp10:1 vs_53_10:A 1.000000e-03
13 pgm_lp10:1 vs_52_10:A 1.000000e-03
14 pgm_lp10:1 vs_51_10:A 1.000000e-03
15 pgm_lp10:1 vs_50_10:A 1.000000e-03
16 pgm_lp10:1 vs_49_10:A 1.000000e-03
17 pgm_lp10:1 vs_48_10:A 1.000000e-03
18 pgm_lp10:1 vs_47_10:A 1.000000e-03
19 pgm_lp10:1 vs_46_10:A 1.000000e-03
20 pgm_lp10:1 vs_45_10:A 1.000000e-03
21 pgm_lp10:1 vs_44_10:A 1.000000e-03
22 pgm_lp10:1 vs_43_10:A 1.000000e-03
23 pgm_lp10:1 vs_42_10:A 1.000000e-03
24 pgm_lp10:1 vs_41_10:A 1.000000e-03
25 pgm_lp10:1 vs_40_10:A 1.000000e-03
26 pgm_lp10:1 vs_39_10:A 1.000000e-03
27 pgm_lp10:1 vs_38_10:A 1.000000e-03
28 pgm_lp10:1 vs_37_10:A 1.000000e-03
29 pgm_lp10:1 vs_36_10:A 1.000000e-03
30 pgm_lp10:1 vs_35_10:A 1.000000e-03
31 pgm_lp10:1 vs_34_10:A 1.000000e-03
32 pgm_lp10:1 vs_33_10:A 1.000000e-03
33 pgm_lp10:1 vs_32_10:A 1.000000e-03
34 pgm_lp10:1 vs_31_10:A 1.000000e-03
35 pgm_lp10:1 vs_30_10:A 1.000000e-03
36 pgm_lp10:1 vs_29_10:A 1.000000e-03
37 pgm_lp10:1 vs_28_10:A 1.000000e-03
38 pgm_lp10:1 vs_27_10:A 1.000000e-03
39 pgm_lp10:1 vs_26_10:A 1.000000e-03
40 pgm_lp10:1 vs_25_10:A 1.000000e-03
41 pgm_lp10:1 vs_24_10:A 1.000000e-03
42 pgm_lp10:1 vs_23_10:A 1.000000e-03
43 pgm_lp10:1 vs_22_10:A 1.000000e-03
44 pgm_lp10:1 vs_21_10:A 1.000000e-03
45 pgm_lp10:1 vs_20_10:A 1.000000e-03
46 pgm_lp10:1 vs_19_10:A 1.000000e-03
47 pgm_lp10:1 vs_18_10:A 1.000000e-03
48 pgm_lp10:1 vs_17_10:A 1.000000e-03
49 pgm_lp10:1 vs_16_10:A 1.000000e-03
50 pgm_lp10:1 vs_15_10:A 1.000000e-03
51 pgm_lp10:1 vs_14_10:A 1.000000e-03
52 pgm_lp10:1 vs_13_10:A 1.000000e-03
53 pgm_lp10:1 vs_12_10:A 1.000000e-03
54 pgm_lp10:1 vs_11_10:A 1.000000e-03
55 pgm_lp10:1 vs_10_10:A 1.000000e-03
56 pgm_lp10:1 vs_9_10:A 1.000000e-03
57 pgm_lp10:1 vs_8_10:A 1.000000e-03
58 pgm_lp10:1 vs_7_10:A 1.000000e-03
59 pgm_lp10:1 vs_6_10:A 1.000000e-03
60 pgm_lp10:1 vs_5_10:A 1.000000e-03
61 pgm_lp10:1 vs_4_10:A 1.000000e-03
62 pgm_lp10:1 vs_3_10:A 1.000000e-03
63 pgm_lp10:1 vs_2_10:A 1.000000e-03
64 pgm_lp10:1 vs_1_10:A 1.000000e-03
65 pgm_lp10:1 vs_0_10:A 1.000000e-03
*END

*D_NET pgm_lp15 1.081660e-01
*CONN
*I lt_lp15:Z O
*I vs_63_15:A I
*I vs_62_15:A I
*I vs_61_15:A I
*I vs_60_15:A I
*I vs_59_15:A I
*I vs_58_15:A I
*I vs_57_15:A I
*I vs_56_15:A I
*I vs_55_15:A I
*I vs_54_15:A I
*I vs_53_15:A I
*I vs_52_15:A I
*I vs_51_15:A I
*I vs_50_15:A I
*I vs_49_15:A I
*I vs_48_15:A I
*I vs_47_15:A I
*I vs_46_15:A I
*I vs_45_15:A I
*I vs_44_15:A I
*I vs_43_15:A I
*I vs_42_15:A I
*I vs_41_15:A I
*I vs_40_15:A I
*I vs_39_15:A I
*I vs_38_15:A I
*I vs_37_15:A I
*I vs_36_15:A I
*I vs_35_15:A I
*I vs_34_15:A I
*I vs_33_15:A I
*I vs_32_15:A I
*I vs_31_15:A I
*I vs_30_15:A I
*I vs_29_15:A I
*I vs_28_15:A I
*I vs_27_15:A I
*I vs_26_15:A I
*I vs_25_15:A I
*I vs_24_15:A I
*I vs_23_15:A I
*I vs_22_15:A I
*I vs_21_15:A I
*I vs_20_15:A I
*I vs_19_15:A I
*I vs_18_15:A I
*I vs_17_15:A I
*I vs_16_15:A I
*I vs_15_15:A I
*I vs_14_15:A I
*I vs_13_15:A I
*I vs_12_15:A I
*I vs_11_15:A I
*I vs_10_15:A I
*I vs_9_15:A I
*I vs_8_15:A I
*I vs_7_15:A I
*I vs_6_15:A I
*I vs_5_15:A I
*I vs_4_15:A I
*I vs_3_15:A I
*I vs_2_15:A I
*I vs_1_15:A I
*I vs_0_15:A I
*CAP
1 pgm_lp15:1 1.081660e-01
*RES
1 lt_lp15:Z pgm_lp15:1 1.227449e+02
2 pgm_lp15:1 vs_63_15:A 1.000000e-03
3 pgm_lp15:1 vs_62_15:A 1.000000e-03
4 pgm_lp15:1 vs_61_15:A 1.000000e-03
5 pgm_lp15:1 vs_60_15:A 1.000000e-03
6 pgm_lp15:1 vs_59_15:A 1.000000e-03
7 pgm_lp15:1 vs_58_15:A 1.000000e-03
8 pgm_lp15:1 vs_57_15:A 1.000000e-03
9 pgm_lp15:1 vs_56_15:A 1.000000e-03
10 pgm_lp15:1 vs_55_15:A 1.000000e-03
11 pgm_lp15:1 vs_54_15:A 1.000000e-03
12 pgm_lp15:1 vs_53_15:A 1.000000e-03
13 pgm_lp15:1 vs_52_15:A 1.000000e-03
14 pgm_lp15:1 vs_51_15:A 1.000000e-03
15 pgm_lp15:1 vs_50_15:A 1.000000e-03
16 pgm_lp15:1 vs_49_15:A 1.000000e-03
17 pgm_lp15:1 vs_48_15:A 1.000000e-03
18 pgm_lp15:1 vs_47_15:A 1.000000e-03
19 pgm_lp15:1 vs_46_15:A 1.000000e-03
20 pgm_lp15:1 vs_45_15:A 1.000000e-03
21 pgm_lp15:1 vs_44_15:A 1.000000e-03
22 pgm_lp15:1 vs_43_15:A 1.000000e-03
23 pgm_lp15:1 vs_42_15:A 1.000000e-03
24 pgm_lp15:1 vs_41_15:A 1.000000e-03
25 pgm_lp15:1 vs_40_15:A 1.000000e-03
26 pgm_lp15:1 vs_39_15:A 1.000000e-03
27 pgm_lp15:1 vs_38_15:A 1.000000e-03
28 pgm_lp15:1 vs_37_15:A 1.000000e-03
29 pgm_lp15:1 vs_36_15:A 1.000000e-03
30 pgm_lp15:1 vs_35_15:A 1.000000e-03
31 pgm_lp15:1 vs_34_15:A 1.000000e-03
32 pgm_lp15:1 vs_33_15:A 1.000000e-03
33 pgm_lp15:1 vs_32_15:A 1.000000e-03
34 pgm_lp15:1 vs_31_15:A 1.000000e-03
35 pgm_lp15:1 vs_30_15:A 1.000000e-03
36 pgm_lp15:1 vs_29_15:A 1.000000e-03
37 pgm_lp15:1 vs_28_15:A 1.000000e-03
38 pgm_lp15:1 vs_27_15:A 1.000000e-03
39 pgm_lp15:1 vs_26_15:A 1.000000e-03
40 pgm_lp15:1 vs_25_15:A 1.000000e-03
41 pgm_lp15:1 vs_24_15:A 1.000000e-03
42 pgm_lp15:1 vs_23_15:A 1.000000e-03
43 pgm_lp15:1 vs_22_15:A 1.000000e-03
44 pgm_lp15:1 vs_21_15:A 1.000000e-03
45 pgm_lp15:1 vs_20_15:A 1.000000e-03
46 pgm_lp15:1 vs_19_15:A 1.000000e-03
47 pgm_lp15:1 vs_18_15:A 1.000000e-03
48 pgm_lp15:1 vs_17_15:A 1.000000e-03
49 pgm_lp15:1 vs_16_15:A 1.000000e-03
50 pgm_lp15:1 vs_15_15:A 1.000000e-03
51 pgm_lp15:1 vs_14_15:A 1.000000e-03
52 pgm_lp15:1 vs_13_15:A 1.000000e-03
53 pgm_lp15:1 vs_12_15:A 1.000000e-03
54 pgm_lp15:1 vs_11_15:A 1.000000e-03
55 pgm_lp15:1 vs_10_15:A 1.000000e-03
56 pgm_lp15:1 vs_9_15:A 1.000000e-03
57 pgm_lp15:1 vs_8_15:A 1.000000e-03
58 pgm_lp15:1 vs_7_15:A 1.000000e-03
59 pgm_lp15:1 vs_6_15:A 1.000000e-03
60 pgm_lp15:1 vs_5_15:A 1.000000e-03
61 pgm_lp15:1 vs_4_15:A 1.000000e-03
62 pgm_lp15:1 vs_3_15:A 1.000000e-03
63 pgm_lp15:1 vs_2_15:A 1.000000e-03
64 pgm_lp15:1 vs_1_15:A 1.000000e-03
65 pgm_lp15:1 vs_0_15:A 1.000000e-03
*END

*D_NET pgm_lp16 1.132083e-01
*CONN
*I lt_lp16:Z O
*I vs_63_16:A I
*I vs_62_16:A I
*I vs_61_16:A I
*I vs_60_16:A I
*I vs_59_16:A I
*I vs_58_16:A I
*I vs_57_16:A I
*I vs_56_16:A I
*I vs_55_16:A I
*I vs_54_16:A I
*I vs_53_16:A I
*I vs_52_16:A I
*I vs_51_16:A I
*I vs_50_16:A I
*I vs_49_16:A I
*I vs_48_16:A I
*I vs_47_16:A I
*I vs_46_16:A I
*I vs_45_16:A I
*I vs_44_16:A I
*I vs_43_16:A I
*I vs_42_16:A I
*I vs_41_16:A I
*I vs_40_16:A I
*I vs_39_16:A I
*I vs_38_16:A I
*I vs_37_16:A I
*I vs_36_16:A I
*I vs_35_16:A I
*I vs_34_16:A I
*I vs_33_16:A I
*I vs_32_16:A I
*I vs_31_16:A I
*I vs_30_16:A I
*I vs_29_16:A I
*I vs_28_16:A I
*I vs_27_16:A I
*I vs_26_16:A I
*I vs_25_16:A I
*I vs_24_16:A I
*I vs_23_16:A I
*I vs_22_16:A I
*I vs_21_16:A I
*I vs_20_16:A I
*I vs_19_16:A I
*I vs_18_16:A I
*I vs_17_16:A I
*I vs_16_16:A I
*I vs_15_16:A I
*I vs_14_16:A I
*I vs_13_16:A I
*I vs_12_16:A I
*I vs_11_16:A I
*I vs_10_16:A I
*I vs_9_16:A I
*I vs_8_16:A I
*I vs_7_16:A I
*I vs_6_16:A I
*I vs_5_16:A I
*I vs_4_16:A I
*I vs_3_16:A I
*I vs_2_16:A I
*I vs_1_16:A I
*I vs_0_16:A I
*CAP
1 pgm_lp16:1 1.132083e-01
*RES
1 lt_lp16:Z pgm_lp16:1 1.284668e+02
2 pgm_lp16:1 vs_63_16:A 1.000000e-03
3 pgm_lp16:1 vs_62_16:A 1.000000e-03
4 pgm_lp16:1 vs_61_16:A 1.000000e-03
5 pgm_lp16:1 vs_60_16:A 1.000000e-03
6 pgm_lp16:1 vs_59_16:A 1.000000e-03
7 pgm_lp16:1 vs_58_16:A 1.000000e-03
8 pgm_lp16:1 vs_57_16:A 1.000000e-03
9 pgm_lp16:1 vs_56_16:A 1.000000e-03
10 pgm_lp16:1 vs_55_16:A 1.000000e-03
11 pgm_lp16:1 vs_54_16:A 1.000000e-03
12 pgm_lp16:1 vs_53_16:A 1.000000e-03
13 pgm_lp16:1 vs_52_16:A 1.000000e-03
14 pgm_lp16:1 vs_51_16:A 1.000000e-03
15 pgm_lp16:1 vs_50_16:A 1.000000e-03
16 pgm_lp16:1 vs_49_16:A 1.000000e-03
17 pgm_lp16:1 vs_48_16:A 1.000000e-03
18 pgm_lp16:1 vs_47_16:A 1.000000e-03
19 pgm_lp16:1 vs_46_16:A 1.000000e-03
20 pgm_lp16:1 vs_45_16:A 1.000000e-03
21 pgm_lp16:1 vs_44_16:A 1.000000e-03
22 pgm_lp16:1 vs_43_16:A 1.000000e-03
23 pgm_lp16:1 vs_42_16:A 1.000000e-03
24 pgm_lp16:1 vs_41_16:A 1.000000e-03
25 pgm_lp16:1 vs_40_16:A 1.000000e-03
26 pgm_lp16:1 vs_39_16:A 1.000000e-03
27 pgm_lp16:1 vs_38_16:A 1.000000e-03
28 pgm_lp16:1 vs_37_16:A 1.000000e-03
29 pgm_lp16:1 vs_36_16:A 1.000000e-03
30 pgm_lp16:1 vs_35_16:A 1.000000e-03
31 pgm_lp16:1 vs_34_16:A 1.000000e-03
32 pgm_lp16:1 vs_33_16:A 1.000000e-03
33 pgm_lp16:1 vs_32_16:A 1.000000e-03
34 pgm_lp16:1 vs_31_16:A 1.000000e-03
35 pgm_lp16:1 vs_30_16:A 1.000000e-03
36 pgm_lp16:1 vs_29_16:A 1.000000e-03
37 pgm_lp16:1 vs_28_16:A 1.000000e-03
38 pgm_lp16:1 vs_27_16:A 1.000000e-03
39 pgm_lp16:1 vs_26_16:A 1.000000e-03
40 pgm_lp16:1 vs_25_16:A 1.000000e-03
41 pgm_lp16:1 vs_24_16:A 1.000000e-03
42 pgm_lp16:1 vs_23_16:A 1.000000e-03
43 pgm_lp16:1 vs_22_16:A 1.000000e-03
44 pgm_lp16:1 vs_21_16:A 1.000000e-03
45 pgm_lp16:1 vs_20_16:A 1.000000e-03
46 pgm_lp16:1 vs_19_16:A 1.000000e-03
47 pgm_lp16:1 vs_18_16:A 1.000000e-03
48 pgm_lp16:1 vs_17_16:A 1.000000e-03
49 pgm_lp16:1 vs_16_16:A 1.000000e-03
50 pgm_lp16:1 vs_15_16:A 1.000000e-03
51 pgm_lp16:1 vs_14_16:A 1.000000e-03
52 pgm_lp16:1 vs_13_16:A 1.000000e-03
53 pgm_lp16:1 vs_12_16:A 1.000000e-03
54 pgm_lp16:1 vs_11_16:A 1.000000e-03
55 pgm_lp16:1 vs_10_16:A 1.000000e-03
56 pgm_lp16:1 vs_9_16:A 1.000000e-03
57 pgm_lp16:1 vs_8_16:A 1.000000e-03
58 pgm_lp16:1 vs_7_16:A 1.000000e-03
59 pgm_lp16:1 vs_6_16:A 1.000000e-03
60 pgm_lp16:1 vs_5_16:A 1.000000e-03
61 pgm_lp16:1 vs_4_16:A 1.000000e-03
62 pgm_lp16:1 vs_3_16:A 1.000000e-03
63 pgm_lp16:1 vs_2_16:A 1.000000e-03
64 pgm_lp16:1 vs_1_16:A 1.000000e-03
65 pgm_lp16:1 vs_0_16:A 1.000000e-03
*END

*D_NET pgm_lp18 1.081660e-01
*CONN
*I lt_lp18:Z O
*I vs_63_18:A I
*I vs_62_18:A I
*I vs_61_18:A I
*I vs_60_18:A I
*I vs_59_18:A I
*I vs_58_18:A I
*I vs_57_18:A I
*I vs_56_18:A I
*I vs_55_18:A I
*I vs_54_18:A I
*I vs_53_18:A I
*I vs_52_18:A I
*I vs_51_18:A I
*I vs_50_18:A I
*I vs_49_18:A I
*I vs_48_18:A I
*I vs_47_18:A I
*I vs_46_18:A I
*I vs_45_18:A I
*I vs_44_18:A I
*I vs_43_18:A I
*I vs_42_18:A I
*I vs_41_18:A I
*I vs_40_18:A I
*I vs_39_18:A I
*I vs_38_18:A I
*I vs_37_18:A I
*I vs_36_18:A I
*I vs_35_18:A I
*I vs_34_18:A I
*I vs_33_18:A I
*I vs_32_18:A I
*I vs_31_18:A I
*I vs_30_18:A I
*I vs_29_18:A I
*I vs_28_18:A I
*I vs_27_18:A I
*I vs_26_18:A I
*I vs_25_18:A I
*I vs_24_18:A I
*I vs_23_18:A I
*I vs_22_18:A I
*I vs_21_18:A I
*I vs_20_18:A I
*I vs_19_18:A I
*I vs_18_18:A I
*I vs_17_18:A I
*I vs_16_18:A I
*I vs_15_18:A I
*I vs_14_18:A I
*I vs_13_18:A I
*I vs_12_18:A I
*I vs_11_18:A I
*I vs_10_18:A I
*I vs_9_18:A I
*I vs_8_18:A I
*I vs_7_18:A I
*I vs_6_18:A I
*I vs_5_18:A I
*I vs_4_18:A I
*I vs_3_18:A I
*I vs_2_18:A I
*I vs_1_18:A I
*I vs_0_18:A I
*CAP
1 pgm_lp18:1 1.081660e-01
*RES
1 lt_lp18:Z pgm_lp18:1 1.227449e+02
2 pgm_lp18:1 vs_63_18:A 1.000000e-03
3 pgm_lp18:1 vs_62_18:A 1.000000e-03
4 pgm_lp18:1 vs_61_18:A 1.000000e-03
5 pgm_lp18:1 vs_60_18:A 1.000000e-03
6 pgm_lp18:1 vs_59_18:A 1.000000e-03
7 pgm_lp18:1 vs_58_18:A 1.000000e-03
8 pgm_lp18:1 vs_57_18:A 1.000000e-03
9 pgm_lp18:1 vs_56_18:A 1.000000e-03
10 pgm_lp18:1 vs_55_18:A 1.000000e-03
11 pgm_lp18:1 vs_54_18:A 1.000000e-03
12 pgm_lp18:1 vs_53_18:A 1.000000e-03
13 pgm_lp18:1 vs_52_18:A 1.000000e-03
14 pgm_lp18:1 vs_51_18:A 1.000000e-03
15 pgm_lp18:1 vs_50_18:A 1.000000e-03
16 pgm_lp18:1 vs_49_18:A 1.000000e-03
17 pgm_lp18:1 vs_48_18:A 1.000000e-03
18 pgm_lp18:1 vs_47_18:A 1.000000e-03
19 pgm_lp18:1 vs_46_18:A 1.000000e-03
20 pgm_lp18:1 vs_45_18:A 1.000000e-03
21 pgm_lp18:1 vs_44_18:A 1.000000e-03
22 pgm_lp18:1 vs_43_18:A 1.000000e-03
23 pgm_lp18:1 vs_42_18:A 1.000000e-03
24 pgm_lp18:1 vs_41_18:A 1.000000e-03
25 pgm_lp18:1 vs_40_18:A 1.000000e-03
26 pgm_lp18:1 vs_39_18:A 1.000000e-03
27 pgm_lp18:1 vs_38_18:A 1.000000e-03
28 pgm_lp18:1 vs_37_18:A 1.000000e-03
29 pgm_lp18:1 vs_36_18:A 1.000000e-03
30 pgm_lp18:1 vs_35_18:A 1.000000e-03
31 pgm_lp18:1 vs_34_18:A 1.000000e-03
32 pgm_lp18:1 vs_33_18:A 1.000000e-03
33 pgm_lp18:1 vs_32_18:A 1.000000e-03
34 pgm_lp18:1 vs_31_18:A 1.000000e-03
35 pgm_lp18:1 vs_30_18:A 1.000000e-03
36 pgm_lp18:1 vs_29_18:A 1.000000e-03
37 pgm_lp18:1 vs_28_18:A 1.000000e-03
38 pgm_lp18:1 vs_27_18:A 1.000000e-03
39 pgm_lp18:1 vs_26_18:A 1.000000e-03
40 pgm_lp18:1 vs_25_18:A 1.000000e-03
41 pgm_lp18:1 vs_24_18:A 1.000000e-03
42 pgm_lp18:1 vs_23_18:A 1.000000e-03
43 pgm_lp18:1 vs_22_18:A 1.000000e-03
44 pgm_lp18:1 vs_21_18:A 1.000000e-03
45 pgm_lp18:1 vs_20_18:A 1.000000e-03
46 pgm_lp18:1 vs_19_18:A 1.000000e-03
47 pgm_lp18:1 vs_18_18:A 1.000000e-03
48 pgm_lp18:1 vs_17_18:A 1.000000e-03
49 pgm_lp18:1 vs_16_18:A 1.000000e-03
50 pgm_lp18:1 vs_15_18:A 1.000000e-03
51 pgm_lp18:1 vs_14_18:A 1.000000e-03
52 pgm_lp18:1 vs_13_18:A 1.000000e-03
53 pgm_lp18:1 vs_12_18:A 1.000000e-03
54 pgm_lp18:1 vs_11_18:A 1.000000e-03
55 pgm_lp18:1 vs_10_18:A 1.000000e-03
56 pgm_lp18:1 vs_9_18:A 1.000000e-03
57 pgm_lp18:1 vs_8_18:A 1.000000e-03
58 pgm_lp18:1 vs_7_18:A 1.000000e-03
59 pgm_lp18:1 vs_6_18:A 1.000000e-03
60 pgm_lp18:1 vs_5_18:A 1.000000e-03
61 pgm_lp18:1 vs_4_18:A 1.000000e-03
62 pgm_lp18:1 vs_3_18:A 1.000000e-03
63 pgm_lp18:1 vs_2_18:A 1.000000e-03
64 pgm_lp18:1 vs_1_18:A 1.000000e-03
65 pgm_lp18:1 vs_0_18:A 1.000000e-03
*END

*D_NET pgm_lp19 1.132083e-01
*CONN
*I lt_lp19:Z O
*I vs_63_19:A I
*I vs_62_19:A I
*I vs_61_19:A I
*I vs_60_19:A I
*I vs_59_19:A I
*I vs_58_19:A I
*I vs_57_19:A I
*I vs_56_19:A I
*I vs_55_19:A I
*I vs_54_19:A I
*I vs_53_19:A I
*I vs_52_19:A I
*I vs_51_19:A I
*I vs_50_19:A I
*I vs_49_19:A I
*I vs_48_19:A I
*I vs_47_19:A I
*I vs_46_19:A I
*I vs_45_19:A I
*I vs_44_19:A I
*I vs_43_19:A I
*I vs_42_19:A I
*I vs_41_19:A I
*I vs_40_19:A I
*I vs_39_19:A I
*I vs_38_19:A I
*I vs_37_19:A I
*I vs_36_19:A I
*I vs_35_19:A I
*I vs_34_19:A I
*I vs_33_19:A I
*I vs_32_19:A I
*I vs_31_19:A I
*I vs_30_19:A I
*I vs_29_19:A I
*I vs_28_19:A I
*I vs_27_19:A I
*I vs_26_19:A I
*I vs_25_19:A I
*I vs_24_19:A I
*I vs_23_19:A I
*I vs_22_19:A I
*I vs_21_19:A I
*I vs_20_19:A I
*I vs_19_19:A I
*I vs_18_19:A I
*I vs_17_19:A I
*I vs_16_19:A I
*I vs_15_19:A I
*I vs_14_19:A I
*I vs_13_19:A I
*I vs_12_19:A I
*I vs_11_19:A I
*I vs_10_19:A I
*I vs_9_19:A I
*I vs_8_19:A I
*I vs_7_19:A I
*I vs_6_19:A I
*I vs_5_19:A I
*I vs_4_19:A I
*I vs_3_19:A I
*I vs_2_19:A I
*I vs_1_19:A I
*I vs_0_19:A I
*CAP
1 pgm_lp19:1 1.132083e-01
*RES
1 lt_lp19:Z pgm_lp19:1 1.284668e+02
2 pgm_lp19:1 vs_63_19:A 1.000000e-03
3 pgm_lp19:1 vs_62_19:A 1.000000e-03
4 pgm_lp19:1 vs_61_19:A 1.000000e-03
5 pgm_lp19:1 vs_60_19:A 1.000000e-03
6 pgm_lp19:1 vs_59_19:A 1.000000e-03
7 pgm_lp19:1 vs_58_19:A 1.000000e-03
8 pgm_lp19:1 vs_57_19:A 1.000000e-03
9 pgm_lp19:1 vs_56_19:A 1.000000e-03
10 pgm_lp19:1 vs_55_19:A 1.000000e-03
11 pgm_lp19:1 vs_54_19:A 1.000000e-03
12 pgm_lp19:1 vs_53_19:A 1.000000e-03
13 pgm_lp19:1 vs_52_19:A 1.000000e-03
14 pgm_lp19:1 vs_51_19:A 1.000000e-03
15 pgm_lp19:1 vs_50_19:A 1.000000e-03
16 pgm_lp19:1 vs_49_19:A 1.000000e-03
17 pgm_lp19:1 vs_48_19:A 1.000000e-03
18 pgm_lp19:1 vs_47_19:A 1.000000e-03
19 pgm_lp19:1 vs_46_19:A 1.000000e-03
20 pgm_lp19:1 vs_45_19:A 1.000000e-03
21 pgm_lp19:1 vs_44_19:A 1.000000e-03
22 pgm_lp19:1 vs_43_19:A 1.000000e-03
23 pgm_lp19:1 vs_42_19:A 1.000000e-03
24 pgm_lp19:1 vs_41_19:A 1.000000e-03
25 pgm_lp19:1 vs_40_19:A 1.000000e-03
26 pgm_lp19:1 vs_39_19:A 1.000000e-03
27 pgm_lp19:1 vs_38_19:A 1.000000e-03
28 pgm_lp19:1 vs_37_19:A 1.000000e-03
29 pgm_lp19:1 vs_36_19:A 1.000000e-03
30 pgm_lp19:1 vs_35_19:A 1.000000e-03
31 pgm_lp19:1 vs_34_19:A 1.000000e-03
32 pgm_lp19:1 vs_33_19:A 1.000000e-03
33 pgm_lp19:1 vs_32_19:A 1.000000e-03
34 pgm_lp19:1 vs_31_19:A 1.000000e-03
35 pgm_lp19:1 vs_30_19:A 1.000000e-03
36 pgm_lp19:1 vs_29_19:A 1.000000e-03
37 pgm_lp19:1 vs_28_19:A 1.000000e-03
38 pgm_lp19:1 vs_27_19:A 1.000000e-03
39 pgm_lp19:1 vs_26_19:A 1.000000e-03
40 pgm_lp19:1 vs_25_19:A 1.000000e-03
41 pgm_lp19:1 vs_24_19:A 1.000000e-03
42 pgm_lp19:1 vs_23_19:A 1.000000e-03
43 pgm_lp19:1 vs_22_19:A 1.000000e-03
44 pgm_lp19:1 vs_21_19:A 1.000000e-03
45 pgm_lp19:1 vs_20_19:A 1.000000e-03
46 pgm_lp19:1 vs_19_19:A 1.000000e-03
47 pgm_lp19:1 vs_18_19:A 1.000000e-03
48 pgm_lp19:1 vs_17_19:A 1.000000e-03
49 pgm_lp19:1 vs_16_19:A 1.000000e-03
50 pgm_lp19:1 vs_15_19:A 1.000000e-03
51 pgm_lp19:1 vs_14_19:A 1.000000e-03
52 pgm_lp19:1 vs_13_19:A 1.000000e-03
53 pgm_lp19:1 vs_12_19:A 1.000000e-03
54 pgm_lp19:1 vs_11_19:A 1.000000e-03
55 pgm_lp19:1 vs_10_19:A 1.000000e-03
56 pgm_lp19:1 vs_9_19:A 1.000000e-03
57 pgm_lp19:1 vs_8_19:A 1.000000e-03
58 pgm_lp19:1 vs_7_19:A 1.000000e-03
59 pgm_lp19:1 vs_6_19:A 1.000000e-03
60 pgm_lp19:1 vs_5_19:A 1.000000e-03
61 pgm_lp19:1 vs_4_19:A 1.000000e-03
62 pgm_lp19:1 vs_3_19:A 1.000000e-03
63 pgm_lp19:1 vs_2_19:A 1.000000e-03
64 pgm_lp19:1 vs_1_19:A 1.000000e-03
65 pgm_lp19:1 vs_0_19:A 1.000000e-03
*END

*D_NET pgm_lp22 1.132083e-01
*CONN
*I lt_lp22:Z O
*I vs_63_22:A I
*I vs_62_22:A I
*I vs_61_22:A I
*I vs_60_22:A I
*I vs_59_22:A I
*I vs_58_22:A I
*I vs_57_22:A I
*I vs_56_22:A I
*I vs_55_22:A I
*I vs_54_22:A I
*I vs_53_22:A I
*I vs_52_22:A I
*I vs_51_22:A I
*I vs_50_22:A I
*I vs_49_22:A I
*I vs_48_22:A I
*I vs_47_22:A I
*I vs_46_22:A I
*I vs_45_22:A I
*I vs_44_22:A I
*I vs_43_22:A I
*I vs_42_22:A I
*I vs_41_22:A I
*I vs_40_22:A I
*I vs_39_22:A I
*I vs_38_22:A I
*I vs_37_22:A I
*I vs_36_22:A I
*I vs_35_22:A I
*I vs_34_22:A I
*I vs_33_22:A I
*I vs_32_22:A I
*I vs_31_22:A I
*I vs_30_22:A I
*I vs_29_22:A I
*I vs_28_22:A I
*I vs_27_22:A I
*I vs_26_22:A I
*I vs_25_22:A I
*I vs_24_22:A I
*I vs_23_22:A I
*I vs_22_22:A I
*I vs_21_22:A I
*I vs_20_22:A I
*I vs_19_22:A I
*I vs_18_22:A I
*I vs_17_22:A I
*I vs_16_22:A I
*I vs_15_22:A I
*I vs_14_22:A I
*I vs_13_22:A I
*I vs_12_22:A I
*I vs_11_22:A I
*I vs_10_22:A I
*I vs_9_22:A I
*I vs_8_22:A I
*I vs_7_22:A I
*I vs_6_22:A I
*I vs_5_22:A I
*I vs_4_22:A I
*I vs_3_22:A I
*I vs_2_22:A I
*I vs_1_22:A I
*I vs_0_22:A I
*CAP
1 pgm_lp22:1 1.132083e-01
*RES
1 lt_lp22:Z pgm_lp22:1 1.284668e+02
2 pgm_lp22:1 vs_63_22:A 1.000000e-03
3 pgm_lp22:1 vs_62_22:A 1.000000e-03
4 pgm_lp22:1 vs_61_22:A 1.000000e-03
5 pgm_lp22:1 vs_60_22:A 1.000000e-03
6 pgm_lp22:1 vs_59_22:A 1.000000e-03
7 pgm_lp22:1 vs_58_22:A 1.000000e-03
8 pgm_lp22:1 vs_57_22:A 1.000000e-03
9 pgm_lp22:1 vs_56_22:A 1.000000e-03
10 pgm_lp22:1 vs_55_22:A 1.000000e-03
11 pgm_lp22:1 vs_54_22:A 1.000000e-03
12 pgm_lp22:1 vs_53_22:A 1.000000e-03
13 pgm_lp22:1 vs_52_22:A 1.000000e-03
14 pgm_lp22:1 vs_51_22:A 1.000000e-03
15 pgm_lp22:1 vs_50_22:A 1.000000e-03
16 pgm_lp22:1 vs_49_22:A 1.000000e-03
17 pgm_lp22:1 vs_48_22:A 1.000000e-03
18 pgm_lp22:1 vs_47_22:A 1.000000e-03
19 pgm_lp22:1 vs_46_22:A 1.000000e-03
20 pgm_lp22:1 vs_45_22:A 1.000000e-03
21 pgm_lp22:1 vs_44_22:A 1.000000e-03
22 pgm_lp22:1 vs_43_22:A 1.000000e-03
23 pgm_lp22:1 vs_42_22:A 1.000000e-03
24 pgm_lp22:1 vs_41_22:A 1.000000e-03
25 pgm_lp22:1 vs_40_22:A 1.000000e-03
26 pgm_lp22:1 vs_39_22:A 1.000000e-03
27 pgm_lp22:1 vs_38_22:A 1.000000e-03
28 pgm_lp22:1 vs_37_22:A 1.000000e-03
29 pgm_lp22:1 vs_36_22:A 1.000000e-03
30 pgm_lp22:1 vs_35_22:A 1.000000e-03
31 pgm_lp22:1 vs_34_22:A 1.000000e-03
32 pgm_lp22:1 vs_33_22:A 1.000000e-03
33 pgm_lp22:1 vs_32_22:A 1.000000e-03
34 pgm_lp22:1 vs_31_22:A 1.000000e-03
35 pgm_lp22:1 vs_30_22:A 1.000000e-03
36 pgm_lp22:1 vs_29_22:A 1.000000e-03
37 pgm_lp22:1 vs_28_22:A 1.000000e-03
38 pgm_lp22:1 vs_27_22:A 1.000000e-03
39 pgm_lp22:1 vs_26_22:A 1.000000e-03
40 pgm_lp22:1 vs_25_22:A 1.000000e-03
41 pgm_lp22:1 vs_24_22:A 1.000000e-03
42 pgm_lp22:1 vs_23_22:A 1.000000e-03
43 pgm_lp22:1 vs_22_22:A 1.000000e-03
44 pgm_lp22:1 vs_21_22:A 1.000000e-03
45 pgm_lp22:1 vs_20_22:A 1.000000e-03
46 pgm_lp22:1 vs_19_22:A 1.000000e-03
47 pgm_lp22:1 vs_18_22:A 1.000000e-03
48 pgm_lp22:1 vs_17_22:A 1.000000e-03
49 pgm_lp22:1 vs_16_22:A 1.000000e-03
50 pgm_lp22:1 vs_15_22:A 1.000000e-03
51 pgm_lp22:1 vs_14_22:A 1.000000e-03
52 pgm_lp22:1 vs_13_22:A 1.000000e-03
53 pgm_lp22:1 vs_12_22:A 1.000000e-03
54 pgm_lp22:1 vs_11_22:A 1.000000e-03
55 pgm_lp22:1 vs_10_22:A 1.000000e-03
56 pgm_lp22:1 vs_9_22:A 1.000000e-03
57 pgm_lp22:1 vs_8_22:A 1.000000e-03
58 pgm_lp22:1 vs_7_22:A 1.000000e-03
59 pgm_lp22:1 vs_6_22:A 1.000000e-03
60 pgm_lp22:1 vs_5_22:A 1.000000e-03
61 pgm_lp22:1 vs_4_22:A 1.000000e-03
62 pgm_lp22:1 vs_3_22:A 1.000000e-03
63 pgm_lp22:1 vs_2_22:A 1.000000e-03
64 pgm_lp22:1 vs_1_22:A 1.000000e-03
65 pgm_lp22:1 vs_0_22:A 1.000000e-03
*END

*D_NET pgm_lp23 1.132083e-01
*CONN
*I lt_lp23:Z O
*I vs_63_23:A I
*I vs_62_23:A I
*I vs_61_23:A I
*I vs_60_23:A I
*I vs_59_23:A I
*I vs_58_23:A I
*I vs_57_23:A I
*I vs_56_23:A I
*I vs_55_23:A I
*I vs_54_23:A I
*I vs_53_23:A I
*I vs_52_23:A I
*I vs_51_23:A I
*I vs_50_23:A I
*I vs_49_23:A I
*I vs_48_23:A I
*I vs_47_23:A I
*I vs_46_23:A I
*I vs_45_23:A I
*I vs_44_23:A I
*I vs_43_23:A I
*I vs_42_23:A I
*I vs_41_23:A I
*I vs_40_23:A I
*I vs_39_23:A I
*I vs_38_23:A I
*I vs_37_23:A I
*I vs_36_23:A I
*I vs_35_23:A I
*I vs_34_23:A I
*I vs_33_23:A I
*I vs_32_23:A I
*I vs_31_23:A I
*I vs_30_23:A I
*I vs_29_23:A I
*I vs_28_23:A I
*I vs_27_23:A I
*I vs_26_23:A I
*I vs_25_23:A I
*I vs_24_23:A I
*I vs_23_23:A I
*I vs_22_23:A I
*I vs_21_23:A I
*I vs_20_23:A I
*I vs_19_23:A I
*I vs_18_23:A I
*I vs_17_23:A I
*I vs_16_23:A I
*I vs_15_23:A I
*I vs_14_23:A I
*I vs_13_23:A I
*I vs_12_23:A I
*I vs_11_23:A I
*I vs_10_23:A I
*I vs_9_23:A I
*I vs_8_23:A I
*I vs_7_23:A I
*I vs_6_23:A I
*I vs_5_23:A I
*I vs_4_23:A I
*I vs_3_23:A I
*I vs_2_23:A I
*I vs_1_23:A I
*I vs_0_23:A I
*CAP
1 pgm_lp23:1 1.132083e-01
*RES
1 lt_lp23:Z pgm_lp23:1 1.284668e+02
2 pgm_lp23:1 vs_63_23:A 1.000000e-03
3 pgm_lp23:1 vs_62_23:A 1.000000e-03
4 pgm_lp23:1 vs_61_23:A 1.000000e-03
5 pgm_lp23:1 vs_60_23:A 1.000000e-03
6 pgm_lp23:1 vs_59_23:A 1.000000e-03
7 pgm_lp23:1 vs_58_23:A 1.000000e-03
8 pgm_lp23:1 vs_57_23:A 1.000000e-03
9 pgm_lp23:1 vs_56_23:A 1.000000e-03
10 pgm_lp23:1 vs_55_23:A 1.000000e-03
11 pgm_lp23:1 vs_54_23:A 1.000000e-03
12 pgm_lp23:1 vs_53_23:A 1.000000e-03
13 pgm_lp23:1 vs_52_23:A 1.000000e-03
14 pgm_lp23:1 vs_51_23:A 1.000000e-03
15 pgm_lp23:1 vs_50_23:A 1.000000e-03
16 pgm_lp23:1 vs_49_23:A 1.000000e-03
17 pgm_lp23:1 vs_48_23:A 1.000000e-03
18 pgm_lp23:1 vs_47_23:A 1.000000e-03
19 pgm_lp23:1 vs_46_23:A 1.000000e-03
20 pgm_lp23:1 vs_45_23:A 1.000000e-03
21 pgm_lp23:1 vs_44_23:A 1.000000e-03
22 pgm_lp23:1 vs_43_23:A 1.000000e-03
23 pgm_lp23:1 vs_42_23:A 1.000000e-03
24 pgm_lp23:1 vs_41_23:A 1.000000e-03
25 pgm_lp23:1 vs_40_23:A 1.000000e-03
26 pgm_lp23:1 vs_39_23:A 1.000000e-03
27 pgm_lp23:1 vs_38_23:A 1.000000e-03
28 pgm_lp23:1 vs_37_23:A 1.000000e-03
29 pgm_lp23:1 vs_36_23:A 1.000000e-03
30 pgm_lp23:1 vs_35_23:A 1.000000e-03
31 pgm_lp23:1 vs_34_23:A 1.000000e-03
32 pgm_lp23:1 vs_33_23:A 1.000000e-03
33 pgm_lp23:1 vs_32_23:A 1.000000e-03
34 pgm_lp23:1 vs_31_23:A 1.000000e-03
35 pgm_lp23:1 vs_30_23:A 1.000000e-03
36 pgm_lp23:1 vs_29_23:A 1.000000e-03
37 pgm_lp23:1 vs_28_23:A 1.000000e-03
38 pgm_lp23:1 vs_27_23:A 1.000000e-03
39 pgm_lp23:1 vs_26_23:A 1.000000e-03
40 pgm_lp23:1 vs_25_23:A 1.000000e-03
41 pgm_lp23:1 vs_24_23:A 1.000000e-03
42 pgm_lp23:1 vs_23_23:A 1.000000e-03
43 pgm_lp23:1 vs_22_23:A 1.000000e-03
44 pgm_lp23:1 vs_21_23:A 1.000000e-03
45 pgm_lp23:1 vs_20_23:A 1.000000e-03
46 pgm_lp23:1 vs_19_23:A 1.000000e-03
47 pgm_lp23:1 vs_18_23:A 1.000000e-03
48 pgm_lp23:1 vs_17_23:A 1.000000e-03
49 pgm_lp23:1 vs_16_23:A 1.000000e-03
50 pgm_lp23:1 vs_15_23:A 1.000000e-03
51 pgm_lp23:1 vs_14_23:A 1.000000e-03
52 pgm_lp23:1 vs_13_23:A 1.000000e-03
53 pgm_lp23:1 vs_12_23:A 1.000000e-03
54 pgm_lp23:1 vs_11_23:A 1.000000e-03
55 pgm_lp23:1 vs_10_23:A 1.000000e-03
56 pgm_lp23:1 vs_9_23:A 1.000000e-03
57 pgm_lp23:1 vs_8_23:A 1.000000e-03
58 pgm_lp23:1 vs_7_23:A 1.000000e-03
59 pgm_lp23:1 vs_6_23:A 1.000000e-03
60 pgm_lp23:1 vs_5_23:A 1.000000e-03
61 pgm_lp23:1 vs_4_23:A 1.000000e-03
62 pgm_lp23:1 vs_3_23:A 1.000000e-03
63 pgm_lp23:1 vs_2_23:A 1.000000e-03
64 pgm_lp23:1 vs_1_23:A 1.000000e-03
65 pgm_lp23:1 vs_0_23:A 1.000000e-03
*END

*D_NET pgm_lp25 1.133446e-01
*CONN
*I lt_lp25:Z O
*I vs_63_25:A I
*I vs_62_25:A I
*I vs_61_25:A I
*I vs_60_25:A I
*I vs_59_25:A I
*I vs_58_25:A I
*I vs_57_25:A I
*I vs_56_25:A I
*I vs_55_25:A I
*I vs_54_25:A I
*I vs_53_25:A I
*I vs_52_25:A I
*I vs_51_25:A I
*I vs_50_25:A I
*I vs_49_25:A I
*I vs_48_25:A I
*I vs_47_25:A I
*I vs_46_25:A I
*I vs_45_25:A I
*I vs_44_25:A I
*I vs_43_25:A I
*I vs_42_25:A I
*I vs_41_25:A I
*I vs_40_25:A I
*I vs_39_25:A I
*I vs_38_25:A I
*I vs_37_25:A I
*I vs_36_25:A I
*I vs_35_25:A I
*I vs_34_25:A I
*I vs_33_25:A I
*I vs_32_25:A I
*I vs_31_25:A I
*I vs_30_25:A I
*I vs_29_25:A I
*I vs_28_25:A I
*I vs_27_25:A I
*I vs_26_25:A I
*I vs_25_25:A I
*I vs_24_25:A I
*I vs_23_25:A I
*I vs_22_25:A I
*I vs_21_25:A I
*I vs_20_25:A I
*I vs_19_25:A I
*I vs_18_25:A I
*I vs_17_25:A I
*I vs_16_25:A I
*I vs_15_25:A I
*I vs_14_25:A I
*I vs_13_25:A I
*I vs_12_25:A I
*I vs_11_25:A I
*I vs_10_25:A I
*I vs_9_25:A I
*I vs_8_25:A I
*I vs_7_25:A I
*I vs_6_25:A I
*I vs_5_25:A I
*I vs_4_25:A I
*I vs_3_25:A I
*I vs_2_25:A I
*I vs_1_25:A I
*I vs_0_25:A I
*CAP
1 pgm_lp25:1 1.133446e-01
*RES
1 lt_lp25:Z pgm_lp25:1 1.286214e+02
2 pgm_lp25:1 vs_63_25:A 1.000000e-03
3 pgm_lp25:1 vs_62_25:A 1.000000e-03
4 pgm_lp25:1 vs_61_25:A 1.000000e-03
5 pgm_lp25:1 vs_60_25:A 1.000000e-03
6 pgm_lp25:1 vs_59_25:A 1.000000e-03
7 pgm_lp25:1 vs_58_25:A 1.000000e-03
8 pgm_lp25:1 vs_57_25:A 1.000000e-03
9 pgm_lp25:1 vs_56_25:A 1.000000e-03
10 pgm_lp25:1 vs_55_25:A 1.000000e-03
11 pgm_lp25:1 vs_54_25:A 1.000000e-03
12 pgm_lp25:1 vs_53_25:A 1.000000e-03
13 pgm_lp25:1 vs_52_25:A 1.000000e-03
14 pgm_lp25:1 vs_51_25:A 1.000000e-03
15 pgm_lp25:1 vs_50_25:A 1.000000e-03
16 pgm_lp25:1 vs_49_25:A 1.000000e-03
17 pgm_lp25:1 vs_48_25:A 1.000000e-03
18 pgm_lp25:1 vs_47_25:A 1.000000e-03
19 pgm_lp25:1 vs_46_25:A 1.000000e-03
20 pgm_lp25:1 vs_45_25:A 1.000000e-03
21 pgm_lp25:1 vs_44_25:A 1.000000e-03
22 pgm_lp25:1 vs_43_25:A 1.000000e-03
23 pgm_lp25:1 vs_42_25:A 1.000000e-03
24 pgm_lp25:1 vs_41_25:A 1.000000e-03
25 pgm_lp25:1 vs_40_25:A 1.000000e-03
26 pgm_lp25:1 vs_39_25:A 1.000000e-03
27 pgm_lp25:1 vs_38_25:A 1.000000e-03
28 pgm_lp25:1 vs_37_25:A 1.000000e-03
29 pgm_lp25:1 vs_36_25:A 1.000000e-03
30 pgm_lp25:1 vs_35_25:A 1.000000e-03
31 pgm_lp25:1 vs_34_25:A 1.000000e-03
32 pgm_lp25:1 vs_33_25:A 1.000000e-03
33 pgm_lp25:1 vs_32_25:A 1.000000e-03
34 pgm_lp25:1 vs_31_25:A 1.000000e-03
35 pgm_lp25:1 vs_30_25:A 1.000000e-03
36 pgm_lp25:1 vs_29_25:A 1.000000e-03
37 pgm_lp25:1 vs_28_25:A 1.000000e-03
38 pgm_lp25:1 vs_27_25:A 1.000000e-03
39 pgm_lp25:1 vs_26_25:A 1.000000e-03
40 pgm_lp25:1 vs_25_25:A 1.000000e-03
41 pgm_lp25:1 vs_24_25:A 1.000000e-03
42 pgm_lp25:1 vs_23_25:A 1.000000e-03
43 pgm_lp25:1 vs_22_25:A 1.000000e-03
44 pgm_lp25:1 vs_21_25:A 1.000000e-03
45 pgm_lp25:1 vs_20_25:A 1.000000e-03
46 pgm_lp25:1 vs_19_25:A 1.000000e-03
47 pgm_lp25:1 vs_18_25:A 1.000000e-03
48 pgm_lp25:1 vs_17_25:A 1.000000e-03
49 pgm_lp25:1 vs_16_25:A 1.000000e-03
50 pgm_lp25:1 vs_15_25:A 1.000000e-03
51 pgm_lp25:1 vs_14_25:A 1.000000e-03
52 pgm_lp25:1 vs_13_25:A 1.000000e-03
53 pgm_lp25:1 vs_12_25:A 1.000000e-03
54 pgm_lp25:1 vs_11_25:A 1.000000e-03
55 pgm_lp25:1 vs_10_25:A 1.000000e-03
56 pgm_lp25:1 vs_9_25:A 1.000000e-03
57 pgm_lp25:1 vs_8_25:A 1.000000e-03
58 pgm_lp25:1 vs_7_25:A 1.000000e-03
59 pgm_lp25:1 vs_6_25:A 1.000000e-03
60 pgm_lp25:1 vs_5_25:A 1.000000e-03
61 pgm_lp25:1 vs_4_25:A 1.000000e-03
62 pgm_lp25:1 vs_3_25:A 1.000000e-03
63 pgm_lp25:1 vs_2_25:A 1.000000e-03
64 pgm_lp25:1 vs_1_25:A 1.000000e-03
65 pgm_lp25:1 vs_0_25:A 1.000000e-03
*END

*D_NET pgm_lp28 1.083023e-01
*CONN
*I lt_lp28:Z O
*I vs_63_28:A I
*I vs_62_28:A I
*I vs_61_28:A I
*I vs_60_28:A I
*I vs_59_28:A I
*I vs_58_28:A I
*I vs_57_28:A I
*I vs_56_28:A I
*I vs_55_28:A I
*I vs_54_28:A I
*I vs_53_28:A I
*I vs_52_28:A I
*I vs_51_28:A I
*I vs_50_28:A I
*I vs_49_28:A I
*I vs_48_28:A I
*I vs_47_28:A I
*I vs_46_28:A I
*I vs_45_28:A I
*I vs_44_28:A I
*I vs_43_28:A I
*I vs_42_28:A I
*I vs_41_28:A I
*I vs_40_28:A I
*I vs_39_28:A I
*I vs_38_28:A I
*I vs_37_28:A I
*I vs_36_28:A I
*I vs_35_28:A I
*I vs_34_28:A I
*I vs_33_28:A I
*I vs_32_28:A I
*I vs_31_28:A I
*I vs_30_28:A I
*I vs_29_28:A I
*I vs_28_28:A I
*I vs_27_28:A I
*I vs_26_28:A I
*I vs_25_28:A I
*I vs_24_28:A I
*I vs_23_28:A I
*I vs_22_28:A I
*I vs_21_28:A I
*I vs_20_28:A I
*I vs_19_28:A I
*I vs_18_28:A I
*I vs_17_28:A I
*I vs_16_28:A I
*I vs_15_28:A I
*I vs_14_28:A I
*I vs_13_28:A I
*I vs_12_28:A I
*I vs_11_28:A I
*I vs_10_28:A I
*I vs_9_28:A I
*I vs_8_28:A I
*I vs_7_28:A I
*I vs_6_28:A I
*I vs_5_28:A I
*I vs_4_28:A I
*I vs_3_28:A I
*I vs_2_28:A I
*I vs_1_28:A I
*I vs_0_28:A I
*CAP
1 pgm_lp28:1 1.083023e-01
*RES
1 lt_lp28:Z pgm_lp28:1 1.228995e+02
2 pgm_lp28:1 vs_63_28:A 1.000000e-03
3 pgm_lp28:1 vs_62_28:A 1.000000e-03
4 pgm_lp28:1 vs_61_28:A 1.000000e-03
5 pgm_lp28:1 vs_60_28:A 1.000000e-03
6 pgm_lp28:1 vs_59_28:A 1.000000e-03
7 pgm_lp28:1 vs_58_28:A 1.000000e-03
8 pgm_lp28:1 vs_57_28:A 1.000000e-03
9 pgm_lp28:1 vs_56_28:A 1.000000e-03
10 pgm_lp28:1 vs_55_28:A 1.000000e-03
11 pgm_lp28:1 vs_54_28:A 1.000000e-03
12 pgm_lp28:1 vs_53_28:A 1.000000e-03
13 pgm_lp28:1 vs_52_28:A 1.000000e-03
14 pgm_lp28:1 vs_51_28:A 1.000000e-03
15 pgm_lp28:1 vs_50_28:A 1.000000e-03
16 pgm_lp28:1 vs_49_28:A 1.000000e-03
17 pgm_lp28:1 vs_48_28:A 1.000000e-03
18 pgm_lp28:1 vs_47_28:A 1.000000e-03
19 pgm_lp28:1 vs_46_28:A 1.000000e-03
20 pgm_lp28:1 vs_45_28:A 1.000000e-03
21 pgm_lp28:1 vs_44_28:A 1.000000e-03
22 pgm_lp28:1 vs_43_28:A 1.000000e-03
23 pgm_lp28:1 vs_42_28:A 1.000000e-03
24 pgm_lp28:1 vs_41_28:A 1.000000e-03
25 pgm_lp28:1 vs_40_28:A 1.000000e-03
26 pgm_lp28:1 vs_39_28:A 1.000000e-03
27 pgm_lp28:1 vs_38_28:A 1.000000e-03
28 pgm_lp28:1 vs_37_28:A 1.000000e-03
29 pgm_lp28:1 vs_36_28:A 1.000000e-03
30 pgm_lp28:1 vs_35_28:A 1.000000e-03
31 pgm_lp28:1 vs_34_28:A 1.000000e-03
32 pgm_lp28:1 vs_33_28:A 1.000000e-03
33 pgm_lp28:1 vs_32_28:A 1.000000e-03
34 pgm_lp28:1 vs_31_28:A 1.000000e-03
35 pgm_lp28:1 vs_30_28:A 1.000000e-03
36 pgm_lp28:1 vs_29_28:A 1.000000e-03
37 pgm_lp28:1 vs_28_28:A 1.000000e-03
38 pgm_lp28:1 vs_27_28:A 1.000000e-03
39 pgm_lp28:1 vs_26_28:A 1.000000e-03
40 pgm_lp28:1 vs_25_28:A 1.000000e-03
41 pgm_lp28:1 vs_24_28:A 1.000000e-03
42 pgm_lp28:1 vs_23_28:A 1.000000e-03
43 pgm_lp28:1 vs_22_28:A 1.000000e-03
44 pgm_lp28:1 vs_21_28:A 1.000000e-03
45 pgm_lp28:1 vs_20_28:A 1.000000e-03
46 pgm_lp28:1 vs_19_28:A 1.000000e-03
47 pgm_lp28:1 vs_18_28:A 1.000000e-03
48 pgm_lp28:1 vs_17_28:A 1.000000e-03
49 pgm_lp28:1 vs_16_28:A 1.000000e-03
50 pgm_lp28:1 vs_15_28:A 1.000000e-03
51 pgm_lp28:1 vs_14_28:A 1.000000e-03
52 pgm_lp28:1 vs_13_28:A 1.000000e-03
53 pgm_lp28:1 vs_12_28:A 1.000000e-03
54 pgm_lp28:1 vs_11_28:A 1.000000e-03
55 pgm_lp28:1 vs_10_28:A 1.000000e-03
56 pgm_lp28:1 vs_9_28:A 1.000000e-03
57 pgm_lp28:1 vs_8_28:A 1.000000e-03
58 pgm_lp28:1 vs_7_28:A 1.000000e-03
59 pgm_lp28:1 vs_6_28:A 1.000000e-03
60 pgm_lp28:1 vs_5_28:A 1.000000e-03
61 pgm_lp28:1 vs_4_28:A 1.000000e-03
62 pgm_lp28:1 vs_3_28:A 1.000000e-03
63 pgm_lp28:1 vs_2_28:A 1.000000e-03
64 pgm_lp28:1 vs_1_28:A 1.000000e-03
65 pgm_lp28:1 vs_0_28:A 1.000000e-03
*END

*D_NET pgm_lp30 1.081660e-01
*CONN
*I lt_lp30:Z O
*I vs_63_30:A I
*I vs_62_30:A I
*I vs_61_30:A I
*I vs_60_30:A I
*I vs_59_30:A I
*I vs_58_30:A I
*I vs_57_30:A I
*I vs_56_30:A I
*I vs_55_30:A I
*I vs_54_30:A I
*I vs_53_30:A I
*I vs_52_30:A I
*I vs_51_30:A I
*I vs_50_30:A I
*I vs_49_30:A I
*I vs_48_30:A I
*I vs_47_30:A I
*I vs_46_30:A I
*I vs_45_30:A I
*I vs_44_30:A I
*I vs_43_30:A I
*I vs_42_30:A I
*I vs_41_30:A I
*I vs_40_30:A I
*I vs_39_30:A I
*I vs_38_30:A I
*I vs_37_30:A I
*I vs_36_30:A I
*I vs_35_30:A I
*I vs_34_30:A I
*I vs_33_30:A I
*I vs_32_30:A I
*I vs_31_30:A I
*I vs_30_30:A I
*I vs_29_30:A I
*I vs_28_30:A I
*I vs_27_30:A I
*I vs_26_30:A I
*I vs_25_30:A I
*I vs_24_30:A I
*I vs_23_30:A I
*I vs_22_30:A I
*I vs_21_30:A I
*I vs_20_30:A I
*I vs_19_30:A I
*I vs_18_30:A I
*I vs_17_30:A I
*I vs_16_30:A I
*I vs_15_30:A I
*I vs_14_30:A I
*I vs_13_30:A I
*I vs_12_30:A I
*I vs_11_30:A I
*I vs_10_30:A I
*I vs_9_30:A I
*I vs_8_30:A I
*I vs_7_30:A I
*I vs_6_30:A I
*I vs_5_30:A I
*I vs_4_30:A I
*I vs_3_30:A I
*I vs_2_30:A I
*I vs_1_30:A I
*I vs_0_30:A I
*CAP
1 pgm_lp30:1 1.081660e-01
*RES
1 lt_lp30:Z pgm_lp30:1 1.227449e+02
2 pgm_lp30:1 vs_63_30:A 1.000000e-03
3 pgm_lp30:1 vs_62_30:A 1.000000e-03
4 pgm_lp30:1 vs_61_30:A 1.000000e-03
5 pgm_lp30:1 vs_60_30:A 1.000000e-03
6 pgm_lp30:1 vs_59_30:A 1.000000e-03
7 pgm_lp30:1 vs_58_30:A 1.000000e-03
8 pgm_lp30:1 vs_57_30:A 1.000000e-03
9 pgm_lp30:1 vs_56_30:A 1.000000e-03
10 pgm_lp30:1 vs_55_30:A 1.000000e-03
11 pgm_lp30:1 vs_54_30:A 1.000000e-03
12 pgm_lp30:1 vs_53_30:A 1.000000e-03
13 pgm_lp30:1 vs_52_30:A 1.000000e-03
14 pgm_lp30:1 vs_51_30:A 1.000000e-03
15 pgm_lp30:1 vs_50_30:A 1.000000e-03
16 pgm_lp30:1 vs_49_30:A 1.000000e-03
17 pgm_lp30:1 vs_48_30:A 1.000000e-03
18 pgm_lp30:1 vs_47_30:A 1.000000e-03
19 pgm_lp30:1 vs_46_30:A 1.000000e-03
20 pgm_lp30:1 vs_45_30:A 1.000000e-03
21 pgm_lp30:1 vs_44_30:A 1.000000e-03
22 pgm_lp30:1 vs_43_30:A 1.000000e-03
23 pgm_lp30:1 vs_42_30:A 1.000000e-03
24 pgm_lp30:1 vs_41_30:A 1.000000e-03
25 pgm_lp30:1 vs_40_30:A 1.000000e-03
26 pgm_lp30:1 vs_39_30:A 1.000000e-03
27 pgm_lp30:1 vs_38_30:A 1.000000e-03
28 pgm_lp30:1 vs_37_30:A 1.000000e-03
29 pgm_lp30:1 vs_36_30:A 1.000000e-03
30 pgm_lp30:1 vs_35_30:A 1.000000e-03
31 pgm_lp30:1 vs_34_30:A 1.000000e-03
32 pgm_lp30:1 vs_33_30:A 1.000000e-03
33 pgm_lp30:1 vs_32_30:A 1.000000e-03
34 pgm_lp30:1 vs_31_30:A 1.000000e-03
35 pgm_lp30:1 vs_30_30:A 1.000000e-03
36 pgm_lp30:1 vs_29_30:A 1.000000e-03
37 pgm_lp30:1 vs_28_30:A 1.000000e-03
38 pgm_lp30:1 vs_27_30:A 1.000000e-03
39 pgm_lp30:1 vs_26_30:A 1.000000e-03
40 pgm_lp30:1 vs_25_30:A 1.000000e-03
41 pgm_lp30:1 vs_24_30:A 1.000000e-03
42 pgm_lp30:1 vs_23_30:A 1.000000e-03
43 pgm_lp30:1 vs_22_30:A 1.000000e-03
44 pgm_lp30:1 vs_21_30:A 1.000000e-03
45 pgm_lp30:1 vs_20_30:A 1.000000e-03
46 pgm_lp30:1 vs_19_30:A 1.000000e-03
47 pgm_lp30:1 vs_18_30:A 1.000000e-03
48 pgm_lp30:1 vs_17_30:A 1.000000e-03
49 pgm_lp30:1 vs_16_30:A 1.000000e-03
50 pgm_lp30:1 vs_15_30:A 1.000000e-03
51 pgm_lp30:1 vs_14_30:A 1.000000e-03
52 pgm_lp30:1 vs_13_30:A 1.000000e-03
53 pgm_lp30:1 vs_12_30:A 1.000000e-03
54 pgm_lp30:1 vs_11_30:A 1.000000e-03
55 pgm_lp30:1 vs_10_30:A 1.000000e-03
56 pgm_lp30:1 vs_9_30:A 1.000000e-03
57 pgm_lp30:1 vs_8_30:A 1.000000e-03
58 pgm_lp30:1 vs_7_30:A 1.000000e-03
59 pgm_lp30:1 vs_6_30:A 1.000000e-03
60 pgm_lp30:1 vs_5_30:A 1.000000e-03
61 pgm_lp30:1 vs_4_30:A 1.000000e-03
62 pgm_lp30:1 vs_3_30:A 1.000000e-03
63 pgm_lp30:1 vs_2_30:A 1.000000e-03
64 pgm_lp30:1 vs_1_30:A 1.000000e-03
65 pgm_lp30:1 vs_0_30:A 1.000000e-03
*END

*D_NET pgm_lp35 1.132083e-01
*CONN
*I lt_lp35:Z O
*I vs_63_35:A I
*I vs_62_35:A I
*I vs_61_35:A I
*I vs_60_35:A I
*I vs_59_35:A I
*I vs_58_35:A I
*I vs_57_35:A I
*I vs_56_35:A I
*I vs_55_35:A I
*I vs_54_35:A I
*I vs_53_35:A I
*I vs_52_35:A I
*I vs_51_35:A I
*I vs_50_35:A I
*I vs_49_35:A I
*I vs_48_35:A I
*I vs_47_35:A I
*I vs_46_35:A I
*I vs_45_35:A I
*I vs_44_35:A I
*I vs_43_35:A I
*I vs_42_35:A I
*I vs_41_35:A I
*I vs_40_35:A I
*I vs_39_35:A I
*I vs_38_35:A I
*I vs_37_35:A I
*I vs_36_35:A I
*I vs_35_35:A I
*I vs_34_35:A I
*I vs_33_35:A I
*I vs_32_35:A I
*I vs_31_35:A I
*I vs_30_35:A I
*I vs_29_35:A I
*I vs_28_35:A I
*I vs_27_35:A I
*I vs_26_35:A I
*I vs_25_35:A I
*I vs_24_35:A I
*I vs_23_35:A I
*I vs_22_35:A I
*I vs_21_35:A I
*I vs_20_35:A I
*I vs_19_35:A I
*I vs_18_35:A I
*I vs_17_35:A I
*I vs_16_35:A I
*I vs_15_35:A I
*I vs_14_35:A I
*I vs_13_35:A I
*I vs_12_35:A I
*I vs_11_35:A I
*I vs_10_35:A I
*I vs_9_35:A I
*I vs_8_35:A I
*I vs_7_35:A I
*I vs_6_35:A I
*I vs_5_35:A I
*I vs_4_35:A I
*I vs_3_35:A I
*I vs_2_35:A I
*I vs_1_35:A I
*I vs_0_35:A I
*CAP
1 pgm_lp35:1 1.132083e-01
*RES
1 lt_lp35:Z pgm_lp35:1 1.284668e+02
2 pgm_lp35:1 vs_63_35:A 1.000000e-03
3 pgm_lp35:1 vs_62_35:A 1.000000e-03
4 pgm_lp35:1 vs_61_35:A 1.000000e-03
5 pgm_lp35:1 vs_60_35:A 1.000000e-03
6 pgm_lp35:1 vs_59_35:A 1.000000e-03
7 pgm_lp35:1 vs_58_35:A 1.000000e-03
8 pgm_lp35:1 vs_57_35:A 1.000000e-03
9 pgm_lp35:1 vs_56_35:A 1.000000e-03
10 pgm_lp35:1 vs_55_35:A 1.000000e-03
11 pgm_lp35:1 vs_54_35:A 1.000000e-03
12 pgm_lp35:1 vs_53_35:A 1.000000e-03
13 pgm_lp35:1 vs_52_35:A 1.000000e-03
14 pgm_lp35:1 vs_51_35:A 1.000000e-03
15 pgm_lp35:1 vs_50_35:A 1.000000e-03
16 pgm_lp35:1 vs_49_35:A 1.000000e-03
17 pgm_lp35:1 vs_48_35:A 1.000000e-03
18 pgm_lp35:1 vs_47_35:A 1.000000e-03
19 pgm_lp35:1 vs_46_35:A 1.000000e-03
20 pgm_lp35:1 vs_45_35:A 1.000000e-03
21 pgm_lp35:1 vs_44_35:A 1.000000e-03
22 pgm_lp35:1 vs_43_35:A 1.000000e-03
23 pgm_lp35:1 vs_42_35:A 1.000000e-03
24 pgm_lp35:1 vs_41_35:A 1.000000e-03
25 pgm_lp35:1 vs_40_35:A 1.000000e-03
26 pgm_lp35:1 vs_39_35:A 1.000000e-03
27 pgm_lp35:1 vs_38_35:A 1.000000e-03
28 pgm_lp35:1 vs_37_35:A 1.000000e-03
29 pgm_lp35:1 vs_36_35:A 1.000000e-03
30 pgm_lp35:1 vs_35_35:A 1.000000e-03
31 pgm_lp35:1 vs_34_35:A 1.000000e-03
32 pgm_lp35:1 vs_33_35:A 1.000000e-03
33 pgm_lp35:1 vs_32_35:A 1.000000e-03
34 pgm_lp35:1 vs_31_35:A 1.000000e-03
35 pgm_lp35:1 vs_30_35:A 1.000000e-03
36 pgm_lp35:1 vs_29_35:A 1.000000e-03
37 pgm_lp35:1 vs_28_35:A 1.000000e-03
38 pgm_lp35:1 vs_27_35:A 1.000000e-03
39 pgm_lp35:1 vs_26_35:A 1.000000e-03
40 pgm_lp35:1 vs_25_35:A 1.000000e-03
41 pgm_lp35:1 vs_24_35:A 1.000000e-03
42 pgm_lp35:1 vs_23_35:A 1.000000e-03
43 pgm_lp35:1 vs_22_35:A 1.000000e-03
44 pgm_lp35:1 vs_21_35:A 1.000000e-03
45 pgm_lp35:1 vs_20_35:A 1.000000e-03
46 pgm_lp35:1 vs_19_35:A 1.000000e-03
47 pgm_lp35:1 vs_18_35:A 1.000000e-03
48 pgm_lp35:1 vs_17_35:A 1.000000e-03
49 pgm_lp35:1 vs_16_35:A 1.000000e-03
50 pgm_lp35:1 vs_15_35:A 1.000000e-03
51 pgm_lp35:1 vs_14_35:A 1.000000e-03
52 pgm_lp35:1 vs_13_35:A 1.000000e-03
53 pgm_lp35:1 vs_12_35:A 1.000000e-03
54 pgm_lp35:1 vs_11_35:A 1.000000e-03
55 pgm_lp35:1 vs_10_35:A 1.000000e-03
56 pgm_lp35:1 vs_9_35:A 1.000000e-03
57 pgm_lp35:1 vs_8_35:A 1.000000e-03
58 pgm_lp35:1 vs_7_35:A 1.000000e-03
59 pgm_lp35:1 vs_6_35:A 1.000000e-03
60 pgm_lp35:1 vs_5_35:A 1.000000e-03
61 pgm_lp35:1 vs_4_35:A 1.000000e-03
62 pgm_lp35:1 vs_3_35:A 1.000000e-03
63 pgm_lp35:1 vs_2_35:A 1.000000e-03
64 pgm_lp35:1 vs_1_35:A 1.000000e-03
65 pgm_lp35:1 vs_0_35:A 1.000000e-03
*END

*D_NET pgm_lp38 1.080298e-01
*CONN
*I lt_lp38:Z O
*I vs_63_38:A I
*I vs_62_38:A I
*I vs_61_38:A I
*I vs_60_38:A I
*I vs_59_38:A I
*I vs_58_38:A I
*I vs_57_38:A I
*I vs_56_38:A I
*I vs_55_38:A I
*I vs_54_38:A I
*I vs_53_38:A I
*I vs_52_38:A I
*I vs_51_38:A I
*I vs_50_38:A I
*I vs_49_38:A I
*I vs_48_38:A I
*I vs_47_38:A I
*I vs_46_38:A I
*I vs_45_38:A I
*I vs_44_38:A I
*I vs_43_38:A I
*I vs_42_38:A I
*I vs_41_38:A I
*I vs_40_38:A I
*I vs_39_38:A I
*I vs_38_38:A I
*I vs_37_38:A I
*I vs_36_38:A I
*I vs_35_38:A I
*I vs_34_38:A I
*I vs_33_38:A I
*I vs_32_38:A I
*I vs_31_38:A I
*I vs_30_38:A I
*I vs_29_38:A I
*I vs_28_38:A I
*I vs_27_38:A I
*I vs_26_38:A I
*I vs_25_38:A I
*I vs_24_38:A I
*I vs_23_38:A I
*I vs_22_38:A I
*I vs_21_38:A I
*I vs_20_38:A I
*I vs_19_38:A I
*I vs_18_38:A I
*I vs_17_38:A I
*I vs_16_38:A I
*I vs_15_38:A I
*I vs_14_38:A I
*I vs_13_38:A I
*I vs_12_38:A I
*I vs_11_38:A I
*I vs_10_38:A I
*I vs_9_38:A I
*I vs_8_38:A I
*I vs_7_38:A I
*I vs_6_38:A I
*I vs_5_38:A I
*I vs_4_38:A I
*I vs_3_38:A I
*I vs_2_38:A I
*I vs_1_38:A I
*I vs_0_38:A I
*CAP
1 pgm_lp38:1 1.080298e-01
*RES
1 lt_lp38:Z pgm_lp38:1 1.225902e+02
2 pgm_lp38:1 vs_63_38:A 1.000000e-03
3 pgm_lp38:1 vs_62_38:A 1.000000e-03
4 pgm_lp38:1 vs_61_38:A 1.000000e-03
5 pgm_lp38:1 vs_60_38:A 1.000000e-03
6 pgm_lp38:1 vs_59_38:A 1.000000e-03
7 pgm_lp38:1 vs_58_38:A 1.000000e-03
8 pgm_lp38:1 vs_57_38:A 1.000000e-03
9 pgm_lp38:1 vs_56_38:A 1.000000e-03
10 pgm_lp38:1 vs_55_38:A 1.000000e-03
11 pgm_lp38:1 vs_54_38:A 1.000000e-03
12 pgm_lp38:1 vs_53_38:A 1.000000e-03
13 pgm_lp38:1 vs_52_38:A 1.000000e-03
14 pgm_lp38:1 vs_51_38:A 1.000000e-03
15 pgm_lp38:1 vs_50_38:A 1.000000e-03
16 pgm_lp38:1 vs_49_38:A 1.000000e-03
17 pgm_lp38:1 vs_48_38:A 1.000000e-03
18 pgm_lp38:1 vs_47_38:A 1.000000e-03
19 pgm_lp38:1 vs_46_38:A 1.000000e-03
20 pgm_lp38:1 vs_45_38:A 1.000000e-03
21 pgm_lp38:1 vs_44_38:A 1.000000e-03
22 pgm_lp38:1 vs_43_38:A 1.000000e-03
23 pgm_lp38:1 vs_42_38:A 1.000000e-03
24 pgm_lp38:1 vs_41_38:A 1.000000e-03
25 pgm_lp38:1 vs_40_38:A 1.000000e-03
26 pgm_lp38:1 vs_39_38:A 1.000000e-03
27 pgm_lp38:1 vs_38_38:A 1.000000e-03
28 pgm_lp38:1 vs_37_38:A 1.000000e-03
29 pgm_lp38:1 vs_36_38:A 1.000000e-03
30 pgm_lp38:1 vs_35_38:A 1.000000e-03
31 pgm_lp38:1 vs_34_38:A 1.000000e-03
32 pgm_lp38:1 vs_33_38:A 1.000000e-03
33 pgm_lp38:1 vs_32_38:A 1.000000e-03
34 pgm_lp38:1 vs_31_38:A 1.000000e-03
35 pgm_lp38:1 vs_30_38:A 1.000000e-03
36 pgm_lp38:1 vs_29_38:A 1.000000e-03
37 pgm_lp38:1 vs_28_38:A 1.000000e-03
38 pgm_lp38:1 vs_27_38:A 1.000000e-03
39 pgm_lp38:1 vs_26_38:A 1.000000e-03
40 pgm_lp38:1 vs_25_38:A 1.000000e-03
41 pgm_lp38:1 vs_24_38:A 1.000000e-03
42 pgm_lp38:1 vs_23_38:A 1.000000e-03
43 pgm_lp38:1 vs_22_38:A 1.000000e-03
44 pgm_lp38:1 vs_21_38:A 1.000000e-03
45 pgm_lp38:1 vs_20_38:A 1.000000e-03
46 pgm_lp38:1 vs_19_38:A 1.000000e-03
47 pgm_lp38:1 vs_18_38:A 1.000000e-03
48 pgm_lp38:1 vs_17_38:A 1.000000e-03
49 pgm_lp38:1 vs_16_38:A 1.000000e-03
50 pgm_lp38:1 vs_15_38:A 1.000000e-03
51 pgm_lp38:1 vs_14_38:A 1.000000e-03
52 pgm_lp38:1 vs_13_38:A 1.000000e-03
53 pgm_lp38:1 vs_12_38:A 1.000000e-03
54 pgm_lp38:1 vs_11_38:A 1.000000e-03
55 pgm_lp38:1 vs_10_38:A 1.000000e-03
56 pgm_lp38:1 vs_9_38:A 1.000000e-03
57 pgm_lp38:1 vs_8_38:A 1.000000e-03
58 pgm_lp38:1 vs_7_38:A 1.000000e-03
59 pgm_lp38:1 vs_6_38:A 1.000000e-03
60 pgm_lp38:1 vs_5_38:A 1.000000e-03
61 pgm_lp38:1 vs_4_38:A 1.000000e-03
62 pgm_lp38:1 vs_3_38:A 1.000000e-03
63 pgm_lp38:1 vs_2_38:A 1.000000e-03
64 pgm_lp38:1 vs_1_38:A 1.000000e-03
65 pgm_lp38:1 vs_0_38:A 1.000000e-03
*END

*D_NET pgm_lp39 1.125210e-01
*CONN
*I lt_lp39:Z O
*I vs_63_39:A I
*I vs_62_39:A I
*I vs_61_39:A I
*I vs_60_39:A I
*I vs_59_39:A I
*I vs_58_39:A I
*I vs_57_39:A I
*I vs_56_39:A I
*I vs_55_39:A I
*I vs_54_39:A I
*I vs_53_39:A I
*I vs_52_39:A I
*I vs_51_39:A I
*I vs_50_39:A I
*I vs_49_39:A I
*I vs_48_39:A I
*I vs_47_39:A I
*I vs_46_39:A I
*I vs_45_39:A I
*I vs_44_39:A I
*I vs_43_39:A I
*I vs_42_39:A I
*I vs_41_39:A I
*I vs_40_39:A I
*I vs_39_39:A I
*I vs_38_39:A I
*I vs_37_39:A I
*I vs_36_39:A I
*I vs_35_39:A I
*I vs_34_39:A I
*I vs_33_39:A I
*I vs_32_39:A I
*I vs_31_39:A I
*I vs_30_39:A I
*I vs_29_39:A I
*I vs_28_39:A I
*I vs_27_39:A I
*I vs_26_39:A I
*I vs_25_39:A I
*I vs_24_39:A I
*I vs_23_39:A I
*I vs_22_39:A I
*I vs_21_39:A I
*I vs_20_39:A I
*I vs_19_39:A I
*I vs_18_39:A I
*I vs_17_39:A I
*I vs_16_39:A I
*I vs_15_39:A I
*I vs_14_39:A I
*I vs_13_39:A I
*I vs_12_39:A I
*I vs_11_39:A I
*I vs_10_39:A I
*I vs_9_39:A I
*I vs_8_39:A I
*I vs_7_39:A I
*I vs_6_39:A I
*I vs_5_39:A I
*I vs_4_39:A I
*I vs_3_39:A I
*I vs_2_39:A I
*I vs_1_39:A I
*I vs_0_39:A I
*CAP
1 pgm_lp39:1 1.125210e-01
*RES
1 lt_lp39:Z pgm_lp39:1 1.276868e+02
2 pgm_lp39:1 vs_63_39:A 1.000000e-03
3 pgm_lp39:1 vs_62_39:A 1.000000e-03
4 pgm_lp39:1 vs_61_39:A 1.000000e-03
5 pgm_lp39:1 vs_60_39:A 1.000000e-03
6 pgm_lp39:1 vs_59_39:A 1.000000e-03
7 pgm_lp39:1 vs_58_39:A 1.000000e-03
8 pgm_lp39:1 vs_57_39:A 1.000000e-03
9 pgm_lp39:1 vs_56_39:A 1.000000e-03
10 pgm_lp39:1 vs_55_39:A 1.000000e-03
11 pgm_lp39:1 vs_54_39:A 1.000000e-03
12 pgm_lp39:1 vs_53_39:A 1.000000e-03
13 pgm_lp39:1 vs_52_39:A 1.000000e-03
14 pgm_lp39:1 vs_51_39:A 1.000000e-03
15 pgm_lp39:1 vs_50_39:A 1.000000e-03
16 pgm_lp39:1 vs_49_39:A 1.000000e-03
17 pgm_lp39:1 vs_48_39:A 1.000000e-03
18 pgm_lp39:1 vs_47_39:A 1.000000e-03
19 pgm_lp39:1 vs_46_39:A 1.000000e-03
20 pgm_lp39:1 vs_45_39:A 1.000000e-03
21 pgm_lp39:1 vs_44_39:A 1.000000e-03
22 pgm_lp39:1 vs_43_39:A 1.000000e-03
23 pgm_lp39:1 vs_42_39:A 1.000000e-03
24 pgm_lp39:1 vs_41_39:A 1.000000e-03
25 pgm_lp39:1 vs_40_39:A 1.000000e-03
26 pgm_lp39:1 vs_39_39:A 1.000000e-03
27 pgm_lp39:1 vs_38_39:A 1.000000e-03
28 pgm_lp39:1 vs_37_39:A 1.000000e-03
29 pgm_lp39:1 vs_36_39:A 1.000000e-03
30 pgm_lp39:1 vs_35_39:A 1.000000e-03
31 pgm_lp39:1 vs_34_39:A 1.000000e-03
32 pgm_lp39:1 vs_33_39:A 1.000000e-03
33 pgm_lp39:1 vs_32_39:A 1.000000e-03
34 pgm_lp39:1 vs_31_39:A 1.000000e-03
35 pgm_lp39:1 vs_30_39:A 1.000000e-03
36 pgm_lp39:1 vs_29_39:A 1.000000e-03
37 pgm_lp39:1 vs_28_39:A 1.000000e-03
38 pgm_lp39:1 vs_27_39:A 1.000000e-03
39 pgm_lp39:1 vs_26_39:A 1.000000e-03
40 pgm_lp39:1 vs_25_39:A 1.000000e-03
41 pgm_lp39:1 vs_24_39:A 1.000000e-03
42 pgm_lp39:1 vs_23_39:A 1.000000e-03
43 pgm_lp39:1 vs_22_39:A 1.000000e-03
44 pgm_lp39:1 vs_21_39:A 1.000000e-03
45 pgm_lp39:1 vs_20_39:A 1.000000e-03
46 pgm_lp39:1 vs_19_39:A 1.000000e-03
47 pgm_lp39:1 vs_18_39:A 1.000000e-03
48 pgm_lp39:1 vs_17_39:A 1.000000e-03
49 pgm_lp39:1 vs_16_39:A 1.000000e-03
50 pgm_lp39:1 vs_15_39:A 1.000000e-03
51 pgm_lp39:1 vs_14_39:A 1.000000e-03
52 pgm_lp39:1 vs_13_39:A 1.000000e-03
53 pgm_lp39:1 vs_12_39:A 1.000000e-03
54 pgm_lp39:1 vs_11_39:A 1.000000e-03
55 pgm_lp39:1 vs_10_39:A 1.000000e-03
56 pgm_lp39:1 vs_9_39:A 1.000000e-03
57 pgm_lp39:1 vs_8_39:A 1.000000e-03
58 pgm_lp39:1 vs_7_39:A 1.000000e-03
59 pgm_lp39:1 vs_6_39:A 1.000000e-03
60 pgm_lp39:1 vs_5_39:A 1.000000e-03
61 pgm_lp39:1 vs_4_39:A 1.000000e-03
62 pgm_lp39:1 vs_3_39:A 1.000000e-03
63 pgm_lp39:1 vs_2_39:A 1.000000e-03
64 pgm_lp39:1 vs_1_39:A 1.000000e-03
65 pgm_lp39:1 vs_0_39:A 1.000000e-03
*END

*D_NET pgm_lp4 1.081660e-01
*CONN
*I lt_lp4:Z O
*I vs_63_4:A I
*I vs_62_4:A I
*I vs_61_4:A I
*I vs_60_4:A I
*I vs_59_4:A I
*I vs_58_4:A I
*I vs_57_4:A I
*I vs_56_4:A I
*I vs_55_4:A I
*I vs_54_4:A I
*I vs_53_4:A I
*I vs_52_4:A I
*I vs_51_4:A I
*I vs_50_4:A I
*I vs_49_4:A I
*I vs_48_4:A I
*I vs_47_4:A I
*I vs_46_4:A I
*I vs_45_4:A I
*I vs_44_4:A I
*I vs_43_4:A I
*I vs_42_4:A I
*I vs_41_4:A I
*I vs_40_4:A I
*I vs_39_4:A I
*I vs_38_4:A I
*I vs_37_4:A I
*I vs_36_4:A I
*I vs_35_4:A I
*I vs_34_4:A I
*I vs_33_4:A I
*I vs_32_4:A I
*I vs_31_4:A I
*I vs_30_4:A I
*I vs_29_4:A I
*I vs_28_4:A I
*I vs_27_4:A I
*I vs_26_4:A I
*I vs_25_4:A I
*I vs_24_4:A I
*I vs_23_4:A I
*I vs_22_4:A I
*I vs_21_4:A I
*I vs_20_4:A I
*I vs_19_4:A I
*I vs_18_4:A I
*I vs_17_4:A I
*I vs_16_4:A I
*I vs_15_4:A I
*I vs_14_4:A I
*I vs_13_4:A I
*I vs_12_4:A I
*I vs_11_4:A I
*I vs_10_4:A I
*I vs_9_4:A I
*I vs_8_4:A I
*I vs_7_4:A I
*I vs_6_4:A I
*I vs_5_4:A I
*I vs_4_4:A I
*I vs_3_4:A I
*I vs_2_4:A I
*I vs_1_4:A I
*I vs_0_4:A I
*CAP
1 pgm_lp4:1 1.081660e-01
*RES
1 lt_lp4:Z pgm_lp4:1 1.227449e+02
2 pgm_lp4:1 vs_63_4:A 1.000000e-03
3 pgm_lp4:1 vs_62_4:A 1.000000e-03
4 pgm_lp4:1 vs_61_4:A 1.000000e-03
5 pgm_lp4:1 vs_60_4:A 1.000000e-03
6 pgm_lp4:1 vs_59_4:A 1.000000e-03
7 pgm_lp4:1 vs_58_4:A 1.000000e-03
8 pgm_lp4:1 vs_57_4:A 1.000000e-03
9 pgm_lp4:1 vs_56_4:A 1.000000e-03
10 pgm_lp4:1 vs_55_4:A 1.000000e-03
11 pgm_lp4:1 vs_54_4:A 1.000000e-03
12 pgm_lp4:1 vs_53_4:A 1.000000e-03
13 pgm_lp4:1 vs_52_4:A 1.000000e-03
14 pgm_lp4:1 vs_51_4:A 1.000000e-03
15 pgm_lp4:1 vs_50_4:A 1.000000e-03
16 pgm_lp4:1 vs_49_4:A 1.000000e-03
17 pgm_lp4:1 vs_48_4:A 1.000000e-03
18 pgm_lp4:1 vs_47_4:A 1.000000e-03
19 pgm_lp4:1 vs_46_4:A 1.000000e-03
20 pgm_lp4:1 vs_45_4:A 1.000000e-03
21 pgm_lp4:1 vs_44_4:A 1.000000e-03
22 pgm_lp4:1 vs_43_4:A 1.000000e-03
23 pgm_lp4:1 vs_42_4:A 1.000000e-03
24 pgm_lp4:1 vs_41_4:A 1.000000e-03
25 pgm_lp4:1 vs_40_4:A 1.000000e-03
26 pgm_lp4:1 vs_39_4:A 1.000000e-03
27 pgm_lp4:1 vs_38_4:A 1.000000e-03
28 pgm_lp4:1 vs_37_4:A 1.000000e-03
29 pgm_lp4:1 vs_36_4:A 1.000000e-03
30 pgm_lp4:1 vs_35_4:A 1.000000e-03
31 pgm_lp4:1 vs_34_4:A 1.000000e-03
32 pgm_lp4:1 vs_33_4:A 1.000000e-03
33 pgm_lp4:1 vs_32_4:A 1.000000e-03
34 pgm_lp4:1 vs_31_4:A 1.000000e-03
35 pgm_lp4:1 vs_30_4:A 1.000000e-03
36 pgm_lp4:1 vs_29_4:A 1.000000e-03
37 pgm_lp4:1 vs_28_4:A 1.000000e-03
38 pgm_lp4:1 vs_27_4:A 1.000000e-03
39 pgm_lp4:1 vs_26_4:A 1.000000e-03
40 pgm_lp4:1 vs_25_4:A 1.000000e-03
41 pgm_lp4:1 vs_24_4:A 1.000000e-03
42 pgm_lp4:1 vs_23_4:A 1.000000e-03
43 pgm_lp4:1 vs_22_4:A 1.000000e-03
44 pgm_lp4:1 vs_21_4:A 1.000000e-03
45 pgm_lp4:1 vs_20_4:A 1.000000e-03
46 pgm_lp4:1 vs_19_4:A 1.000000e-03
47 pgm_lp4:1 vs_18_4:A 1.000000e-03
48 pgm_lp4:1 vs_17_4:A 1.000000e-03
49 pgm_lp4:1 vs_16_4:A 1.000000e-03
50 pgm_lp4:1 vs_15_4:A 1.000000e-03
51 pgm_lp4:1 vs_14_4:A 1.000000e-03
52 pgm_lp4:1 vs_13_4:A 1.000000e-03
53 pgm_lp4:1 vs_12_4:A 1.000000e-03
54 pgm_lp4:1 vs_11_4:A 1.000000e-03
55 pgm_lp4:1 vs_10_4:A 1.000000e-03
56 pgm_lp4:1 vs_9_4:A 1.000000e-03
57 pgm_lp4:1 vs_8_4:A 1.000000e-03
58 pgm_lp4:1 vs_7_4:A 1.000000e-03
59 pgm_lp4:1 vs_6_4:A 1.000000e-03
60 pgm_lp4:1 vs_5_4:A 1.000000e-03
61 pgm_lp4:1 vs_4_4:A 1.000000e-03
62 pgm_lp4:1 vs_3_4:A 1.000000e-03
63 pgm_lp4:1 vs_2_4:A 1.000000e-03
64 pgm_lp4:1 vs_1_4:A 1.000000e-03
65 pgm_lp4:1 vs_0_4:A 1.000000e-03
*END

*D_NET pgm_lp44 1.081660e-01
*CONN
*I lt_lp44:Z O
*I vs_63_44:A I
*I vs_62_44:A I
*I vs_61_44:A I
*I vs_60_44:A I
*I vs_59_44:A I
*I vs_58_44:A I
*I vs_57_44:A I
*I vs_56_44:A I
*I vs_55_44:A I
*I vs_54_44:A I
*I vs_53_44:A I
*I vs_52_44:A I
*I vs_51_44:A I
*I vs_50_44:A I
*I vs_49_44:A I
*I vs_48_44:A I
*I vs_47_44:A I
*I vs_46_44:A I
*I vs_45_44:A I
*I vs_44_44:A I
*I vs_43_44:A I
*I vs_42_44:A I
*I vs_41_44:A I
*I vs_40_44:A I
*I vs_39_44:A I
*I vs_38_44:A I
*I vs_37_44:A I
*I vs_36_44:A I
*I vs_35_44:A I
*I vs_34_44:A I
*I vs_33_44:A I
*I vs_32_44:A I
*I vs_31_44:A I
*I vs_30_44:A I
*I vs_29_44:A I
*I vs_28_44:A I
*I vs_27_44:A I
*I vs_26_44:A I
*I vs_25_44:A I
*I vs_24_44:A I
*I vs_23_44:A I
*I vs_22_44:A I
*I vs_21_44:A I
*I vs_20_44:A I
*I vs_19_44:A I
*I vs_18_44:A I
*I vs_17_44:A I
*I vs_16_44:A I
*I vs_15_44:A I
*I vs_14_44:A I
*I vs_13_44:A I
*I vs_12_44:A I
*I vs_11_44:A I
*I vs_10_44:A I
*I vs_9_44:A I
*I vs_8_44:A I
*I vs_7_44:A I
*I vs_6_44:A I
*I vs_5_44:A I
*I vs_4_44:A I
*I vs_3_44:A I
*I vs_2_44:A I
*I vs_1_44:A I
*I vs_0_44:A I
*CAP
1 pgm_lp44:1 1.081660e-01
*RES
1 lt_lp44:Z pgm_lp44:1 1.227449e+02
2 pgm_lp44:1 vs_63_44:A 1.000000e-03
3 pgm_lp44:1 vs_62_44:A 1.000000e-03
4 pgm_lp44:1 vs_61_44:A 1.000000e-03
5 pgm_lp44:1 vs_60_44:A 1.000000e-03
6 pgm_lp44:1 vs_59_44:A 1.000000e-03
7 pgm_lp44:1 vs_58_44:A 1.000000e-03
8 pgm_lp44:1 vs_57_44:A 1.000000e-03
9 pgm_lp44:1 vs_56_44:A 1.000000e-03
10 pgm_lp44:1 vs_55_44:A 1.000000e-03
11 pgm_lp44:1 vs_54_44:A 1.000000e-03
12 pgm_lp44:1 vs_53_44:A 1.000000e-03
13 pgm_lp44:1 vs_52_44:A 1.000000e-03
14 pgm_lp44:1 vs_51_44:A 1.000000e-03
15 pgm_lp44:1 vs_50_44:A 1.000000e-03
16 pgm_lp44:1 vs_49_44:A 1.000000e-03
17 pgm_lp44:1 vs_48_44:A 1.000000e-03
18 pgm_lp44:1 vs_47_44:A 1.000000e-03
19 pgm_lp44:1 vs_46_44:A 1.000000e-03
20 pgm_lp44:1 vs_45_44:A 1.000000e-03
21 pgm_lp44:1 vs_44_44:A 1.000000e-03
22 pgm_lp44:1 vs_43_44:A 1.000000e-03
23 pgm_lp44:1 vs_42_44:A 1.000000e-03
24 pgm_lp44:1 vs_41_44:A 1.000000e-03
25 pgm_lp44:1 vs_40_44:A 1.000000e-03
26 pgm_lp44:1 vs_39_44:A 1.000000e-03
27 pgm_lp44:1 vs_38_44:A 1.000000e-03
28 pgm_lp44:1 vs_37_44:A 1.000000e-03
29 pgm_lp44:1 vs_36_44:A 1.000000e-03
30 pgm_lp44:1 vs_35_44:A 1.000000e-03
31 pgm_lp44:1 vs_34_44:A 1.000000e-03
32 pgm_lp44:1 vs_33_44:A 1.000000e-03
33 pgm_lp44:1 vs_32_44:A 1.000000e-03
34 pgm_lp44:1 vs_31_44:A 1.000000e-03
35 pgm_lp44:1 vs_30_44:A 1.000000e-03
36 pgm_lp44:1 vs_29_44:A 1.000000e-03
37 pgm_lp44:1 vs_28_44:A 1.000000e-03
38 pgm_lp44:1 vs_27_44:A 1.000000e-03
39 pgm_lp44:1 vs_26_44:A 1.000000e-03
40 pgm_lp44:1 vs_25_44:A 1.000000e-03
41 pgm_lp44:1 vs_24_44:A 1.000000e-03
42 pgm_lp44:1 vs_23_44:A 1.000000e-03
43 pgm_lp44:1 vs_22_44:A 1.000000e-03
44 pgm_lp44:1 vs_21_44:A 1.000000e-03
45 pgm_lp44:1 vs_20_44:A 1.000000e-03
46 pgm_lp44:1 vs_19_44:A 1.000000e-03
47 pgm_lp44:1 vs_18_44:A 1.000000e-03
48 pgm_lp44:1 vs_17_44:A 1.000000e-03
49 pgm_lp44:1 vs_16_44:A 1.000000e-03
50 pgm_lp44:1 vs_15_44:A 1.000000e-03
51 pgm_lp44:1 vs_14_44:A 1.000000e-03
52 pgm_lp44:1 vs_13_44:A 1.000000e-03
53 pgm_lp44:1 vs_12_44:A 1.000000e-03
54 pgm_lp44:1 vs_11_44:A 1.000000e-03
55 pgm_lp44:1 vs_10_44:A 1.000000e-03
56 pgm_lp44:1 vs_9_44:A 1.000000e-03
57 pgm_lp44:1 vs_8_44:A 1.000000e-03
58 pgm_lp44:1 vs_7_44:A 1.000000e-03
59 pgm_lp44:1 vs_6_44:A 1.000000e-03
60 pgm_lp44:1 vs_5_44:A 1.000000e-03
61 pgm_lp44:1 vs_4_44:A 1.000000e-03
62 pgm_lp44:1 vs_3_44:A 1.000000e-03
63 pgm_lp44:1 vs_2_44:A 1.000000e-03
64 pgm_lp44:1 vs_1_44:A 1.000000e-03
65 pgm_lp44:1 vs_0_44:A 1.000000e-03
*END

*D_NET pgm_lp5 1.074106e-01
*CONN
*I lt_lp5:Z O
*I vs_63_5:A I
*I vs_62_5:A I
*I vs_61_5:A I
*I vs_60_5:A I
*I vs_59_5:A I
*I vs_58_5:A I
*I vs_57_5:A I
*I vs_56_5:A I
*I vs_55_5:A I
*I vs_54_5:A I
*I vs_53_5:A I
*I vs_52_5:A I
*I vs_51_5:A I
*I vs_50_5:A I
*I vs_49_5:A I
*I vs_48_5:A I
*I vs_47_5:A I
*I vs_46_5:A I
*I vs_45_5:A I
*I vs_44_5:A I
*I vs_43_5:A I
*I vs_42_5:A I
*I vs_41_5:A I
*I vs_40_5:A I
*I vs_39_5:A I
*I vs_38_5:A I
*I vs_37_5:A I
*I vs_36_5:A I
*I vs_35_5:A I
*I vs_34_5:A I
*I vs_33_5:A I
*I vs_32_5:A I
*I vs_31_5:A I
*I vs_30_5:A I
*I vs_29_5:A I
*I vs_28_5:A I
*I vs_27_5:A I
*I vs_26_5:A I
*I vs_25_5:A I
*I vs_24_5:A I
*I vs_23_5:A I
*I vs_22_5:A I
*I vs_21_5:A I
*I vs_20_5:A I
*I vs_19_5:A I
*I vs_18_5:A I
*I vs_17_5:A I
*I vs_16_5:A I
*I vs_15_5:A I
*I vs_14_5:A I
*I vs_13_5:A I
*I vs_12_5:A I
*I vs_11_5:A I
*I vs_10_5:A I
*I vs_9_5:A I
*I vs_8_5:A I
*I vs_7_5:A I
*I vs_6_5:A I
*I vs_5_5:A I
*I vs_4_5:A I
*I vs_3_5:A I
*I vs_2_5:A I
*I vs_1_5:A I
*I vs_0_5:A I
*CAP
1 pgm_lp5:1 1.074106e-01
*RES
1 lt_lp5:Z pgm_lp5:1 1.218876e+02
2 pgm_lp5:1 vs_63_5:A 1.000000e-03
3 pgm_lp5:1 vs_62_5:A 1.000000e-03
4 pgm_lp5:1 vs_61_5:A 1.000000e-03
5 pgm_lp5:1 vs_60_5:A 1.000000e-03
6 pgm_lp5:1 vs_59_5:A 1.000000e-03
7 pgm_lp5:1 vs_58_5:A 1.000000e-03
8 pgm_lp5:1 vs_57_5:A 1.000000e-03
9 pgm_lp5:1 vs_56_5:A 1.000000e-03
10 pgm_lp5:1 vs_55_5:A 1.000000e-03
11 pgm_lp5:1 vs_54_5:A 1.000000e-03
12 pgm_lp5:1 vs_53_5:A 1.000000e-03
13 pgm_lp5:1 vs_52_5:A 1.000000e-03
14 pgm_lp5:1 vs_51_5:A 1.000000e-03
15 pgm_lp5:1 vs_50_5:A 1.000000e-03
16 pgm_lp5:1 vs_49_5:A 1.000000e-03
17 pgm_lp5:1 vs_48_5:A 1.000000e-03
18 pgm_lp5:1 vs_47_5:A 1.000000e-03
19 pgm_lp5:1 vs_46_5:A 1.000000e-03
20 pgm_lp5:1 vs_45_5:A 1.000000e-03
21 pgm_lp5:1 vs_44_5:A 1.000000e-03
22 pgm_lp5:1 vs_43_5:A 1.000000e-03
23 pgm_lp5:1 vs_42_5:A 1.000000e-03
24 pgm_lp5:1 vs_41_5:A 1.000000e-03
25 pgm_lp5:1 vs_40_5:A 1.000000e-03
26 pgm_lp5:1 vs_39_5:A 1.000000e-03
27 pgm_lp5:1 vs_38_5:A 1.000000e-03
28 pgm_lp5:1 vs_37_5:A 1.000000e-03
29 pgm_lp5:1 vs_36_5:A 1.000000e-03
30 pgm_lp5:1 vs_35_5:A 1.000000e-03
31 pgm_lp5:1 vs_34_5:A 1.000000e-03
32 pgm_lp5:1 vs_33_5:A 1.000000e-03
33 pgm_lp5:1 vs_32_5:A 1.000000e-03
34 pgm_lp5:1 vs_31_5:A 1.000000e-03
35 pgm_lp5:1 vs_30_5:A 1.000000e-03
36 pgm_lp5:1 vs_29_5:A 1.000000e-03
37 pgm_lp5:1 vs_28_5:A 1.000000e-03
38 pgm_lp5:1 vs_27_5:A 1.000000e-03
39 pgm_lp5:1 vs_26_5:A 1.000000e-03
40 pgm_lp5:1 vs_25_5:A 1.000000e-03
41 pgm_lp5:1 vs_24_5:A 1.000000e-03
42 pgm_lp5:1 vs_23_5:A 1.000000e-03
43 pgm_lp5:1 vs_22_5:A 1.000000e-03
44 pgm_lp5:1 vs_21_5:A 1.000000e-03
45 pgm_lp5:1 vs_20_5:A 1.000000e-03
46 pgm_lp5:1 vs_19_5:A 1.000000e-03
47 pgm_lp5:1 vs_18_5:A 1.000000e-03
48 pgm_lp5:1 vs_17_5:A 1.000000e-03
49 pgm_lp5:1 vs_16_5:A 1.000000e-03
50 pgm_lp5:1 vs_15_5:A 1.000000e-03
51 pgm_lp5:1 vs_14_5:A 1.000000e-03
52 pgm_lp5:1 vs_13_5:A 1.000000e-03
53 pgm_lp5:1 vs_12_5:A 1.000000e-03
54 pgm_lp5:1 vs_11_5:A 1.000000e-03
55 pgm_lp5:1 vs_10_5:A 1.000000e-03
56 pgm_lp5:1 vs_9_5:A 1.000000e-03
57 pgm_lp5:1 vs_8_5:A 1.000000e-03
58 pgm_lp5:1 vs_7_5:A 1.000000e-03
59 pgm_lp5:1 vs_6_5:A 1.000000e-03
60 pgm_lp5:1 vs_5_5:A 1.000000e-03
61 pgm_lp5:1 vs_4_5:A 1.000000e-03
62 pgm_lp5:1 vs_3_5:A 1.000000e-03
63 pgm_lp5:1 vs_2_5:A 1.000000e-03
64 pgm_lp5:1 vs_1_5:A 1.000000e-03
65 pgm_lp5:1 vs_0_5:A 1.000000e-03
*END

*D_NET pgm_lp59 1.132083e-01
*CONN
*I lt_lp59:Z O
*I vs_63_59:A I
*I vs_62_59:A I
*I vs_61_59:A I
*I vs_60_59:A I
*I vs_59_59:A I
*I vs_58_59:A I
*I vs_57_59:A I
*I vs_56_59:A I
*I vs_55_59:A I
*I vs_54_59:A I
*I vs_53_59:A I
*I vs_52_59:A I
*I vs_51_59:A I
*I vs_50_59:A I
*I vs_49_59:A I
*I vs_48_59:A I
*I vs_47_59:A I
*I vs_46_59:A I
*I vs_45_59:A I
*I vs_44_59:A I
*I vs_43_59:A I
*I vs_42_59:A I
*I vs_41_59:A I
*I vs_40_59:A I
*I vs_39_59:A I
*I vs_38_59:A I
*I vs_37_59:A I
*I vs_36_59:A I
*I vs_35_59:A I
*I vs_34_59:A I
*I vs_33_59:A I
*I vs_32_59:A I
*I vs_31_59:A I
*I vs_30_59:A I
*I vs_29_59:A I
*I vs_28_59:A I
*I vs_27_59:A I
*I vs_26_59:A I
*I vs_25_59:A I
*I vs_24_59:A I
*I vs_23_59:A I
*I vs_22_59:A I
*I vs_21_59:A I
*I vs_20_59:A I
*I vs_19_59:A I
*I vs_18_59:A I
*I vs_17_59:A I
*I vs_16_59:A I
*I vs_15_59:A I
*I vs_14_59:A I
*I vs_13_59:A I
*I vs_12_59:A I
*I vs_11_59:A I
*I vs_10_59:A I
*I vs_9_59:A I
*I vs_8_59:A I
*I vs_7_59:A I
*I vs_6_59:A I
*I vs_5_59:A I
*I vs_4_59:A I
*I vs_3_59:A I
*I vs_2_59:A I
*I vs_1_59:A I
*I vs_0_59:A I
*CAP
1 pgm_lp59:1 1.132083e-01
*RES
1 lt_lp59:Z pgm_lp59:1 1.284668e+02
2 pgm_lp59:1 vs_63_59:A 1.000000e-03
3 pgm_lp59:1 vs_62_59:A 1.000000e-03
4 pgm_lp59:1 vs_61_59:A 1.000000e-03
5 pgm_lp59:1 vs_60_59:A 1.000000e-03
6 pgm_lp59:1 vs_59_59:A 1.000000e-03
7 pgm_lp59:1 vs_58_59:A 1.000000e-03
8 pgm_lp59:1 vs_57_59:A 1.000000e-03
9 pgm_lp59:1 vs_56_59:A 1.000000e-03
10 pgm_lp59:1 vs_55_59:A 1.000000e-03
11 pgm_lp59:1 vs_54_59:A 1.000000e-03
12 pgm_lp59:1 vs_53_59:A 1.000000e-03
13 pgm_lp59:1 vs_52_59:A 1.000000e-03
14 pgm_lp59:1 vs_51_59:A 1.000000e-03
15 pgm_lp59:1 vs_50_59:A 1.000000e-03
16 pgm_lp59:1 vs_49_59:A 1.000000e-03
17 pgm_lp59:1 vs_48_59:A 1.000000e-03
18 pgm_lp59:1 vs_47_59:A 1.000000e-03
19 pgm_lp59:1 vs_46_59:A 1.000000e-03
20 pgm_lp59:1 vs_45_59:A 1.000000e-03
21 pgm_lp59:1 vs_44_59:A 1.000000e-03
22 pgm_lp59:1 vs_43_59:A 1.000000e-03
23 pgm_lp59:1 vs_42_59:A 1.000000e-03
24 pgm_lp59:1 vs_41_59:A 1.000000e-03
25 pgm_lp59:1 vs_40_59:A 1.000000e-03
26 pgm_lp59:1 vs_39_59:A 1.000000e-03
27 pgm_lp59:1 vs_38_59:A 1.000000e-03
28 pgm_lp59:1 vs_37_59:A 1.000000e-03
29 pgm_lp59:1 vs_36_59:A 1.000000e-03
30 pgm_lp59:1 vs_35_59:A 1.000000e-03
31 pgm_lp59:1 vs_34_59:A 1.000000e-03
32 pgm_lp59:1 vs_33_59:A 1.000000e-03
33 pgm_lp59:1 vs_32_59:A 1.000000e-03
34 pgm_lp59:1 vs_31_59:A 1.000000e-03
35 pgm_lp59:1 vs_30_59:A 1.000000e-03
36 pgm_lp59:1 vs_29_59:A 1.000000e-03
37 pgm_lp59:1 vs_28_59:A 1.000000e-03
38 pgm_lp59:1 vs_27_59:A 1.000000e-03
39 pgm_lp59:1 vs_26_59:A 1.000000e-03
40 pgm_lp59:1 vs_25_59:A 1.000000e-03
41 pgm_lp59:1 vs_24_59:A 1.000000e-03
42 pgm_lp59:1 vs_23_59:A 1.000000e-03
43 pgm_lp59:1 vs_22_59:A 1.000000e-03
44 pgm_lp59:1 vs_21_59:A 1.000000e-03
45 pgm_lp59:1 vs_20_59:A 1.000000e-03
46 pgm_lp59:1 vs_19_59:A 1.000000e-03
47 pgm_lp59:1 vs_18_59:A 1.000000e-03
48 pgm_lp59:1 vs_17_59:A 1.000000e-03
49 pgm_lp59:1 vs_16_59:A 1.000000e-03
50 pgm_lp59:1 vs_15_59:A 1.000000e-03
51 pgm_lp59:1 vs_14_59:A 1.000000e-03
52 pgm_lp59:1 vs_13_59:A 1.000000e-03
53 pgm_lp59:1 vs_12_59:A 1.000000e-03
54 pgm_lp59:1 vs_11_59:A 1.000000e-03
55 pgm_lp59:1 vs_10_59:A 1.000000e-03
56 pgm_lp59:1 vs_9_59:A 1.000000e-03
57 pgm_lp59:1 vs_8_59:A 1.000000e-03
58 pgm_lp59:1 vs_7_59:A 1.000000e-03
59 pgm_lp59:1 vs_6_59:A 1.000000e-03
60 pgm_lp59:1 vs_5_59:A 1.000000e-03
61 pgm_lp59:1 vs_4_59:A 1.000000e-03
62 pgm_lp59:1 vs_3_59:A 1.000000e-03
63 pgm_lp59:1 vs_2_59:A 1.000000e-03
64 pgm_lp59:1 vs_1_59:A 1.000000e-03
65 pgm_lp59:1 vs_0_59:A 1.000000e-03
*END

*D_NET pgm_lp60 1.081660e-01
*CONN
*I lt_lp60:Z O
*I vs_63_60:A I
*I vs_62_60:A I
*I vs_61_60:A I
*I vs_60_60:A I
*I vs_59_60:A I
*I vs_58_60:A I
*I vs_57_60:A I
*I vs_56_60:A I
*I vs_55_60:A I
*I vs_54_60:A I
*I vs_53_60:A I
*I vs_52_60:A I
*I vs_51_60:A I
*I vs_50_60:A I
*I vs_49_60:A I
*I vs_48_60:A I
*I vs_47_60:A I
*I vs_46_60:A I
*I vs_45_60:A I
*I vs_44_60:A I
*I vs_43_60:A I
*I vs_42_60:A I
*I vs_41_60:A I
*I vs_40_60:A I
*I vs_39_60:A I
*I vs_38_60:A I
*I vs_37_60:A I
*I vs_36_60:A I
*I vs_35_60:A I
*I vs_34_60:A I
*I vs_33_60:A I
*I vs_32_60:A I
*I vs_31_60:A I
*I vs_30_60:A I
*I vs_29_60:A I
*I vs_28_60:A I
*I vs_27_60:A I
*I vs_26_60:A I
*I vs_25_60:A I
*I vs_24_60:A I
*I vs_23_60:A I
*I vs_22_60:A I
*I vs_21_60:A I
*I vs_20_60:A I
*I vs_19_60:A I
*I vs_18_60:A I
*I vs_17_60:A I
*I vs_16_60:A I
*I vs_15_60:A I
*I vs_14_60:A I
*I vs_13_60:A I
*I vs_12_60:A I
*I vs_11_60:A I
*I vs_10_60:A I
*I vs_9_60:A I
*I vs_8_60:A I
*I vs_7_60:A I
*I vs_6_60:A I
*I vs_5_60:A I
*I vs_4_60:A I
*I vs_3_60:A I
*I vs_2_60:A I
*I vs_1_60:A I
*I vs_0_60:A I
*CAP
1 pgm_lp60:1 1.081660e-01
*RES
1 lt_lp60:Z pgm_lp60:1 1.227449e+02
2 pgm_lp60:1 vs_63_60:A 1.000000e-03
3 pgm_lp60:1 vs_62_60:A 1.000000e-03
4 pgm_lp60:1 vs_61_60:A 1.000000e-03
5 pgm_lp60:1 vs_60_60:A 1.000000e-03
6 pgm_lp60:1 vs_59_60:A 1.000000e-03
7 pgm_lp60:1 vs_58_60:A 1.000000e-03
8 pgm_lp60:1 vs_57_60:A 1.000000e-03
9 pgm_lp60:1 vs_56_60:A 1.000000e-03
10 pgm_lp60:1 vs_55_60:A 1.000000e-03
11 pgm_lp60:1 vs_54_60:A 1.000000e-03
12 pgm_lp60:1 vs_53_60:A 1.000000e-03
13 pgm_lp60:1 vs_52_60:A 1.000000e-03
14 pgm_lp60:1 vs_51_60:A 1.000000e-03
15 pgm_lp60:1 vs_50_60:A 1.000000e-03
16 pgm_lp60:1 vs_49_60:A 1.000000e-03
17 pgm_lp60:1 vs_48_60:A 1.000000e-03
18 pgm_lp60:1 vs_47_60:A 1.000000e-03
19 pgm_lp60:1 vs_46_60:A 1.000000e-03
20 pgm_lp60:1 vs_45_60:A 1.000000e-03
21 pgm_lp60:1 vs_44_60:A 1.000000e-03
22 pgm_lp60:1 vs_43_60:A 1.000000e-03
23 pgm_lp60:1 vs_42_60:A 1.000000e-03
24 pgm_lp60:1 vs_41_60:A 1.000000e-03
25 pgm_lp60:1 vs_40_60:A 1.000000e-03
26 pgm_lp60:1 vs_39_60:A 1.000000e-03
27 pgm_lp60:1 vs_38_60:A 1.000000e-03
28 pgm_lp60:1 vs_37_60:A 1.000000e-03
29 pgm_lp60:1 vs_36_60:A 1.000000e-03
30 pgm_lp60:1 vs_35_60:A 1.000000e-03
31 pgm_lp60:1 vs_34_60:A 1.000000e-03
32 pgm_lp60:1 vs_33_60:A 1.000000e-03
33 pgm_lp60:1 vs_32_60:A 1.000000e-03
34 pgm_lp60:1 vs_31_60:A 1.000000e-03
35 pgm_lp60:1 vs_30_60:A 1.000000e-03
36 pgm_lp60:1 vs_29_60:A 1.000000e-03
37 pgm_lp60:1 vs_28_60:A 1.000000e-03
38 pgm_lp60:1 vs_27_60:A 1.000000e-03
39 pgm_lp60:1 vs_26_60:A 1.000000e-03
40 pgm_lp60:1 vs_25_60:A 1.000000e-03
41 pgm_lp60:1 vs_24_60:A 1.000000e-03
42 pgm_lp60:1 vs_23_60:A 1.000000e-03
43 pgm_lp60:1 vs_22_60:A 1.000000e-03
44 pgm_lp60:1 vs_21_60:A 1.000000e-03
45 pgm_lp60:1 vs_20_60:A 1.000000e-03
46 pgm_lp60:1 vs_19_60:A 1.000000e-03
47 pgm_lp60:1 vs_18_60:A 1.000000e-03
48 pgm_lp60:1 vs_17_60:A 1.000000e-03
49 pgm_lp60:1 vs_16_60:A 1.000000e-03
50 pgm_lp60:1 vs_15_60:A 1.000000e-03
51 pgm_lp60:1 vs_14_60:A 1.000000e-03
52 pgm_lp60:1 vs_13_60:A 1.000000e-03
53 pgm_lp60:1 vs_12_60:A 1.000000e-03
54 pgm_lp60:1 vs_11_60:A 1.000000e-03
55 pgm_lp60:1 vs_10_60:A 1.000000e-03
56 pgm_lp60:1 vs_9_60:A 1.000000e-03
57 pgm_lp60:1 vs_8_60:A 1.000000e-03
58 pgm_lp60:1 vs_7_60:A 1.000000e-03
59 pgm_lp60:1 vs_6_60:A 1.000000e-03
60 pgm_lp60:1 vs_5_60:A 1.000000e-03
61 pgm_lp60:1 vs_4_60:A 1.000000e-03
62 pgm_lp60:1 vs_3_60:A 1.000000e-03
63 pgm_lp60:1 vs_2_60:A 1.000000e-03
64 pgm_lp60:1 vs_1_60:A 1.000000e-03
65 pgm_lp60:1 vs_0_60:A 1.000000e-03
*END

*D_NET pgm_lp61 1.106872e-01
*CONN
*I lt_lp61:Z O
*I vs_63_61:A I
*I vs_62_61:A I
*I vs_61_61:A I
*I vs_60_61:A I
*I vs_59_61:A I
*I vs_58_61:A I
*I vs_57_61:A I
*I vs_56_61:A I
*I vs_55_61:A I
*I vs_54_61:A I
*I vs_53_61:A I
*I vs_52_61:A I
*I vs_51_61:A I
*I vs_50_61:A I
*I vs_49_61:A I
*I vs_48_61:A I
*I vs_47_61:A I
*I vs_46_61:A I
*I vs_45_61:A I
*I vs_44_61:A I
*I vs_43_61:A I
*I vs_42_61:A I
*I vs_41_61:A I
*I vs_40_61:A I
*I vs_39_61:A I
*I vs_38_61:A I
*I vs_37_61:A I
*I vs_36_61:A I
*I vs_35_61:A I
*I vs_34_61:A I
*I vs_33_61:A I
*I vs_32_61:A I
*I vs_31_61:A I
*I vs_30_61:A I
*I vs_29_61:A I
*I vs_28_61:A I
*I vs_27_61:A I
*I vs_26_61:A I
*I vs_25_61:A I
*I vs_24_61:A I
*I vs_23_61:A I
*I vs_22_61:A I
*I vs_21_61:A I
*I vs_20_61:A I
*I vs_19_61:A I
*I vs_18_61:A I
*I vs_17_61:A I
*I vs_16_61:A I
*I vs_15_61:A I
*I vs_14_61:A I
*I vs_13_61:A I
*I vs_12_61:A I
*I vs_11_61:A I
*I vs_10_61:A I
*I vs_9_61:A I
*I vs_8_61:A I
*I vs_7_61:A I
*I vs_6_61:A I
*I vs_5_61:A I
*I vs_4_61:A I
*I vs_3_61:A I
*I vs_2_61:A I
*I vs_1_61:A I
*I vs_0_61:A I
*CAP
1 pgm_lp61:1 1.106872e-01
*RES
1 lt_lp61:Z pgm_lp61:1 1.256058e+02
2 pgm_lp61:1 vs_63_61:A 1.000000e-03
3 pgm_lp61:1 vs_62_61:A 1.000000e-03
4 pgm_lp61:1 vs_61_61:A 1.000000e-03
5 pgm_lp61:1 vs_60_61:A 1.000000e-03
6 pgm_lp61:1 vs_59_61:A 1.000000e-03
7 pgm_lp61:1 vs_58_61:A 1.000000e-03
8 pgm_lp61:1 vs_57_61:A 1.000000e-03
9 pgm_lp61:1 vs_56_61:A 1.000000e-03
10 pgm_lp61:1 vs_55_61:A 1.000000e-03
11 pgm_lp61:1 vs_54_61:A 1.000000e-03
12 pgm_lp61:1 vs_53_61:A 1.000000e-03
13 pgm_lp61:1 vs_52_61:A 1.000000e-03
14 pgm_lp61:1 vs_51_61:A 1.000000e-03
15 pgm_lp61:1 vs_50_61:A 1.000000e-03
16 pgm_lp61:1 vs_49_61:A 1.000000e-03
17 pgm_lp61:1 vs_48_61:A 1.000000e-03
18 pgm_lp61:1 vs_47_61:A 1.000000e-03
19 pgm_lp61:1 vs_46_61:A 1.000000e-03
20 pgm_lp61:1 vs_45_61:A 1.000000e-03
21 pgm_lp61:1 vs_44_61:A 1.000000e-03
22 pgm_lp61:1 vs_43_61:A 1.000000e-03
23 pgm_lp61:1 vs_42_61:A 1.000000e-03
24 pgm_lp61:1 vs_41_61:A 1.000000e-03
25 pgm_lp61:1 vs_40_61:A 1.000000e-03
26 pgm_lp61:1 vs_39_61:A 1.000000e-03
27 pgm_lp61:1 vs_38_61:A 1.000000e-03
28 pgm_lp61:1 vs_37_61:A 1.000000e-03
29 pgm_lp61:1 vs_36_61:A 1.000000e-03
30 pgm_lp61:1 vs_35_61:A 1.000000e-03
31 pgm_lp61:1 vs_34_61:A 1.000000e-03
32 pgm_lp61:1 vs_33_61:A 1.000000e-03
33 pgm_lp61:1 vs_32_61:A 1.000000e-03
34 pgm_lp61:1 vs_31_61:A 1.000000e-03
35 pgm_lp61:1 vs_30_61:A 1.000000e-03
36 pgm_lp61:1 vs_29_61:A 1.000000e-03
37 pgm_lp61:1 vs_28_61:A 1.000000e-03
38 pgm_lp61:1 vs_27_61:A 1.000000e-03
39 pgm_lp61:1 vs_26_61:A 1.000000e-03
40 pgm_lp61:1 vs_25_61:A 1.000000e-03
41 pgm_lp61:1 vs_24_61:A 1.000000e-03
42 pgm_lp61:1 vs_23_61:A 1.000000e-03
43 pgm_lp61:1 vs_22_61:A 1.000000e-03
44 pgm_lp61:1 vs_21_61:A 1.000000e-03
45 pgm_lp61:1 vs_20_61:A 1.000000e-03
46 pgm_lp61:1 vs_19_61:A 1.000000e-03
47 pgm_lp61:1 vs_18_61:A 1.000000e-03
48 pgm_lp61:1 vs_17_61:A 1.000000e-03
49 pgm_lp61:1 vs_16_61:A 1.000000e-03
50 pgm_lp61:1 vs_15_61:A 1.000000e-03
51 pgm_lp61:1 vs_14_61:A 1.000000e-03
52 pgm_lp61:1 vs_13_61:A 1.000000e-03
53 pgm_lp61:1 vs_12_61:A 1.000000e-03
54 pgm_lp61:1 vs_11_61:A 1.000000e-03
55 pgm_lp61:1 vs_10_61:A 1.000000e-03
56 pgm_lp61:1 vs_9_61:A 1.000000e-03
57 pgm_lp61:1 vs_8_61:A 1.000000e-03
58 pgm_lp61:1 vs_7_61:A 1.000000e-03
59 pgm_lp61:1 vs_6_61:A 1.000000e-03
60 pgm_lp61:1 vs_5_61:A 1.000000e-03
61 pgm_lp61:1 vs_4_61:A 1.000000e-03
62 pgm_lp61:1 vs_3_61:A 1.000000e-03
63 pgm_lp61:1 vs_2_61:A 1.000000e-03
64 pgm_lp61:1 vs_1_61:A 1.000000e-03
65 pgm_lp61:1 vs_0_61:A 1.000000e-03
*END

*D_NET pgm_lp8 1.081660e-01
*CONN
*I lt_lp8:Z O
*I vs_63_8:A I
*I vs_62_8:A I
*I vs_61_8:A I
*I vs_60_8:A I
*I vs_59_8:A I
*I vs_58_8:A I
*I vs_57_8:A I
*I vs_56_8:A I
*I vs_55_8:A I
*I vs_54_8:A I
*I vs_53_8:A I
*I vs_52_8:A I
*I vs_51_8:A I
*I vs_50_8:A I
*I vs_49_8:A I
*I vs_48_8:A I
*I vs_47_8:A I
*I vs_46_8:A I
*I vs_45_8:A I
*I vs_44_8:A I
*I vs_43_8:A I
*I vs_42_8:A I
*I vs_41_8:A I
*I vs_40_8:A I
*I vs_39_8:A I
*I vs_38_8:A I
*I vs_37_8:A I
*I vs_36_8:A I
*I vs_35_8:A I
*I vs_34_8:A I
*I vs_33_8:A I
*I vs_32_8:A I
*I vs_31_8:A I
*I vs_30_8:A I
*I vs_29_8:A I
*I vs_28_8:A I
*I vs_27_8:A I
*I vs_26_8:A I
*I vs_25_8:A I
*I vs_24_8:A I
*I vs_23_8:A I
*I vs_22_8:A I
*I vs_21_8:A I
*I vs_20_8:A I
*I vs_19_8:A I
*I vs_18_8:A I
*I vs_17_8:A I
*I vs_16_8:A I
*I vs_15_8:A I
*I vs_14_8:A I
*I vs_13_8:A I
*I vs_12_8:A I
*I vs_11_8:A I
*I vs_10_8:A I
*I vs_9_8:A I
*I vs_8_8:A I
*I vs_7_8:A I
*I vs_6_8:A I
*I vs_5_8:A I
*I vs_4_8:A I
*I vs_3_8:A I
*I vs_2_8:A I
*I vs_1_8:A I
*I vs_0_8:A I
*CAP
1 pgm_lp8:1 1.081660e-01
*RES
1 lt_lp8:Z pgm_lp8:1 1.227449e+02
2 pgm_lp8:1 vs_63_8:A 1.000000e-03
3 pgm_lp8:1 vs_62_8:A 1.000000e-03
4 pgm_lp8:1 vs_61_8:A 1.000000e-03
5 pgm_lp8:1 vs_60_8:A 1.000000e-03
6 pgm_lp8:1 vs_59_8:A 1.000000e-03
7 pgm_lp8:1 vs_58_8:A 1.000000e-03
8 pgm_lp8:1 vs_57_8:A 1.000000e-03
9 pgm_lp8:1 vs_56_8:A 1.000000e-03
10 pgm_lp8:1 vs_55_8:A 1.000000e-03
11 pgm_lp8:1 vs_54_8:A 1.000000e-03
12 pgm_lp8:1 vs_53_8:A 1.000000e-03
13 pgm_lp8:1 vs_52_8:A 1.000000e-03
14 pgm_lp8:1 vs_51_8:A 1.000000e-03
15 pgm_lp8:1 vs_50_8:A 1.000000e-03
16 pgm_lp8:1 vs_49_8:A 1.000000e-03
17 pgm_lp8:1 vs_48_8:A 1.000000e-03
18 pgm_lp8:1 vs_47_8:A 1.000000e-03
19 pgm_lp8:1 vs_46_8:A 1.000000e-03
20 pgm_lp8:1 vs_45_8:A 1.000000e-03
21 pgm_lp8:1 vs_44_8:A 1.000000e-03
22 pgm_lp8:1 vs_43_8:A 1.000000e-03
23 pgm_lp8:1 vs_42_8:A 1.000000e-03
24 pgm_lp8:1 vs_41_8:A 1.000000e-03
25 pgm_lp8:1 vs_40_8:A 1.000000e-03
26 pgm_lp8:1 vs_39_8:A 1.000000e-03
27 pgm_lp8:1 vs_38_8:A 1.000000e-03
28 pgm_lp8:1 vs_37_8:A 1.000000e-03
29 pgm_lp8:1 vs_36_8:A 1.000000e-03
30 pgm_lp8:1 vs_35_8:A 1.000000e-03
31 pgm_lp8:1 vs_34_8:A 1.000000e-03
32 pgm_lp8:1 vs_33_8:A 1.000000e-03
33 pgm_lp8:1 vs_32_8:A 1.000000e-03
34 pgm_lp8:1 vs_31_8:A 1.000000e-03
35 pgm_lp8:1 vs_30_8:A 1.000000e-03
36 pgm_lp8:1 vs_29_8:A 1.000000e-03
37 pgm_lp8:1 vs_28_8:A 1.000000e-03
38 pgm_lp8:1 vs_27_8:A 1.000000e-03
39 pgm_lp8:1 vs_26_8:A 1.000000e-03
40 pgm_lp8:1 vs_25_8:A 1.000000e-03
41 pgm_lp8:1 vs_24_8:A 1.000000e-03
42 pgm_lp8:1 vs_23_8:A 1.000000e-03
43 pgm_lp8:1 vs_22_8:A 1.000000e-03
44 pgm_lp8:1 vs_21_8:A 1.000000e-03
45 pgm_lp8:1 vs_20_8:A 1.000000e-03
46 pgm_lp8:1 vs_19_8:A 1.000000e-03
47 pgm_lp8:1 vs_18_8:A 1.000000e-03
48 pgm_lp8:1 vs_17_8:A 1.000000e-03
49 pgm_lp8:1 vs_16_8:A 1.000000e-03
50 pgm_lp8:1 vs_15_8:A 1.000000e-03
51 pgm_lp8:1 vs_14_8:A 1.000000e-03
52 pgm_lp8:1 vs_13_8:A 1.000000e-03
53 pgm_lp8:1 vs_12_8:A 1.000000e-03
54 pgm_lp8:1 vs_11_8:A 1.000000e-03
55 pgm_lp8:1 vs_10_8:A 1.000000e-03
56 pgm_lp8:1 vs_9_8:A 1.000000e-03
57 pgm_lp8:1 vs_8_8:A 1.000000e-03
58 pgm_lp8:1 vs_7_8:A 1.000000e-03
59 pgm_lp8:1 vs_6_8:A 1.000000e-03
60 pgm_lp8:1 vs_5_8:A 1.000000e-03
61 pgm_lp8:1 vs_4_8:A 1.000000e-03
62 pgm_lp8:1 vs_3_8:A 1.000000e-03
63 pgm_lp8:1 vs_2_8:A 1.000000e-03
64 pgm_lp8:1 vs_1_8:A 1.000000e-03
65 pgm_lp8:1 vs_0_8:A 1.000000e-03
*END

