*SPEF "ieee 1481-1999"
*DESIGN "top"
*DATE "r3"
*VENDOR "r3_prog_spef"
*PROGRAM "r3_prog_spef.py"
*VERSION "1"
*DESIGN_FLOW "NAME_SCOPE LOCAL" "PIN_CAP NONE"
*DIVIDER /
*DELIMITER :
*BUS_DELIMITER []
*T_UNIT 1 NS
*C_UNIT 1 PF
*R_UNIT 1 OHM
*L_UNIT 1 HENRY

*D_NET pgm_pn0_0_s0 8.408799e-03
*CONN
*I lt_pn0_0_s0:Z O
*I vs_6_0:A I
*CAP
1 pgm_pn0_0_s0:1 8.408799e-03
*RES
1 lt_pn0_0_s0:Z pgm_pn0_0_s0:1 7.969981e+00
2 pgm_pn0_0_s0:1 vs_6_0:A 1.000000e-03
*END

*D_NET pgm_pn0_0_s1 1.364705e-02
*CONN
*I lt_pn0_0_s1:Z O
*I vs_26_0:A I
*I vs_25_0:A I
*CAP
1 pgm_pn0_0_s1:1 1.364705e-02
*RES
1 lt_pn0_0_s1:Z pgm_pn0_0_s1:1 1.405823e+01
2 pgm_pn0_0_s1:1 vs_26_0:A 1.000000e-03
3 pgm_pn0_0_s1:1 vs_25_0:A 1.000000e-03
*END

*D_NET pgm_pn0_0_s2 1.842120e-02
*CONN
*I lt_pn0_0_s2:Z O
*I vs_46_0:A I
*CAP
1 pgm_pn0_0_s2:1 1.842120e-02
*RES
1 lt_pn0_0_s2:Z pgm_pn0_0_s2:1 2.090405e+01
2 pgm_pn0_0_s2:1 vs_46_0:A 1.000000e-03
*END

*D_NET pgm_pn0_11_s0 4.988951e-03
*CONN
*I lt_pn0_11_s0:Z O
*I vs_11_0:A I
*CAP
1 pgm_pn0_11_s0:1 4.988951e-03
*RES
1 lt_pn0_11_s0:Z pgm_pn0_11_s0:1 5.661372e+00
2 pgm_pn0_11_s0:1 vs_11_0:A 1.000000e-03
*END

*D_NET pgm_pn0_12_s0 1.738730e-02
*CONN
*I lt_pn0_12_s0:Z O
*I vs_4_0:A I
*CAP
1 pgm_pn0_12_s0:1 1.738730e-02
*RES
1 lt_pn0_12_s0:Z pgm_pn0_12_s0:1 1.686280e+01
2 pgm_pn0_12_s0:1 vs_4_0:A 1.000000e-03
*END

*D_NET pgm_pn0_1_s0 1.677493e-02
*CONN
*I lt_pn0_1_s0:Z O
*I vs_12_0:A I
*I vs_3_0:A I
*I vs_2_0:A I
*CAP
1 pgm_pn0_1_s0:1 1.677493e-02
*RES
1 lt_pn0_1_s0:Z pgm_pn0_1_s0:1 1.646746e+01
2 pgm_pn0_1_s0:1 vs_12_0:A 1.000000e-03
3 pgm_pn0_1_s0:1 vs_3_0:A 1.000000e-03
4 pgm_pn0_1_s0:1 vs_2_0:A 1.000000e-03
*END

*D_NET pgm_pn0_1_s1 2.082680e-03
*CONN
*I lt_pn0_1_s1:Z O
*I vs_17_0:A I
*CAP
1 pgm_pn0_1_s1:1 2.082680e-03
*RES
1 lt_pn0_1_s1:Z pgm_pn0_1_s1:1 2.363388e+00
2 pgm_pn0_1_s1:1 vs_17_0:A 1.000000e-03
*END

*D_NET pgm_pn0_1_s2 1.008946e-02
*CONN
*I lt_pn0_1_s2:Z O
*I vs_41_0:A I
*CAP
1 pgm_pn0_1_s2:1 1.008946e-02
*RES
1 lt_pn0_1_s2:Z pgm_pn0_1_s2:1 1.016512e+01
2 pgm_pn0_1_s2:1 vs_41_0:A 1.000000e-03
*END

*D_NET pgm_pn0_1_s3 1.950270e-02
*CONN
*I lt_pn0_1_s3:Z O
*I vs_63_0:A I
*I vs_55_0:A I
*CAP
1 pgm_pn0_1_s3:1 1.950270e-02
*RES
1 lt_pn0_1_s3:Z pgm_pn0_1_s3:1 2.027118e+01
2 pgm_pn0_1_s3:1 vs_63_0:A 1.000000e-03
3 pgm_pn0_1_s3:1 vs_55_0:A 1.000000e-03
*END

*D_NET pgm_pn0_2_s1 1.635629e-02
*CONN
*I lt_pn0_2_s1:Z O
*I vs_31_0:A I
*CAP
1 pgm_pn0_2_s1:1 1.635629e-02
*RES
1 lt_pn0_2_s1:Z pgm_pn0_2_s1:1 1.856083e+01
2 pgm_pn0_2_s1:1 vs_31_0:A 1.000000e-03
*END

*D_NET pgm_pn0_2_s2 1.046969e-02
*CONN
*I lt_pn0_2_s2:Z O
*I vs_42_0:A I
*I vs_38_0:A I
*I vs_35_0:A I
*CAP
1 pgm_pn0_2_s2:1 1.046969e-02
*RES
1 lt_pn0_2_s2:Z pgm_pn0_2_s2:1 1.188081e+01
2 pgm_pn0_2_s2:1 vs_42_0:A 1.000000e-03
3 pgm_pn0_2_s2:1 vs_38_0:A 1.000000e-03
4 pgm_pn0_2_s2:1 vs_35_0:A 1.000000e-03
*END

*D_NET pgm_pn0_3_s3 1.067410e-02
*CONN
*I lt_pn0_3_s3:Z O
*I vs_60_0:A I
*CAP
1 pgm_pn0_3_s3:1 1.067410e-02
*RES
1 lt_pn0_3_s3:Z pgm_pn0_3_s3:1 1.211278e+01
2 pgm_pn0_3_s3:1 vs_60_0:A 1.000000e-03
*END

*D_NET pgm_pn0_4_s0 7.622667e-03
*CONN
*I lt_pn0_4_s0:Z O
*I vs_0_0:A I
*CAP
1 pgm_pn0_4_s0:1 7.622667e-03
*RES
1 lt_pn0_4_s0:Z pgm_pn0_4_s0:1 8.650066e+00
2 pgm_pn0_4_s0:1 vs_0_0:A 1.000000e-03
*END

*D_NET pgm_pn0_5_s2 9.148385e-03
*CONN
*I lt_pn0_5_s2:Z O
*I vs_45_0:A I
*CAP
1 pgm_pn0_5_s2:1 9.148385e-03
*RES
1 lt_pn0_5_s2:Z pgm_pn0_5_s2:1 1.038142e+01
2 pgm_pn0_5_s2:1 vs_45_0:A 1.000000e-03
*END

*D_NET pgm_pn0_5_s3 5.335571e-03
*CONN
*I lt_pn0_5_s3:Z O
*I vs_52_0:A I
*I vs_51_0:A I
*CAP
1 pgm_pn0_5_s3:1 5.335571e-03
*RES
1 lt_pn0_5_s3:Z pgm_pn0_5_s3:1 6.054710e+00
2 pgm_pn0_5_s3:1 vs_52_0:A 1.000000e-03
3 pgm_pn0_5_s3:1 vs_51_0:A 1.000000e-03
*END

*D_NET pgm_pn0_6_s1 7.582107e-03
*CONN
*I lt_pn0_6_s1:Z O
*I vs_27_0:A I
*CAP
1 pgm_pn0_6_s1:1 7.582107e-03
*RES
1 lt_pn0_6_s1:Z pgm_pn0_6_s1:1 5.479392e+00
2 pgm_pn0_6_s1:1 vs_27_0:A 1.000000e-03
*END

*D_NET pgm_pn0_7_s1 1.113034e-02
*CONN
*I lt_pn0_7_s1:Z O
*I vs_18_0:A I
*CAP
1 pgm_pn0_7_s1:1 1.113034e-02
*RES
1 lt_pn0_7_s1:Z pgm_pn0_7_s1:1 1.263051e+01
2 pgm_pn0_7_s1:1 vs_18_0:A 1.000000e-03
*END

*D_NET pgm_pn0_7_s2 7.797458e-03
*CONN
*I lt_pn0_7_s2:Z O
*I vs_47_0:A I
*I vs_43_0:A I
*CAP
1 pgm_pn0_7_s2:1 7.797458e-03
*RES
1 lt_pn0_7_s2:Z pgm_pn0_7_s2:1 8.848416e+00
2 pgm_pn0_7_s2:1 vs_47_0:A 1.000000e-03
3 pgm_pn0_7_s2:1 vs_43_0:A 1.000000e-03
*END

*D_NET pgm_pn0_8_s2 8.472922e-03
*CONN
*I lt_pn0_8_s2:Z O
*I vs_36_0:A I
*CAP
1 pgm_pn0_8_s2:1 8.472922e-03
*RES
1 lt_pn0_8_s2:Z pgm_pn0_8_s2:1 9.614920e+00
2 pgm_pn0_8_s2:1 vs_36_0:A 1.000000e-03
*END

*D_NET pgm_pn0_9_s2 1.371073e-02
*CONN
*I lt_pn0_9_s2:Z O
*I vs_33_0:A I
*CAP
1 pgm_pn0_9_s2:1 1.371073e-02
*RES
1 lt_pn0_9_s2:Z pgm_pn0_9_s2:1 1.555869e+01
2 pgm_pn0_9_s2:1 vs_33_0:A 1.000000e-03
*END

*D_NET pgm_pn10_0_s0 1.439212e-02
*CONN
*I lt_pn10_0_s0:Z O
*I vs_11_10:A I
*CAP
1 pgm_pn10_0_s0:1 1.439212e-02
*RES
1 lt_pn10_0_s0:Z pgm_pn10_0_s0:1 1.633192e+01
2 pgm_pn10_0_s0:1 vs_11_10:A 1.000000e-03
*END

*D_NET pgm_pn10_0_s3 4.874022e-03
*CONN
*I lt_pn10_0_s3:Z O
*I vs_51_10:A I
*CAP
1 pgm_pn10_0_s3:1 4.874022e-03
*RES
1 lt_pn10_0_s3:Z pgm_pn10_0_s3:1 3.814800e+00
2 pgm_pn10_0_s3:1 vs_51_10:A 1.000000e-03
*END

*D_NET pgm_pn10_10_s2 1.879152e-02
*CONN
*I lt_pn10_10_s2:Z O
*I vs_46_10:A I
*I vs_33_10:A I
*CAP
1 pgm_pn10_10_s2:1 1.879152e-02
*RES
1 lt_pn10_10_s2:Z pgm_pn10_10_s2:1 2.132428e+01
2 pgm_pn10_10_s2:1 vs_46_10:A 1.000000e-03
3 pgm_pn10_10_s2:1 vs_33_10:A 1.000000e-03
*END

*D_NET pgm_pn10_11_s0 1.707620e-02
*CONN
*I lt_pn10_11_s0:Z O
*I vs_1_10:A I
*CAP
1 pgm_pn10_11_s0:1 1.707620e-02
*RES
1 lt_pn10_11_s0:Z pgm_pn10_11_s0:1 1.937776e+01
2 pgm_pn10_11_s0:1 vs_1_10:A 1.000000e-03
*END

*D_NET pgm_pn10_12_s0 4.405327e-03
*CONN
*I lt_pn10_12_s0:Z O
*I vs_13_10:A I
*CAP
1 pgm_pn10_12_s0:1 4.405327e-03
*RES
1 lt_pn10_12_s0:Z pgm_pn10_12_s0:1 4.999086e+00
2 pgm_pn10_12_s0:1 vs_13_10:A 1.000000e-03
*END

*D_NET pgm_pn10_12_s1 1.689313e-02
*CONN
*I lt_pn10_12_s1:Z O
*I vs_20_10:A I
*CAP
1 pgm_pn10_12_s1:1 1.689313e-02
*RES
1 lt_pn10_12_s1:Z pgm_pn10_12_s1:1 1.745387e+01
2 pgm_pn10_12_s1:1 vs_20_10:A 1.000000e-03
*END

*D_NET pgm_pn10_12_s2 1.808615e-02
*CONN
*I lt_pn10_12_s2:Z O
*I vs_35_10:A I
*CAP
1 pgm_pn10_12_s2:1 1.808615e-02
*RES
1 lt_pn10_12_s2:Z pgm_pn10_12_s2:1 1.851973e+01
2 pgm_pn10_12_s2:1 vs_35_10:A 1.000000e-03
*END

*D_NET pgm_pn10_12_s3 4.455690e-03
*CONN
*I lt_pn10_12_s3:Z O
*I vs_61_10:A I
*CAP
1 pgm_pn10_12_s3:1 4.455690e-03
*RES
1 lt_pn10_12_s3:Z pgm_pn10_12_s3:1 5.056237e+00
2 pgm_pn10_12_s3:1 vs_61_10:A 1.000000e-03
*END

*D_NET pgm_pn10_1_s2 1.175738e-02
*CONN
*I lt_pn10_1_s2:Z O
*I vs_42_10:A I
*CAP
1 pgm_pn10_1_s2:1 1.175738e-02
*RES
1 lt_pn10_1_s2:Z pgm_pn10_1_s2:1 1.205785e+01
2 pgm_pn10_1_s2:1 vs_42_10:A 1.000000e-03
*END

*D_NET pgm_pn10_1_s3 7.010028e-03
*CONN
*I lt_pn10_1_s3:Z O
*I vs_53_10:A I
*CAP
1 pgm_pn10_1_s3:1 7.010028e-03
*RES
1 lt_pn10_1_s3:Z pgm_pn10_1_s3:1 6.238701e+00
2 pgm_pn10_1_s3:1 vs_53_10:A 1.000000e-03
*END

*D_NET pgm_pn10_3_s2 1.255829e-02
*CONN
*I lt_pn10_3_s2:Z O
*I vs_45_10:A I
*I vs_36_10:A I
*CAP
1 pgm_pn10_3_s2:1 1.255829e-02
*RES
1 lt_pn10_3_s2:Z pgm_pn10_3_s2:1 1.425092e+01
2 pgm_pn10_3_s2:1 vs_45_10:A 1.000000e-03
3 pgm_pn10_3_s2:1 vs_36_10:A 1.000000e-03
*END

*D_NET pgm_pn10_4_s1 6.099911e-03
*CONN
*I lt_pn10_4_s1:Z O
*I vs_17_10:A I
*CAP
1 pgm_pn10_4_s1:1 6.099911e-03
*RES
1 lt_pn10_4_s1:Z pgm_pn10_4_s1:1 6.922070e+00
2 pgm_pn10_4_s1:1 vs_17_10:A 1.000000e-03
*END

*D_NET pgm_pn10_4_s3 4.387551e-03
*CONN
*I lt_pn10_4_s3:Z O
*I vs_50_10:A I
*CAP
1 pgm_pn10_4_s3:1 4.387551e-03
*RES
1 lt_pn10_4_s3:Z pgm_pn10_4_s3:1 4.978915e+00
2 pgm_pn10_4_s3:1 vs_50_10:A 1.000000e-03
*END

*D_NET pgm_pn10_5_s2 9.420941e-04
*CONN
*I lt_pn10_5_s2:Z O
*I vs_38_10:A I
*CAP
1 pgm_pn10_5_s2:1 9.420941e-04
*RES
1 lt_pn10_5_s2:Z pgm_pn10_5_s2:1 1.069071e+00
2 pgm_pn10_5_s2:1 vs_38_10:A 1.000000e-03
*END

*D_NET pgm_pn10_5_s3 5.717741e-03
*CONN
*I lt_pn10_5_s3:Z O
*I vs_58_10:A I
*CAP
1 pgm_pn10_5_s3:1 5.717741e-03
*RES
1 lt_pn10_5_s3:Z pgm_pn10_5_s3:1 6.488390e+00
2 pgm_pn10_5_s3:1 vs_58_10:A 1.000000e-03
*END

*D_NET pgm_pn10_6_s0 2.287096e-03
*CONN
*I lt_pn10_6_s0:Z O
*I vs_6_10:A I
*CAP
1 pgm_pn10_6_s0:1 2.287096e-03
*RES
1 lt_pn10_6_s0:Z pgm_pn10_6_s0:1 2.595356e+00
2 pgm_pn10_6_s0:1 vs_6_10:A 1.000000e-03
*END

*D_NET pgm_pn10_6_s1 8.917306e-03
*CONN
*I lt_pn10_6_s1:Z O
*I vs_30_10:A I
*CAP
1 pgm_pn10_6_s1:1 8.917306e-03
*RES
1 lt_pn10_6_s1:Z pgm_pn10_6_s1:1 1.011920e+01
2 pgm_pn10_6_s1:1 vs_30_10:A 1.000000e-03
*END

*D_NET pgm_pn10_6_s2 4.479391e-03
*CONN
*I lt_pn10_6_s2:Z O
*I vs_37_10:A I
*CAP
1 pgm_pn10_6_s2:1 4.479391e-03
*RES
1 lt_pn10_6_s2:Z pgm_pn10_6_s2:1 5.083132e+00
2 pgm_pn10_6_s2:1 vs_37_10:A 1.000000e-03
*END

*D_NET pgm_pn10_8_s2 1.703472e-03
*CONN
*I lt_pn10_8_s2:Z O
*I vs_43_10:A I
*CAP
1 pgm_pn10_8_s2:1 1.703472e-03
*RES
1 lt_pn10_8_s2:Z pgm_pn10_8_s2:1 1.933069e+00
2 pgm_pn10_8_s2:1 vs_43_10:A 1.000000e-03
*END

*D_NET pgm_pn10_9_s1 7.064240e-03
*CONN
*I lt_pn10_9_s1:Z O
*I vs_23_10:A I
*CAP
1 pgm_pn10_9_s1:1 7.064240e-03
*RES
1 lt_pn10_9_s1:Z pgm_pn10_9_s1:1 6.588179e+00
2 pgm_pn10_9_s1:1 vs_23_10:A 1.000000e-03
*END

*D_NET pgm_pn10_9_s3 1.075099e-02
*CONN
*I lt_pn10_9_s3:Z O
*I vs_60_10:A I
*I vs_54_10:A I
*CAP
1 pgm_pn10_9_s3:1 1.075099e-02
*RES
1 lt_pn10_9_s3:Z pgm_pn10_9_s3:1 1.120378e+01
2 pgm_pn10_9_s3:1 vs_60_10:A 1.000000e-03
3 pgm_pn10_9_s3:1 vs_54_10:A 1.000000e-03
*END

*D_NET pgm_pn11_0_s0 1.936329e-02
*CONN
*I lt_pn11_0_s0:Z O
*I vs_15_11:A I
*I vs_13_11:A I
*CAP
1 pgm_pn11_0_s0:1 1.936329e-02
*RES
1 lt_pn11_0_s0:Z pgm_pn11_0_s0:1 2.197312e+01
2 pgm_pn11_0_s0:1 vs_15_11:A 1.000000e-03
3 pgm_pn11_0_s0:1 vs_13_11:A 1.000000e-03
*END

*D_NET pgm_pn11_10_s0 2.953672e-03
*CONN
*I lt_pn11_10_s0:Z O
*I vs_12_11:A I
*CAP
1 pgm_pn11_10_s0:1 2.953672e-03
*RES
1 lt_pn11_10_s0:Z pgm_pn11_10_s0:1 3.351774e+00
2 pgm_pn11_10_s0:1 vs_12_11:A 1.000000e-03
*END

*D_NET pgm_pn11_11_s1 3.825207e-03
*CONN
*I lt_pn11_11_s1:Z O
*I vs_28_11:A I
*CAP
1 pgm_pn11_11_s1:1 3.825207e-03
*RES
1 lt_pn11_11_s1:Z pgm_pn11_11_s1:1 1.848387e+00
2 pgm_pn11_11_s1:1 vs_28_11:A 1.000000e-03
*END

*D_NET pgm_pn11_12_s2 1.540000e-02
*CONN
*I lt_pn11_12_s2:Z O
*I vs_36_11:A I
*CAP
1 pgm_pn11_12_s2:1 1.540000e-02
*RES
1 lt_pn11_12_s2:Z pgm_pn11_12_s2:1 1.575949e+01
2 pgm_pn11_12_s2:1 vs_36_11:A 1.000000e-03
*END

*D_NET pgm_pn11_1_s0 6.513646e-03
*CONN
*I lt_pn11_1_s0:Z O
*I vs_6_11:A I
*CAP
1 pgm_pn11_1_s0:1 6.513646e-03
*RES
1 lt_pn11_1_s0:Z pgm_pn11_1_s0:1 6.107355e+00
2 pgm_pn11_1_s0:1 vs_6_11:A 1.000000e-03
*END

*D_NET pgm_pn11_1_s1 9.577067e-03
*CONN
*I lt_pn11_1_s1:Z O
*I vs_24_11:A I
*CAP
1 pgm_pn11_1_s1:1 9.577067e-03
*RES
1 lt_pn11_1_s1:Z pgm_pn11_1_s1:1 6.779200e+00
2 pgm_pn11_1_s1:1 vs_24_11:A 1.000000e-03
*END

*D_NET pgm_pn11_1_s2 1.285945e-02
*CONN
*I lt_pn11_1_s2:Z O
*I vs_43_11:A I
*CAP
1 pgm_pn11_1_s2:1 1.285945e-02
*RES
1 lt_pn11_1_s2:Z pgm_pn11_1_s2:1 1.330846e+01
2 pgm_pn11_1_s2:1 vs_43_11:A 1.000000e-03
*END

*D_NET pgm_pn11_2_s0 2.968485e-03
*CONN
*I lt_pn11_2_s0:Z O
*I vs_1_11:A I
*CAP
1 pgm_pn11_2_s0:1 2.968485e-03
*RES
1 lt_pn11_2_s0:Z pgm_pn11_2_s0:1 3.368584e+00
2 pgm_pn11_2_s0:1 vs_1_11:A 1.000000e-03
*END

*D_NET pgm_pn11_2_s1 2.349310e-03
*CONN
*I lt_pn11_2_s1:Z O
*I vs_19_11:A I
*I vs_18_11:A I
*CAP
1 pgm_pn11_2_s1:1 2.349310e-03
*RES
1 lt_pn11_2_s1:Z pgm_pn11_2_s1:1 2.665955e+00
2 pgm_pn11_2_s1:1 vs_19_11:A 1.000000e-03
3 pgm_pn11_2_s1:1 vs_18_11:A 1.000000e-03
*END

*D_NET pgm_pn11_3_s1 1.265013e-02
*CONN
*I lt_pn11_3_s1:Z O
*I vs_29_11:A I
*CAP
1 pgm_pn11_3_s1:1 1.265013e-02
*RES
1 lt_pn11_3_s1:Z pgm_pn11_3_s1:1 1.435514e+01
2 pgm_pn11_3_s1:1 vs_29_11:A 1.000000e-03
*END

*D_NET pgm_pn11_3_s2 1.438619e-02
*CONN
*I lt_pn11_3_s2:Z O
*I vs_47_11:A I
*I vs_45_11:A I
*CAP
1 pgm_pn11_3_s2:1 1.438619e-02
*RES
1 lt_pn11_3_s2:Z pgm_pn11_3_s2:1 1.632519e+01
2 pgm_pn11_3_s2:1 vs_47_11:A 1.000000e-03
3 pgm_pn11_3_s2:1 vs_45_11:A 1.000000e-03
*END

*D_NET pgm_pn11_4_s3 8.870653e-03
*CONN
*I lt_pn11_4_s3:Z O
*I vs_59_11:A I
*CAP
1 pgm_pn11_4_s3:1 8.870653e-03
*RES
1 lt_pn11_4_s3:Z pgm_pn11_4_s3:1 9.357961e+00
2 pgm_pn11_4_s3:1 vs_59_11:A 1.000000e-03
*END

*D_NET pgm_pn11_5_s3 4.802310e-03
*CONN
*I lt_pn11_5_s3:Z O
*I vs_57_11:A I
*I vs_54_11:A I
*CAP
1 pgm_pn11_5_s3:1 4.802310e-03
*RES
1 lt_pn11_5_s3:Z pgm_pn11_5_s3:1 5.449575e+00
2 pgm_pn11_5_s3:1 vs_57_11:A 1.000000e-03
3 pgm_pn11_5_s3:1 vs_54_11:A 1.000000e-03
*END

*D_NET pgm_pn11_6_s0 1.643036e-02
*CONN
*I lt_pn11_6_s0:Z O
*I vs_11_11:A I
*I vs_0_11:A I
*CAP
1 pgm_pn11_6_s0:1 1.643036e-02
*RES
1 lt_pn11_6_s0:Z pgm_pn11_6_s0:1 1.864488e+01
2 pgm_pn11_6_s0:1 vs_11_11:A 1.000000e-03
3 pgm_pn11_6_s0:1 vs_0_11:A 1.000000e-03
*END

*D_NET pgm_pn11_6_s2 1.362778e-04
*CONN
*I lt_pn11_6_s2:Z O
*I vs_40_11:A I
*CAP
1 pgm_pn11_6_s2:1 1.362778e-04
*RES
1 lt_pn11_6_s2:Z pgm_pn11_6_s2:1 1.546456e-01
2 pgm_pn11_6_s2:1 vs_40_11:A 1.000000e-03
*END

*D_NET pgm_pn11_7_s2 1.022676e-02
*CONN
*I lt_pn11_7_s2:Z O
*I vs_34_11:A I
*CAP
1 pgm_pn11_7_s2:1 1.022676e-02
*RES
1 lt_pn11_7_s2:Z pgm_pn11_7_s2:1 1.160514e+01
2 pgm_pn11_7_s2:1 vs_34_11:A 1.000000e-03
*END

*D_NET pgm_pn11_8_s1 1.227981e-02
*CONN
*I lt_pn11_8_s1:Z O
*I vs_17_11:A I
*CAP
1 pgm_pn11_8_s1:1 1.227981e-02
*RES
1 lt_pn11_8_s1:Z pgm_pn11_8_s1:1 1.393491e+01
2 pgm_pn11_8_s1:1 vs_17_11:A 1.000000e-03
*END

*D_NET pgm_pn11_8_s2 2.962560e-03
*CONN
*I lt_pn11_8_s2:Z O
*I vs_44_11:A I
*CAP
1 pgm_pn11_8_s2:1 2.962560e-03
*RES
1 lt_pn11_8_s2:Z pgm_pn11_8_s2:1 3.361860e+00
2 pgm_pn11_8_s2:1 vs_44_11:A 1.000000e-03
*END

*D_NET pgm_pn11_8_s3 1.126365e-02
*CONN
*I lt_pn11_8_s3:Z O
*I vs_51_11:A I
*CAP
1 pgm_pn11_8_s3:1 1.126365e-02
*RES
1 lt_pn11_8_s3:Z pgm_pn11_8_s3:1 1.278179e+01
2 pgm_pn11_8_s3:1 vs_51_11:A 1.000000e-03
*END

*D_NET pgm_pn11_9_s0 3.688387e-03
*CONN
*I lt_pn11_9_s0:Z O
*I vs_14_11:A I
*CAP
1 pgm_pn11_9_s0:1 3.688387e-03
*RES
1 lt_pn11_9_s0:Z pgm_pn11_9_s0:1 4.185516e+00
2 pgm_pn11_9_s0:1 vs_14_11:A 1.000000e-03
*END

*D_NET pgm_pn11_9_s2 7.319906e-03
*CONN
*I lt_pn11_9_s2:Z O
*I vs_39_11:A I
*CAP
1 pgm_pn11_9_s2:1 7.319906e-03
*RES
1 lt_pn11_9_s2:Z pgm_pn11_9_s2:1 7.166262e+00
2 pgm_pn11_9_s2:1 vs_39_11:A 1.000000e-03
*END

*D_NET pgm_pn11_9_s3 6.277665e-03
*CONN
*I lt_pn11_9_s3:Z O
*I vs_56_11:A I
*CAP
1 pgm_pn11_9_s3:1 6.277665e-03
*RES
1 lt_pn11_9_s3:Z pgm_pn11_9_s3:1 7.123781e+00
2 pgm_pn11_9_s3:1 vs_56_11:A 1.000000e-03
*END

*D_NET pgm_pn12_0_s0 1.096801e-02
*CONN
*I lt_pn12_0_s0:Z O
*I vs_8_12:A I
*CAP
1 pgm_pn12_0_s0:1 1.096801e-02
*RES
1 lt_pn12_0_s0:Z pgm_pn12_0_s0:1 1.073015e+01
2 pgm_pn12_0_s0:1 vs_8_12:A 1.000000e-03
*END

*D_NET pgm_pn12_0_s1 2.054535e-02
*CONN
*I lt_pn12_0_s1:Z O
*I vs_30_12:A I
*I vs_16_12:A I
*CAP
1 pgm_pn12_0_s1:1 2.054535e-02
*RES
1 lt_pn12_0_s1:Z pgm_pn12_0_s1:1 2.331450e+01
2 pgm_pn12_0_s1:1 vs_30_12:A 1.000000e-03
3 pgm_pn12_0_s1:1 vs_16_12:A 1.000000e-03
*END

*D_NET pgm_pn12_0_s3 2.390786e-03
*CONN
*I lt_pn12_0_s3:Z O
*I vs_49_12:A I
*CAP
1 pgm_pn12_0_s3:1 2.390786e-03
*RES
1 lt_pn12_0_s3:Z pgm_pn12_0_s3:1 2.713021e+00
2 pgm_pn12_0_s3:1 vs_49_12:A 1.000000e-03
*END

*D_NET pgm_pn12_11_s1 7.542678e-03
*CONN
*I lt_pn12_11_s1:Z O
*I vs_27_12:A I
*I vs_25_12:A I
*CAP
1 pgm_pn12_11_s1:1 7.542678e-03
*RES
1 lt_pn12_11_s1:Z pgm_pn12_11_s1:1 8.559296e+00
2 pgm_pn12_11_s1:1 vs_27_12:A 1.000000e-03
3 pgm_pn12_11_s1:1 vs_25_12:A 1.000000e-03
*END

*D_NET pgm_pn12_12_s0 1.921220e-02
*CONN
*I lt_pn12_12_s0:Z O
*I vs_1_12:A I
*CAP
1 pgm_pn12_12_s0:1 1.921220e-02
*RES
1 lt_pn12_12_s0:Z pgm_pn12_12_s0:1 2.180166e+01
2 pgm_pn12_12_s0:1 vs_1_12:A 1.000000e-03
*END

*D_NET pgm_pn12_12_s1 1.482911e-02
*CONN
*I lt_pn12_12_s1:Z O
*I vs_31_12:A I
*I vs_22_12:A I
*CAP
1 pgm_pn12_12_s1:1 1.482911e-02
*RES
1 lt_pn12_12_s1:Z pgm_pn12_12_s1:1 1.539961e+01
2 pgm_pn12_12_s1:1 vs_31_12:A 1.000000e-03
3 pgm_pn12_12_s1:1 vs_22_12:A 1.000000e-03
*END

*D_NET pgm_pn12_1_s0 1.492538e-02
*CONN
*I lt_pn12_1_s0:Z O
*I vs_13_12:A I
*CAP
1 pgm_pn12_1_s0:1 1.492538e-02
*RES
1 lt_pn12_1_s0:Z pgm_pn12_1_s0:1 1.693705e+01
2 pgm_pn12_1_s0:1 vs_13_12:A 1.000000e-03
*END

*D_NET pgm_pn12_1_s3 3.870600e-03
*CONN
*I lt_pn12_1_s3:Z O
*I vs_51_12:A I
*CAP
1 pgm_pn12_1_s3:1 3.870600e-03
*RES
1 lt_pn12_1_s3:Z pgm_pn12_1_s3:1 2.964093e+00
2 pgm_pn12_1_s3:1 vs_51_12:A 1.000000e-03
*END

*D_NET pgm_pn12_2_s1 1.339373e-02
*CONN
*I lt_pn12_2_s1:Z O
*I vs_29_12:A I
*I vs_28_12:A I
*CAP
1 pgm_pn12_2_s1:1 1.339373e-02
*RES
1 lt_pn12_2_s1:Z pgm_pn12_2_s1:1 1.519897e+01
2 pgm_pn12_2_s1:1 vs_29_12:A 1.000000e-03
3 pgm_pn12_2_s1:1 vs_28_12:A 1.000000e-03
*END

*D_NET pgm_pn12_2_s2 2.162669e-03
*CONN
*I lt_pn12_2_s2:Z O
*I vs_36_12:A I
*CAP
1 pgm_pn12_2_s2:1 2.162669e-03
*RES
1 lt_pn12_2_s2:Z pgm_pn12_2_s2:1 2.454158e+00
2 pgm_pn12_2_s2:1 vs_36_12:A 1.000000e-03
*END

*D_NET pgm_pn12_2_s3 4.580118e-03
*CONN
*I lt_pn12_2_s3:Z O
*I vs_54_12:A I
*CAP
1 pgm_pn12_2_s3:1 4.580118e-03
*RES
1 lt_pn12_2_s3:Z pgm_pn12_2_s3:1 5.197436e+00
2 pgm_pn12_2_s3:1 vs_54_12:A 1.000000e-03
*END

*D_NET pgm_pn12_3_s0 1.556233e-02
*CONN
*I lt_pn12_3_s0:Z O
*I vs_15_12:A I
*I vs_5_12:A I
*CAP
1 pgm_pn12_3_s0:1 1.556233e-02
*RES
1 lt_pn12_3_s0:Z pgm_pn12_3_s0:1 1.765985e+01
2 pgm_pn12_3_s0:1 vs_15_12:A 1.000000e-03
3 pgm_pn12_3_s0:1 vs_5_12:A 1.000000e-03
*END

*D_NET pgm_pn12_5_s0 7.077556e-03
*CONN
*I lt_pn12_5_s0:Z O
*I vs_12_12:A I
*CAP
1 pgm_pn12_5_s0:1 7.077556e-03
*RES
1 lt_pn12_5_s0:Z pgm_pn12_5_s0:1 8.031484e+00
2 pgm_pn12_5_s0:1 vs_12_12:A 1.000000e-03
*END

*D_NET pgm_pn12_5_s1 1.747910e-03
*CONN
*I lt_pn12_5_s1:Z O
*I vs_21_12:A I
*CAP
1 pgm_pn12_5_s1:1 1.747910e-03
*RES
1 lt_pn12_5_s1:Z pgm_pn12_5_s1:1 1.983497e+00
2 pgm_pn12_5_s1:1 vs_21_12:A 1.000000e-03
*END

*D_NET pgm_pn12_5_s3 3.718013e-03
*CONN
*I lt_pn12_5_s3:Z O
*I vs_52_12:A I
*CAP
1 pgm_pn12_5_s3:1 3.718013e-03
*RES
1 lt_pn12_5_s3:Z pgm_pn12_5_s3:1 4.219134e+00
2 pgm_pn12_5_s3:1 vs_52_12:A 1.000000e-03
*END

*D_NET pgm_pn12_6_s2 1.655165e-02
*CONN
*I lt_pn12_6_s2:Z O
*I vs_45_12:A I
*I vs_34_12:A I
*CAP
1 pgm_pn12_6_s2:1 1.655165e-02
*RES
1 lt_pn12_6_s2:Z pgm_pn12_6_s2:1 1.739814e+01
2 pgm_pn12_6_s2:1 vs_45_12:A 1.000000e-03
3 pgm_pn12_6_s2:1 vs_34_12:A 1.000000e-03
*END

*D_NET pgm_pn12_7_s0 9.601657e-03
*CONN
*I lt_pn12_7_s0:Z O
*I vs_2_12:A I
*CAP
1 pgm_pn12_7_s0:1 9.601657e-03
*RES
1 lt_pn12_7_s0:Z pgm_pn12_7_s0:1 1.089579e+01
2 pgm_pn12_7_s0:1 vs_2_12:A 1.000000e-03
*END

*D_NET pgm_pn12_7_s2 3.365468e-03
*CONN
*I lt_pn12_7_s2:Z O
*I vs_39_12:A I
*CAP
1 pgm_pn12_7_s2:1 3.365468e-03
*RES
1 lt_pn12_7_s2:Z pgm_pn12_7_s2:1 3.819073e+00
2 pgm_pn12_7_s2:1 vs_39_12:A 1.000000e-03
*END

*D_NET pgm_pn12_8_s0 1.550754e-02
*CONN
*I lt_pn12_8_s0:Z O
*I vs_10_12:A I
*I vs_0_12:A I
*CAP
1 pgm_pn12_8_s0:1 1.550754e-02
*RES
1 lt_pn12_8_s0:Z pgm_pn12_8_s0:1 1.616948e+01
2 pgm_pn12_8_s0:1 vs_10_12:A 1.000000e-03
3 pgm_pn12_8_s0:1 vs_0_12:A 1.000000e-03
*END

*D_NET pgm_pn12_8_s1 1.211095e-02
*CONN
*I lt_pn12_8_s1:Z O
*I vs_18_12:A I
*CAP
1 pgm_pn12_8_s1:1 1.211095e-02
*RES
1 lt_pn12_8_s1:Z pgm_pn12_8_s1:1 1.374328e+01
2 pgm_pn12_8_s1:1 vs_18_12:A 1.000000e-03
*END

*D_NET pgm_pn12_9_s0 7.228509e-03
*CONN
*I lt_pn12_9_s0:Z O
*I vs_9_12:A I
*I vs_7_12:A I
*CAP
1 pgm_pn12_9_s0:1 7.228509e-03
*RES
1 lt_pn12_9_s0:Z pgm_pn12_9_s0:1 7.206527e+00
2 pgm_pn12_9_s0:1 vs_9_12:A 1.000000e-03
3 pgm_pn12_9_s0:1 vs_7_12:A 1.000000e-03
*END

*D_NET pgm_pn12_9_s3 4.112033e-03
*CONN
*I lt_pn12_9_s3:Z O
*I vs_58_12:A I
*CAP
1 pgm_pn12_9_s3:1 4.112033e-03
*RES
1 lt_pn12_9_s3:Z pgm_pn12_9_s3:1 4.666262e+00
2 pgm_pn12_9_s3:1 vs_58_12:A 1.000000e-03
*END

*D_NET pgm_pn13_0_s0 1.561078e-02
*CONN
*I lt_pn13_0_s0:Z O
*I vs_12_13:A I
*CAP
1 pgm_pn13_0_s0:1 1.561078e-02
*RES
1 lt_pn13_0_s0:Z pgm_pn13_0_s0:1 1.614266e+01
2 pgm_pn13_0_s0:1 vs_12_13:A 1.000000e-03
*END

*D_NET pgm_pn13_10_s3 1.685400e-02
*CONN
*I lt_pn13_10_s3:Z O
*I vs_48_13:A I
*CAP
1 pgm_pn13_10_s3:1 1.685400e-02
*RES
1 lt_pn13_10_s3:Z pgm_pn13_10_s3:1 1.912562e+01
2 pgm_pn13_10_s3:1 vs_48_13:A 1.000000e-03
*END

*D_NET pgm_pn13_11_s0 2.571502e-03
*CONN
*I lt_pn13_11_s0:Z O
*I vs_13_13:A I
*CAP
1 pgm_pn13_11_s0:1 2.571502e-03
*RES
1 lt_pn13_11_s0:Z pgm_pn13_11_s0:1 2.918094e+00
2 pgm_pn13_11_s0:1 vs_13_13:A 1.000000e-03
*END

*D_NET pgm_pn13_12_s2 4.002419e-03
*CONN
*I lt_pn13_12_s2:Z O
*I vs_45_13:A I
*CAP
1 pgm_pn13_12_s2:1 4.002419e-03
*RES
1 lt_pn13_12_s2:Z pgm_pn13_12_s2:1 4.541873e+00
2 pgm_pn13_12_s2:1 vs_45_13:A 1.000000e-03
*END

*D_NET pgm_pn13_12_s3 5.614051e-03
*CONN
*I lt_pn13_12_s3:Z O
*I vs_60_13:A I
*CAP
1 pgm_pn13_12_s3:1 5.614051e-03
*RES
1 lt_pn13_12_s3:Z pgm_pn13_12_s3:1 6.370725e+00
2 pgm_pn13_12_s3:1 vs_60_13:A 1.000000e-03
*END

*D_NET pgm_pn13_1_s0 2.017009e-02
*CONN
*I lt_pn13_1_s0:Z O
*I vs_15_13:A I
*I vs_4_13:A I
*CAP
1 pgm_pn13_1_s0:1 2.017009e-02
*RES
1 lt_pn13_1_s0:Z pgm_pn13_1_s0:1 2.054025e+01
2 pgm_pn13_1_s0:1 vs_15_13:A 1.000000e-03
3 pgm_pn13_1_s0:1 vs_4_13:A 1.000000e-03
*END

*D_NET pgm_pn13_1_s1 7.735244e-03
*CONN
*I lt_pn13_1_s1:Z O
*I vs_22_13:A I
*I vs_18_13:A I
*CAP
1 pgm_pn13_1_s1:1 7.735244e-03
*RES
1 lt_pn13_1_s1:Z pgm_pn13_1_s1:1 8.777816e+00
2 pgm_pn13_1_s1:1 vs_22_13:A 1.000000e-03
3 pgm_pn13_1_s1:1 vs_18_13:A 1.000000e-03
*END

*D_NET pgm_pn13_1_s2 1.570453e-02
*CONN
*I lt_pn13_1_s2:Z O
*I vs_44_13:A I
*I vs_43_13:A I
*CAP
1 pgm_pn13_1_s2:1 1.570453e-02
*RES
1 lt_pn13_1_s2:Z pgm_pn13_1_s2:1 1.782122e+01
2 pgm_pn13_1_s2:1 vs_44_13:A 1.000000e-03
3 pgm_pn13_1_s2:1 vs_43_13:A 1.000000e-03
*END

*D_NET pgm_pn13_1_s3 5.267668e-03
*CONN
*I lt_pn13_1_s3:Z O
*I vs_53_13:A I
*CAP
1 pgm_pn13_1_s3:1 5.267668e-03
*RES
1 lt_pn13_1_s3:Z pgm_pn13_1_s3:1 4.349142e+00
2 pgm_pn13_1_s3:1 vs_53_13:A 1.000000e-03
*END

*D_NET pgm_pn13_2_s2 3.421757e-03
*CONN
*I lt_pn13_2_s2:Z O
*I vs_37_13:A I
*CAP
1 pgm_pn13_2_s2:1 3.421757e-03
*RES
1 lt_pn13_2_s2:Z pgm_pn13_2_s2:1 3.882948e+00
2 pgm_pn13_2_s2:1 vs_37_13:A 1.000000e-03
*END

*D_NET pgm_pn13_2_s3 1.549405e-02
*CONN
*I lt_pn13_2_s3:Z O
*I vs_62_13:A I
*I vs_61_13:A I
*I vs_59_13:A I
*CAP
1 pgm_pn13_2_s3:1 1.549405e-02
*RES
1 lt_pn13_2_s3:Z pgm_pn13_2_s3:1 1.658612e+01
2 pgm_pn13_2_s3:1 vs_62_13:A 1.000000e-03
3 pgm_pn13_2_s3:1 vs_61_13:A 1.000000e-03
4 pgm_pn13_2_s3:1 vs_59_13:A 1.000000e-03
*END

*D_NET pgm_pn13_3_s0 7.750805e-03
*CONN
*I lt_pn13_3_s0:Z O
*I vs_7_13:A I
*CAP
1 pgm_pn13_3_s0:1 7.750805e-03
*RES
1 lt_pn13_3_s0:Z pgm_pn13_3_s0:1 8.087178e+00
2 pgm_pn13_3_s0:1 vs_7_13:A 1.000000e-03
*END

*D_NET pgm_pn13_3_s3 1.720951e-02
*CONN
*I lt_pn13_3_s3:Z O
*I vs_63_13:A I
*I vs_55_13:A I
*CAP
1 pgm_pn13_3_s3:1 1.720951e-02
*RES
1 lt_pn13_3_s3:Z pgm_pn13_3_s3:1 1.952904e+01
2 pgm_pn13_3_s3:1 vs_63_13:A 1.000000e-03
3 pgm_pn13_3_s3:1 vs_55_13:A 1.000000e-03
*END

*D_NET pgm_pn13_4_s1 4.671957e-03
*CONN
*I lt_pn13_4_s1:Z O
*I vs_19_13:A I
*CAP
1 pgm_pn13_4_s1:1 4.671957e-03
*RES
1 lt_pn13_4_s1:Z pgm_pn13_4_s1:1 5.301653e+00
2 pgm_pn13_4_s1:1 vs_19_13:A 1.000000e-03
*END

*D_NET pgm_pn13_4_s3 7.542678e-03
*CONN
*I lt_pn13_4_s3:Z O
*I vs_56_13:A I
*I vs_51_13:A I
*CAP
1 pgm_pn13_4_s3:1 7.542678e-03
*RES
1 lt_pn13_4_s3:Z pgm_pn13_4_s3:1 8.559296e+00
2 pgm_pn13_4_s3:1 vs_56_13:A 1.000000e-03
3 pgm_pn13_4_s3:1 vs_51_13:A 1.000000e-03
*END

*D_NET pgm_pn13_5_s0 2.559652e-03
*CONN
*I lt_pn13_5_s0:Z O
*I vs_5_13:A I
*CAP
1 pgm_pn13_5_s0:1 2.559652e-03
*RES
1 lt_pn13_5_s0:Z pgm_pn13_5_s0:1 2.904647e+00
2 pgm_pn13_5_s0:1 vs_5_13:A 1.000000e-03
*END

*D_NET pgm_pn13_7_s1 7.758945e-03
*CONN
*I lt_pn13_7_s1:Z O
*I vs_23_13:A I
*I vs_20_13:A I
*CAP
1 pgm_pn13_7_s1:1 7.758945e-03
*RES
1 lt_pn13_7_s1:Z pgm_pn13_7_s1:1 8.804711e+00
2 pgm_pn13_7_s1:1 vs_23_13:A 1.000000e-03
3 pgm_pn13_7_s1:1 vs_20_13:A 1.000000e-03
*END

*D_NET pgm_pn13_8_s1 9.480192e-04
*CONN
*I lt_pn13_8_s1:Z O
*I vs_26_13:A I
*CAP
1 pgm_pn13_8_s1:1 9.480192e-04
*RES
1 lt_pn13_8_s1:Z pgm_pn13_8_s1:1 1.075795e+00
2 pgm_pn13_8_s1:1 vs_26_13:A 1.000000e-03
*END

*D_NET pgm_pn13_8_s2 1.024453e-02
*CONN
*I lt_pn13_8_s2:Z O
*I vs_47_13:A I
*I vs_41_13:A I
*CAP
1 pgm_pn13_8_s2:1 1.024453e-02
*RES
1 lt_pn13_8_s2:Z pgm_pn13_8_s2:1 1.162531e+01
2 pgm_pn13_8_s2:1 vs_47_13:A 1.000000e-03
3 pgm_pn13_8_s2:1 vs_41_13:A 1.000000e-03
*END

*D_NET pgm_pn13_8_s3 1.334930e-02
*CONN
*I lt_pn13_8_s3:Z O
*I vs_49_13:A I
*CAP
1 pgm_pn13_8_s3:1 1.334930e-02
*RES
1 lt_pn13_8_s3:Z pgm_pn13_8_s3:1 1.514854e+01
2 pgm_pn13_8_s3:1 vs_49_13:A 1.000000e-03
*END

*D_NET pgm_pn14_0_s0 4.994876e-03
*CONN
*I lt_pn14_0_s0:Z O
*I vs_3_14:A I
*CAP
1 pgm_pn14_0_s0:1 4.994876e-03
*RES
1 lt_pn14_0_s0:Z pgm_pn14_0_s0:1 5.668096e+00
2 pgm_pn14_0_s0:1 vs_3_14:A 1.000000e-03
*END

*D_NET pgm_pn14_0_s1 1.955988e-02
*CONN
*I lt_pn14_0_s1:Z O
*I vs_31_14:A I
*I vs_29_14:A I
*CAP
1 pgm_pn14_0_s1:1 1.955988e-02
*RES
1 lt_pn14_0_s1:Z pgm_pn14_0_s1:1 2.062402e+01
2 pgm_pn14_0_s1:1 vs_31_14:A 1.000000e-03
3 pgm_pn14_0_s1:1 vs_29_14:A 1.000000e-03
*END

*D_NET pgm_pn14_10_s3 3.457308e-03
*CONN
*I lt_pn14_10_s3:Z O
*I vs_63_14:A I
*CAP
1 pgm_pn14_10_s3:1 3.457308e-03
*RES
1 lt_pn14_10_s3:Z pgm_pn14_10_s3:1 3.923291e+00
2 pgm_pn14_10_s3:1 vs_63_14:A 1.000000e-03
*END

*D_NET pgm_pn14_11_s1 1.891002e-02
*CONN
*I lt_pn14_11_s1:Z O
*I vs_16_14:A I
*CAP
1 pgm_pn14_11_s1:1 1.891002e-02
*RES
1 lt_pn14_11_s1:Z pgm_pn14_11_s1:1 2.145875e+01
2 pgm_pn14_11_s1:1 vs_16_14:A 1.000000e-03
*END

*D_NET pgm_pn14_11_s3 3.768239e-03
*CONN
*I lt_pn14_11_s3:Z O
*I vs_60_14:A I
*CAP
1 pgm_pn14_11_s3:1 3.768239e-03
*RES
1 lt_pn14_11_s3:Z pgm_pn14_11_s3:1 3.279874e+00
2 pgm_pn14_11_s3:1 vs_60_14:A 1.000000e-03
*END

*D_NET pgm_pn14_12_s0 1.891002e-02
*CONN
*I lt_pn14_12_s0:Z O
*I vs_1_14:A I
*CAP
1 pgm_pn14_12_s0:1 1.891002e-02
*RES
1 lt_pn14_12_s0:Z pgm_pn14_12_s0:1 2.145875e+01
2 pgm_pn14_12_s0:1 vs_1_14:A 1.000000e-03
*END

*D_NET pgm_pn14_12_s2 5.588885e-03
*CONN
*I lt_pn14_12_s2:Z O
*I vs_44_14:A I
*CAP
1 pgm_pn14_12_s2:1 5.588885e-03
*RES
1 lt_pn14_12_s2:Z pgm_pn14_12_s2:1 4.913972e+00
2 pgm_pn14_12_s2:1 vs_44_14:A 1.000000e-03
*END

*D_NET pgm_pn14_1_s0 1.282434e-02
*CONN
*I lt_pn14_1_s0:Z O
*I vs_11_14:A I
*I vs_9_14:A I
*CAP
1 pgm_pn14_1_s0:1 1.282434e-02
*RES
1 lt_pn14_1_s0:Z pgm_pn14_1_s0:1 1.341260e+01
2 pgm_pn14_1_s0:1 vs_11_14:A 1.000000e-03
3 pgm_pn14_1_s0:1 vs_9_14:A 1.000000e-03
*END

*D_NET pgm_pn14_1_s2 1.582545e-02
*CONN
*I lt_pn14_1_s2:Z O
*I vs_43_14:A I
*CAP
1 pgm_pn14_1_s2:1 1.582545e-02
*RES
1 lt_pn14_1_s2:Z pgm_pn14_1_s2:1 1.395021e+01
2 pgm_pn14_1_s2:1 vs_43_14:A 1.000000e-03
*END

*D_NET pgm_pn14_1_s3 1.255179e-02
*CONN
*I lt_pn14_1_s3:Z O
*I vs_59_14:A I
*CAP
1 pgm_pn14_1_s3:1 1.255179e-02
*RES
1 lt_pn14_1_s3:Z pgm_pn14_1_s3:1 1.310331e+01
2 pgm_pn14_1_s3:1 vs_59_14:A 1.000000e-03
*END

*D_NET pgm_pn14_2_s0 4.177210e-03
*CONN
*I lt_pn14_2_s0:Z O
*I vs_0_14:A I
*CAP
1 pgm_pn14_2_s0:1 4.177210e-03
*RES
1 lt_pn14_2_s0:Z pgm_pn14_2_s0:1 4.740223e+00
2 pgm_pn14_2_s0:1 vs_0_14:A 1.000000e-03
*END

*D_NET pgm_pn14_3_s2 1.577859e-02
*CONN
*I lt_pn14_3_s2:Z O
*I vs_46_14:A I
*I vs_37_14:A I
*CAP
1 pgm_pn14_3_s2:1 1.577859e-02
*RES
1 lt_pn14_3_s2:Z pgm_pn14_3_s2:1 1.790527e+01
2 pgm_pn14_3_s2:1 vs_46_14:A 1.000000e-03
3 pgm_pn14_3_s2:1 vs_37_14:A 1.000000e-03
*END

*D_NET pgm_pn14_3_s3 1.697410e-03
*CONN
*I lt_pn14_3_s3:Z O
*I vs_52_14:A I
*CAP
1 pgm_pn14_3_s3:1 1.697410e-03
*RES
1 lt_pn14_3_s3:Z pgm_pn14_3_s3:1 9.299340e-01
2 pgm_pn14_3_s3:1 vs_52_14:A 1.000000e-03
*END

*D_NET pgm_pn14_4_s0 7.139770e-03
*CONN
*I lt_pn14_4_s0:Z O
*I vs_10_14:A I
*CAP
1 pgm_pn14_4_s0:1 7.139770e-03
*RES
1 lt_pn14_4_s0:Z pgm_pn14_4_s0:1 8.102083e+00
2 pgm_pn14_4_s0:1 vs_10_14:A 1.000000e-03
*END

*D_NET pgm_pn14_4_s1 8.704307e-03
*CONN
*I lt_pn14_4_s1:Z O
*I vs_27_14:A I
*CAP
1 pgm_pn14_4_s1:1 8.704307e-03
*RES
1 lt_pn14_4_s1:Z pgm_pn14_4_s1:1 9.025215e+00
2 pgm_pn14_4_s1:1 vs_27_14:A 1.000000e-03
*END

*D_NET pgm_pn14_4_s2 5.119304e-03
*CONN
*I lt_pn14_4_s2:Z O
*I vs_34_14:A I
*CAP
1 pgm_pn14_4_s2:1 5.119304e-03
*RES
1 lt_pn14_4_s2:Z pgm_pn14_4_s2:1 5.809294e+00
2 pgm_pn14_4_s2:1 vs_34_14:A 1.000000e-03
*END

*D_NET pgm_pn14_5_s1 8.126302e-03
*CONN
*I lt_pn14_5_s1:Z O
*I vs_17_14:A I
*CAP
1 pgm_pn14_5_s1:1 8.126302e-03
*RES
1 lt_pn14_5_s1:Z pgm_pn14_5_s1:1 9.221582e+00
2 pgm_pn14_5_s1:1 vs_17_14:A 1.000000e-03
*END

*D_NET pgm_pn14_5_s2 3.315105e-03
*CONN
*I lt_pn14_5_s2:Z O
*I vs_41_14:A I
*I vs_40_14:A I
*CAP
1 pgm_pn14_5_s2:1 3.315105e-03
*RES
1 lt_pn14_5_s2:Z pgm_pn14_5_s2:1 3.761921e+00
2 pgm_pn14_5_s2:1 vs_41_14:A 1.000000e-03
3 pgm_pn14_5_s2:1 vs_40_14:A 1.000000e-03
*END

*D_NET pgm_pn14_5_s3 9.012108e-03
*CONN
*I lt_pn14_5_s3:Z O
*I vs_48_14:A I
*CAP
1 pgm_pn14_5_s3:1 9.012108e-03
*RES
1 lt_pn14_5_s3:Z pgm_pn14_5_s3:1 1.022678e+01
2 pgm_pn14_5_s3:1 vs_48_14:A 1.000000e-03
*END

*D_NET pgm_pn14_6_s0 6.997567e-03
*CONN
*I lt_pn14_6_s0:Z O
*I vs_12_14:A I
*I vs_7_14:A I
*CAP
1 pgm_pn14_6_s0:1 6.997567e-03
*RES
1 lt_pn14_6_s0:Z pgm_pn14_6_s0:1 7.940713e+00
2 pgm_pn14_6_s0:1 vs_12_14:A 1.000000e-03
3 pgm_pn14_6_s0:1 vs_7_14:A 1.000000e-03
*END

*D_NET pgm_pn14_6_s1 7.356036e-03
*CONN
*I lt_pn14_6_s1:Z O
*I vs_19_14:A I
*CAP
1 pgm_pn14_6_s1:1 7.356036e-03
*RES
1 lt_pn14_6_s1:Z pgm_pn14_6_s1:1 8.347498e+00
2 pgm_pn14_6_s1:1 vs_19_14:A 1.000000e-03
*END

*D_NET pgm_pn14_6_s2 2.876646e-03
*CONN
*I lt_pn14_6_s2:Z O
*I vs_42_14:A I
*CAP
1 pgm_pn14_6_s2:1 2.876646e-03
*RES
1 lt_pn14_6_s2:Z pgm_pn14_6_s2:1 3.264366e+00
2 pgm_pn14_6_s2:1 vs_42_14:A 1.000000e-03
*END

*D_NET pgm_pn14_7_s0 8.663274e-03
*CONN
*I lt_pn14_7_s0:Z O
*I vs_14_14:A I
*CAP
1 pgm_pn14_7_s0:1 8.663274e-03
*RES
1 lt_pn14_7_s0:Z pgm_pn14_7_s0:1 9.122631e+00
2 pgm_pn14_7_s0:1 vs_14_14:A 1.000000e-03
*END

*D_NET pgm_pn14_7_s1 6.147312e-03
*CONN
*I lt_pn14_7_s1:Z O
*I vs_21_14:A I
*CAP
1 pgm_pn14_7_s1:1 6.147312e-03
*RES
1 lt_pn14_7_s1:Z pgm_pn14_7_s1:1 6.975859e+00
2 pgm_pn14_7_s1:1 vs_21_14:A 1.000000e-03
*END

*D_NET pgm_pn14_7_s3 7.542678e-03
*CONN
*I lt_pn14_7_s3:Z O
*I vs_62_14:A I
*I vs_61_14:A I
*CAP
1 pgm_pn14_7_s3:1 7.542678e-03
*RES
1 lt_pn14_7_s3:Z pgm_pn14_7_s3:1 8.559296e+00
2 pgm_pn14_7_s3:1 vs_62_14:A 1.000000e-03
3 pgm_pn14_7_s3:1 vs_61_14:A 1.000000e-03
*END

*D_NET pgm_pn14_8_s1 1.156583e-02
*CONN
*I lt_pn14_8_s1:Z O
*I vs_18_14:A I
*CAP
1 pgm_pn14_8_s1:1 1.156583e-02
*RES
1 lt_pn14_8_s1:Z pgm_pn14_8_s1:1 1.312470e+01
2 pgm_pn14_8_s1:1 vs_18_14:A 1.000000e-03
*END

*D_NET pgm_pn14_8_s2 7.406400e-03
*CONN
*I lt_pn14_8_s2:Z O
*I vs_47_14:A I
*CAP
1 pgm_pn14_8_s2:1 7.406400e-03
*RES
1 lt_pn14_8_s2:Z pgm_pn14_8_s2:1 8.404650e+00
2 pgm_pn14_8_s2:1 vs_47_14:A 1.000000e-03
*END

*D_NET pgm_pn14_8_s3 5.477773e-03
*CONN
*I lt_pn14_8_s3:Z O
*I vs_55_14:A I
*CAP
1 pgm_pn14_8_s3:1 5.477773e-03
*RES
1 lt_pn14_8_s3:Z pgm_pn14_8_s3:1 6.216079e+00
2 pgm_pn14_8_s3:1 vs_55_14:A 1.000000e-03
*END

*D_NET pgm_pn15_0_s2 7.244956e-03
*CONN
*I lt_pn15_0_s2:Z O
*I vs_37_15:A I
*CAP
1 pgm_pn15_0_s2:1 7.244956e-03
*RES
1 lt_pn15_0_s2:Z pgm_pn15_0_s2:1 6.793252e+00
2 pgm_pn15_0_s2:1 vs_37_15:A 1.000000e-03
*END

*D_NET pgm_pn15_10_s0 1.151547e-02
*CONN
*I lt_pn15_10_s0:Z O
*I vs_4_15:A I
*CAP
1 pgm_pn15_10_s0:1 1.151547e-02
*RES
1 lt_pn15_10_s0:Z pgm_pn15_10_s0:1 1.306755e+01
2 pgm_pn15_10_s0:1 vs_4_15:A 1.000000e-03
*END

*D_NET pgm_pn15_11_s1 7.815233e-03
*CONN
*I lt_pn15_11_s1:Z O
*I vs_25_15:A I
*CAP
1 pgm_pn15_11_s1:1 7.815233e-03
*RES
1 lt_pn15_11_s1:Z pgm_pn15_11_s1:1 8.868587e+00
2 pgm_pn15_11_s1:1 vs_25_15:A 1.000000e-03
*END

*D_NET pgm_pn15_11_s2 7.299748e-03
*CONN
*I lt_pn15_11_s2:Z O
*I vs_45_15:A I
*I vs_42_15:A I
*CAP
1 pgm_pn15_11_s2:1 7.299748e-03
*RES
1 lt_pn15_11_s2:Z pgm_pn15_11_s2:1 8.283623e+00
2 pgm_pn15_11_s2:1 vs_45_15:A 1.000000e-03
3 pgm_pn15_11_s2:1 vs_42_15:A 1.000000e-03
*END

*D_NET pgm_pn15_11_s3 1.382330e-02
*CONN
*I lt_pn15_11_s3:Z O
*I vs_54_15:A I
*CAP
1 pgm_pn15_11_s3:1 1.382330e-02
*RES
1 lt_pn15_11_s3:Z pgm_pn15_11_s3:1 1.568644e+01
2 pgm_pn15_11_s3:1 vs_54_15:A 1.000000e-03
*END

*D_NET pgm_pn15_1_s0 1.618447e-02
*CONN
*I lt_pn15_1_s0:Z O
*I vs_14_15:A I
*CAP
1 pgm_pn15_1_s0:1 1.618447e-02
*RES
1 lt_pn15_1_s0:Z pgm_pn15_1_s0:1 1.836584e+01
2 pgm_pn15_1_s0:1 vs_14_15:A 1.000000e-03
*END

*D_NET pgm_pn15_2_s1 1.910851e-03
*CONN
*I lt_pn15_2_s1:Z O
*I vs_19_15:A I
*CAP
1 pgm_pn15_2_s1:1 1.910851e-03
*RES
1 lt_pn15_2_s1:Z pgm_pn15_2_s1:1 2.168400e+00
2 pgm_pn15_2_s1:1 vs_19_15:A 1.000000e-03
*END

*D_NET pgm_pn15_3_s0 1.788869e-02
*CONN
*I lt_pn15_3_s0:Z O
*I vs_15_15:A I
*I vs_6_15:A I
*I vs_3_15:A I
*CAP
1 pgm_pn15_3_s0:1 1.788869e-02
*RES
1 lt_pn15_3_s0:Z pgm_pn15_3_s0:1 1.959146e+01
2 pgm_pn15_3_s0:1 vs_15_15:A 1.000000e-03
3 pgm_pn15_3_s0:1 vs_6_15:A 1.000000e-03
4 pgm_pn15_3_s0:1 vs_3_15:A 1.000000e-03
*END

*D_NET pgm_pn15_3_s1 9.296513e-03
*CONN
*I lt_pn15_3_s1:Z O
*I vs_26_15:A I
*I vs_21_15:A I
*CAP
1 pgm_pn15_3_s1:1 9.296513e-03
*RES
1 lt_pn15_3_s1:Z pgm_pn15_3_s1:1 1.054952e+01
2 pgm_pn15_3_s1:1 vs_26_15:A 1.000000e-03
3 pgm_pn15_3_s1:1 vs_21_15:A 1.000000e-03
*END

*D_NET pgm_pn15_3_s2 1.424991e-02
*CONN
*I lt_pn15_3_s2:Z O
*I vs_47_15:A I
*CAP
1 pgm_pn15_3_s2:1 1.424991e-02
*RES
1 lt_pn15_3_s2:Z pgm_pn15_3_s2:1 1.617055e+01
2 pgm_pn15_3_s2:1 vs_47_15:A 1.000000e-03
*END

*D_NET pgm_pn15_3_s3 1.386478e-03
*CONN
*I lt_pn15_3_s3:Z O
*I vs_52_15:A I
*CAP
1 pgm_pn15_3_s3:1 1.386478e-03
*RES
1 lt_pn15_3_s3:Z pgm_pn15_3_s3:1 1.573350e+00
2 pgm_pn15_3_s3:1 vs_52_15:A 1.000000e-03
*END

*D_NET pgm_pn15_5_s1 2.180444e-02
*CONN
*I lt_pn15_5_s1:Z O
*I vs_31_15:A I
*I vs_16_15:A I
*CAP
1 pgm_pn15_5_s1:1 2.180444e-02
*RES
1 lt_pn15_5_s1:Z pgm_pn15_5_s1:1 2.474329e+01
2 pgm_pn15_5_s1:1 vs_31_15:A 1.000000e-03
3 pgm_pn15_5_s1:1 vs_16_15:A 1.000000e-03
*END

*D_NET pgm_pn15_6_s0 1.038748e-02
*CONN
*I lt_pn15_6_s0:Z O
*I vs_2_15:A I
*CAP
1 pgm_pn15_6_s0:1 1.038748e-02
*RES
1 lt_pn15_6_s0:Z pgm_pn15_6_s0:1 1.107923e+01
2 pgm_pn15_6_s0:1 vs_2_15:A 1.000000e-03
*END

*D_NET pgm_pn15_6_s2 1.345002e-03
*CONN
*I lt_pn15_6_s2:Z O
*I vs_41_15:A I
*CAP
1 pgm_pn15_6_s2:1 1.345002e-03
*RES
1 lt_pn15_6_s2:Z pgm_pn15_6_s2:1 1.526284e+00
2 pgm_pn15_6_s2:1 vs_41_15:A 1.000000e-03
*END

*D_NET pgm_pn15_6_s3 1.023268e-02
*CONN
*I lt_pn15_6_s3:Z O
*I vs_55_15:A I
*I vs_49_15:A I
*CAP
1 pgm_pn15_6_s3:1 1.023268e-02
*RES
1 lt_pn15_6_s3:Z pgm_pn15_6_s3:1 1.161186e+01
2 pgm_pn15_6_s3:1 vs_55_15:A 1.000000e-03
3 pgm_pn15_6_s3:1 vs_49_15:A 1.000000e-03
*END

*D_NET pgm_pn15_7_s1 1.022676e-02
*CONN
*I lt_pn15_7_s1:Z O
*I vs_18_15:A I
*CAP
1 pgm_pn15_7_s1:1 1.022676e-02
*RES
1 lt_pn15_7_s1:Z pgm_pn15_7_s1:1 1.160514e+01
2 pgm_pn15_7_s1:1 vs_18_15:A 1.000000e-03
*END

*D_NET pgm_pn15_7_s3 1.350321e-02
*CONN
*I lt_pn15_7_s3:Z O
*I vs_58_15:A I
*I vs_50_15:A I
*CAP
1 pgm_pn15_7_s3:1 1.350321e-02
*RES
1 lt_pn15_7_s3:Z pgm_pn15_7_s3:1 1.432695e+01
2 pgm_pn15_7_s3:1 vs_58_15:A 1.000000e-03
3 pgm_pn15_7_s3:1 vs_50_15:A 1.000000e-03
*END

*D_NET pgm_pn15_8_s1 1.309748e-02
*CONN
*I lt_pn15_8_s1:Z O
*I vs_17_15:A I
*CAP
1 pgm_pn15_8_s1:1 1.309748e-02
*RES
1 lt_pn15_8_s1:Z pgm_pn15_8_s1:1 1.486278e+01
2 pgm_pn15_8_s1:1 vs_17_15:A 1.000000e-03
*END

*D_NET pgm_pn15_8_s2 1.600436e-02
*CONN
*I lt_pn15_8_s2:Z O
*I vs_44_15:A I
*I vs_35_15:A I
*CAP
1 pgm_pn15_8_s2:1 1.600436e-02
*RES
1 lt_pn15_8_s2:Z pgm_pn15_8_s2:1 1.644531e+01
2 pgm_pn15_8_s2:1 vs_44_15:A 1.000000e-03
3 pgm_pn15_8_s2:1 vs_35_15:A 1.000000e-03
*END

*D_NET pgm_pn15_8_s3 9.894950e-03
*CONN
*I lt_pn15_8_s3:Z O
*I vs_62_15:A I
*I vs_56_15:A I
*CAP
1 pgm_pn15_8_s3:1 9.894950e-03
*RES
1 lt_pn15_8_s3:Z pgm_pn15_8_s3:1 1.122861e+01
2 pgm_pn15_8_s3:1 vs_62_15:A 1.000000e-03
3 pgm_pn15_8_s3:1 vs_56_15:A 1.000000e-03
*END

*D_NET pgm_pn15_9_s0 1.170211e-03
*CONN
*I lt_pn15_9_s0:Z O
*I vs_12_15:A I
*CAP
1 pgm_pn15_9_s0:1 1.170211e-03
*RES
1 lt_pn15_9_s0:Z pgm_pn15_9_s0:1 1.327935e+00
2 pgm_pn15_9_s0:1 vs_12_15:A 1.000000e-03
*END

*D_NET pgm_pn15_9_s3 9.284663e-03
*CONN
*I lt_pn15_9_s3:Z O
*I vs_53_15:A I
*CAP
1 pgm_pn15_9_s3:1 9.284663e-03
*RES
1 lt_pn15_9_s3:Z pgm_pn15_9_s3:1 1.053607e+01
2 pgm_pn15_9_s3:1 vs_53_15:A 1.000000e-03
*END

*D_NET pgm_pn16_0_s2 2.037710e-02
*CONN
*I lt_pn16_0_s2:Z O
*I vs_47_16:A I
*CAP
1 pgm_pn16_0_s2:1 2.037710e-02
*RES
1 lt_pn16_0_s2:Z pgm_pn16_0_s2:1 2.140741e+01
2 pgm_pn16_0_s2:1 vs_47_16:A 1.000000e-03
*END

*D_NET pgm_pn16_10_s1 1.196874e-02
*CONN
*I lt_pn16_10_s1:Z O
*I vs_20_16:A I
*CAP
1 pgm_pn16_10_s1:1 1.196874e-02
*RES
1 lt_pn16_10_s1:Z pgm_pn16_10_s1:1 1.358191e+01
2 pgm_pn16_10_s1:1 vs_20_16:A 1.000000e-03
*END

*D_NET pgm_pn16_10_s3 1.191378e-02
*CONN
*I lt_pn16_10_s3:Z O
*I vs_59_16:A I
*I vs_54_16:A I
*CAP
1 pgm_pn16_10_s3:1 1.191378e-02
*RES
1 lt_pn16_10_s3:Z pgm_pn16_10_s3:1 1.070697e+01
2 pgm_pn16_10_s3:1 vs_59_16:A 1.000000e-03
3 pgm_pn16_10_s3:1 vs_54_16:A 1.000000e-03
*END

*D_NET pgm_pn16_11_s3 1.712280e-02
*CONN
*I lt_pn16_11_s3:Z O
*I vs_49_16:A I
*CAP
1 pgm_pn16_11_s3:1 1.712280e-02
*RES
1 lt_pn16_11_s3:Z pgm_pn16_11_s3:1 1.821842e+01
2 pgm_pn16_11_s3:1 vs_49_16:A 1.000000e-03
*END

*D_NET pgm_pn16_12_s3 1.055962e-02
*CONN
*I lt_pn16_12_s3:Z O
*I vs_56_16:A I
*CAP
1 pgm_pn16_12_s3:1 1.055962e-02
*RES
1 lt_pn16_12_s3:Z pgm_pn16_12_s3:1 1.041069e+01
2 pgm_pn16_12_s3:1 vs_56_16:A 1.000000e-03
*END

*D_NET pgm_pn16_1_s1 2.218957e-03
*CONN
*I lt_pn16_1_s1:Z O
*I vs_17_16:A I
*CAP
1 pgm_pn16_1_s1:1 2.218957e-03
*RES
1 lt_pn16_1_s1:Z pgm_pn16_1_s1:1 2.518033e+00
2 pgm_pn16_1_s1:1 vs_17_16:A 1.000000e-03
*END

*D_NET pgm_pn16_2_s1 1.045133e-02
*CONN
*I lt_pn16_2_s1:Z O
*I vs_26_16:A I
*CAP
1 pgm_pn16_2_s1:1 1.045133e-02
*RES
1 lt_pn16_2_s1:Z pgm_pn16_2_s1:1 1.071975e+01
2 pgm_pn16_2_s1:1 vs_26_16:A 1.000000e-03
*END

*D_NET pgm_pn16_2_s2 1.451951e-02
*CONN
*I lt_pn16_2_s2:Z O
*I vs_44_16:A I
*CAP
1 pgm_pn16_2_s2:1 1.451951e-02
*RES
1 lt_pn16_2_s2:Z pgm_pn16_2_s2:1 1.647648e+01
2 pgm_pn16_2_s2:1 vs_44_16:A 1.000000e-03
*END

*D_NET pgm_pn16_3_s3 1.317747e-02
*CONN
*I lt_pn16_3_s3:Z O
*I vs_62_16:A I
*CAP
1 pgm_pn16_3_s3:1 1.317747e-02
*RES
1 lt_pn16_3_s3:Z pgm_pn16_3_s3:1 1.495355e+01
2 pgm_pn16_3_s3:1 vs_62_16:A 1.000000e-03
*END

*D_NET pgm_pn16_4_s0 7.231609e-03
*CONN
*I lt_pn16_4_s0:Z O
*I vs_1_16:A I
*CAP
1 pgm_pn16_4_s0:1 7.231609e-03
*RES
1 lt_pn16_4_s0:Z pgm_pn16_4_s0:1 8.206300e+00
2 pgm_pn16_4_s0:1 vs_1_16:A 1.000000e-03
*END

*D_NET pgm_pn16_4_s1 1.124292e-02
*CONN
*I lt_pn16_4_s1:Z O
*I vs_30_16:A I
*CAP
1 pgm_pn16_4_s1:1 1.124292e-02
*RES
1 lt_pn16_4_s1:Z pgm_pn16_4_s1:1 1.275826e+01
2 pgm_pn16_4_s1:1 vs_30_16:A 1.000000e-03
*END

*D_NET pgm_pn16_5_s1 8.235917e-03
*CONN
*I lt_pn16_5_s1:Z O
*I vs_25_16:A I
*I vs_21_16:A I
*I vs_19_16:A I
*CAP
1 pgm_pn16_5_s1:1 8.235917e-03
*RES
1 lt_pn16_5_s1:Z pgm_pn16_5_s1:1 9.345971e+00
2 pgm_pn16_5_s1:1 vs_25_16:A 1.000000e-03
3 pgm_pn16_5_s1:1 vs_21_16:A 1.000000e-03
4 pgm_pn16_5_s1:1 vs_19_16:A 1.000000e-03
*END

*D_NET pgm_pn16_5_s3 2.992186e-03
*CONN
*I lt_pn16_5_s3:Z O
*I vs_53_16:A I
*CAP
1 pgm_pn16_5_s3:1 2.992186e-03
*RES
1 lt_pn16_5_s3:Z pgm_pn16_5_s3:1 3.395479e+00
2 pgm_pn16_5_s3:1 vs_53_16:A 1.000000e-03
*END

*D_NET pgm_pn16_6_s0 7.821158e-03
*CONN
*I lt_pn16_6_s0:Z O
*I vs_3_16:A I
*CAP
1 pgm_pn16_6_s0:1 7.821158e-03
*RES
1 lt_pn16_6_s0:Z pgm_pn16_6_s0:1 8.875310e+00
2 pgm_pn16_6_s0:1 vs_3_16:A 1.000000e-03
*END

*D_NET pgm_pn16_6_s1 6.277665e-03
*CONN
*I lt_pn16_6_s1:Z O
*I vs_28_16:A I
*CAP
1 pgm_pn16_6_s1:1 6.277665e-03
*RES
1 lt_pn16_6_s1:Z pgm_pn16_6_s1:1 7.123781e+00
2 pgm_pn16_6_s1:1 vs_28_16:A 1.000000e-03
*END

*D_NET pgm_pn16_6_s2 4.796385e-03
*CONN
*I lt_pn16_6_s2:Z O
*I vs_43_16:A I
*CAP
1 pgm_pn16_6_s2:1 4.796385e-03
*RES
1 lt_pn16_6_s2:Z pgm_pn16_6_s2:1 5.442851e+00
2 pgm_pn16_6_s2:1 vs_43_16:A 1.000000e-03
*END

*D_NET pgm_pn16_7_s3 1.903186e-02
*CONN
*I lt_pn16_7_s3:Z O
*I vs_63_16:A I
*I vs_50_16:A I
*CAP
1 pgm_pn16_7_s3:1 1.903186e-02
*RES
1 lt_pn16_7_s3:Z pgm_pn16_7_s3:1 1.770864e+01
2 pgm_pn16_7_s3:1 vs_63_16:A 1.000000e-03
3 pgm_pn16_7_s3:1 vs_50_16:A 1.000000e-03
*END

*D_NET pgm_pn16_8_s0 3.315105e-03
*CONN
*I lt_pn16_8_s0:Z O
*I vs_8_16:A I
*CAP
1 pgm_pn16_8_s0:1 3.315105e-03
*RES
1 lt_pn16_8_s0:Z pgm_pn16_8_s0:1 3.761921e+00
2 pgm_pn16_8_s0:1 vs_8_16:A 1.000000e-03
*END

*D_NET pgm_pn16_9_s2 7.969286e-03
*CONN
*I lt_pn16_9_s2:Z O
*I vs_38_16:A I
*CAP
1 pgm_pn16_9_s2:1 7.969286e-03
*RES
1 lt_pn16_9_s2:Z pgm_pn16_9_s2:1 9.043403e+00
2 pgm_pn16_9_s2:1 vs_38_16:A 1.000000e-03
*END

*D_NET pgm_pn17_0_s1 1.686987e-02
*CONN
*I lt_pn17_0_s1:Z O
*I vs_29_17:A I
*CAP
1 pgm_pn17_0_s1:1 1.686987e-02
*RES
1 lt_pn17_0_s1:Z pgm_pn17_0_s1:1 1.757145e+01
2 pgm_pn17_0_s1:1 vs_29_17:A 1.000000e-03
*END

*D_NET pgm_pn17_0_s2 1.424978e-02
*CONN
*I lt_pn17_0_s2:Z O
*I vs_42_17:A I
*CAP
1 pgm_pn17_0_s2:1 1.424978e-02
*RES
1 lt_pn17_0_s2:Z pgm_pn17_0_s2:1 1.517413e+01
2 pgm_pn17_0_s2:1 vs_42_17:A 1.000000e-03
*END

*D_NET pgm_pn17_0_s3 1.730431e-02
*CONN
*I lt_pn17_0_s3:Z O
*I vs_61_17:A I
*I vs_59_17:A I
*I vs_58_17:A I
*CAP
1 pgm_pn17_0_s3:1 1.730431e-02
*RES
1 lt_pn17_0_s3:Z pgm_pn17_0_s3:1 1.963662e+01
2 pgm_pn17_0_s3:1 vs_61_17:A 1.000000e-03
3 pgm_pn17_0_s3:1 vs_59_17:A 1.000000e-03
4 pgm_pn17_0_s3:1 vs_58_17:A 1.000000e-03
*END

*D_NET pgm_pn17_10_s0 1.067901e-02
*CONN
*I lt_pn17_10_s0:Z O
*I vs_5_17:A I
*CAP
1 pgm_pn17_10_s0:1 1.067901e-02
*RES
1 lt_pn17_10_s0:Z pgm_pn17_10_s0:1 1.083413e+01
2 pgm_pn17_10_s0:1 vs_5_17:A 1.000000e-03
*END

*D_NET pgm_pn17_10_s2 2.701855e-03
*CONN
*I lt_pn17_10_s2:Z O
*I vs_46_17:A I
*CAP
1 pgm_pn17_10_s2:1 2.701855e-03
*RES
1 lt_pn17_10_s2:Z pgm_pn17_10_s2:1 3.066016e+00
2 pgm_pn17_10_s2:1 vs_46_17:A 1.000000e-03
*END

*D_NET pgm_pn17_10_s3 6.562070e-03
*CONN
*I lt_pn17_10_s3:Z O
*I vs_62_17:A I
*I vs_60_17:A I
*CAP
1 pgm_pn17_10_s3:1 6.562070e-03
*RES
1 lt_pn17_10_s3:Z pgm_pn17_10_s3:1 7.446520e+00
2 pgm_pn17_10_s3:1 vs_62_17:A 1.000000e-03
3 pgm_pn17_10_s3:1 vs_60_17:A 1.000000e-03
*END

*D_NET pgm_pn17_11_s2 1.775166e-02
*CONN
*I lt_pn17_11_s2:Z O
*I vs_33_17:A I
*CAP
1 pgm_pn17_11_s2:1 1.775166e-02
*RES
1 lt_pn17_11_s2:Z pgm_pn17_11_s2:1 2.014427e+01
2 pgm_pn17_11_s2:1 vs_33_17:A 1.000000e-03
*END

*D_NET pgm_pn17_12_s1 1.991051e-02
*CONN
*I lt_pn17_12_s1:Z O
*I vs_26_17:A I
*I vs_19_17:A I
*CAP
1 pgm_pn17_12_s1:1 1.991051e-02
*RES
1 lt_pn17_12_s1:Z pgm_pn17_12_s1:1 1.944974e+01
2 pgm_pn17_12_s1:1 vs_26_17:A 1.000000e-03
3 pgm_pn17_12_s1:1 vs_19_17:A 1.000000e-03
*END

*D_NET pgm_pn17_1_s2 3.996493e-03
*CONN
*I lt_pn17_1_s2:Z O
*I vs_36_17:A I
*CAP
1 pgm_pn17_1_s2:1 3.996493e-03
*RES
1 lt_pn17_1_s2:Z pgm_pn17_1_s2:1 4.535149e+00
2 pgm_pn17_1_s2:1 vs_36_17:A 1.000000e-03
*END

*D_NET pgm_pn17_2_s0 1.622345e-02
*CONN
*I lt_pn17_2_s0:Z O
*I vs_12_17:A I
*I vs_2_17:A I
*CAP
1 pgm_pn17_2_s0:1 1.622345e-02
*RES
1 lt_pn17_2_s0:Z pgm_pn17_2_s0:1 1.569767e+01
2 pgm_pn17_2_s0:1 vs_12_17:A 1.000000e-03
3 pgm_pn17_2_s0:1 vs_2_17:A 1.000000e-03
*END

*D_NET pgm_pn17_3_s0 1.287232e-02
*CONN
*I lt_pn17_3_s0:Z O
*I vs_13_17:A I
*CAP
1 pgm_pn17_3_s0:1 1.287232e-02
*RES
1 lt_pn17_3_s0:Z pgm_pn17_3_s0:1 1.460728e+01
2 pgm_pn17_3_s0:1 vs_13_17:A 1.000000e-03
*END

*D_NET pgm_pn17_4_s0 1.378917e-02
*CONN
*I lt_pn17_4_s0:Z O
*I vs_15_17:A I
*CAP
1 pgm_pn17_4_s0:1 1.378917e-02
*RES
1 lt_pn17_4_s0:Z pgm_pn17_4_s0:1 1.406613e+01
2 pgm_pn17_4_s0:1 vs_15_17:A 1.000000e-03
*END

*D_NET pgm_pn17_4_s3 4.387551e-03
*CONN
*I lt_pn17_4_s3:Z O
*I vs_50_17:A I
*CAP
1 pgm_pn17_4_s3:1 4.387551e-03
*RES
1 lt_pn17_4_s3:Z pgm_pn17_4_s3:1 4.978915e+00
2 pgm_pn17_4_s3:1 vs_50_17:A 1.000000e-03
*END

*D_NET pgm_pn17_5_s1 9.654983e-03
*CONN
*I lt_pn17_5_s1:Z O
*I vs_28_17:A I
*I vs_22_17:A I
*CAP
1 pgm_pn17_5_s1:1 9.654983e-03
*RES
1 lt_pn17_5_s1:Z pgm_pn17_5_s1:1 1.095630e+01
2 pgm_pn17_5_s1:1 vs_28_17:A 1.000000e-03
3 pgm_pn17_5_s1:1 vs_22_17:A 1.000000e-03
*END

*D_NET pgm_pn17_6_s0 1.062967e-02
*CONN
*I lt_pn17_6_s0:Z O
*I vs_7_17:A I
*I vs_0_17:A I
*CAP
1 pgm_pn17_6_s0:1 1.062967e-02
*RES
1 lt_pn17_6_s0:Z pgm_pn17_6_s0:1 1.206235e+01
2 pgm_pn17_6_s0:1 vs_7_17:A 1.000000e-03
3 pgm_pn17_6_s0:1 vs_0_17:A 1.000000e-03
*END

*D_NET pgm_pn17_6_s1 1.783714e-02
*CONN
*I lt_pn17_6_s1:Z O
*I vs_27_17:A I
*I vs_16_17:A I
*CAP
1 pgm_pn17_6_s1:1 1.783714e-02
*RES
1 lt_pn17_6_s1:Z pgm_pn17_6_s1:1 1.677454e+01
2 pgm_pn17_6_s1:1 vs_27_17:A 1.000000e-03
3 pgm_pn17_6_s1:1 vs_16_17:A 1.000000e-03
*END

*D_NET pgm_pn17_6_s2 7.732282e-03
*CONN
*I lt_pn17_6_s2:Z O
*I vs_35_17:A I
*CAP
1 pgm_pn17_6_s2:1 7.732282e-03
*RES
1 lt_pn17_6_s2:Z pgm_pn17_6_s2:1 8.774455e+00
2 pgm_pn17_6_s2:1 vs_35_17:A 1.000000e-03
*END

*D_NET pgm_pn17_6_s3 7.133844e-03
*CONN
*I lt_pn17_6_s3:Z O
*I vs_54_17:A I
*I vs_51_17:A I
*CAP
1 pgm_pn17_6_s3:1 7.133844e-03
*RES
1 lt_pn17_6_s3:Z pgm_pn17_6_s3:1 8.095359e+00
2 pgm_pn17_6_s3:1 vs_54_17:A 1.000000e-03
3 pgm_pn17_6_s3:1 vs_51_17:A 1.000000e-03
*END

*D_NET pgm_pn17_7_s0 8.256655e-03
*CONN
*I lt_pn17_7_s0:Z O
*I vs_4_17:A I
*I vs_3_17:A I
*CAP
1 pgm_pn17_7_s0:1 8.256655e-03
*RES
1 lt_pn17_7_s0:Z pgm_pn17_7_s0:1 9.369504e+00
2 pgm_pn17_7_s0:1 vs_4_17:A 1.000000e-03
3 pgm_pn17_7_s0:1 vs_3_17:A 1.000000e-03
*END

*D_NET pgm_pn17_7_s1 1.102665e-02
*CONN
*I lt_pn17_7_s1:Z O
*I vs_17_17:A I
*CAP
1 pgm_pn17_7_s1:1 1.102665e-02
*RES
1 lt_pn17_7_s1:Z pgm_pn17_7_s1:1 1.251284e+01
2 pgm_pn17_7_s1:1 vs_17_17:A 1.000000e-03
*END

*D_NET pgm_pn17_8_s1 9.148385e-03
*CONN
*I lt_pn17_8_s1:Z O
*I vs_20_17:A I
*CAP
1 pgm_pn17_8_s1:1 9.148385e-03
*RES
1 lt_pn17_8_s1:Z pgm_pn17_8_s1:1 1.038142e+01
2 pgm_pn17_8_s1:1 vs_20_17:A 1.000000e-03
*END

*D_NET pgm_pn17_8_s2 1.085778e-02
*CONN
*I lt_pn17_8_s2:Z O
*I vs_44_17:A I
*I vs_37_17:A I
*CAP
1 pgm_pn17_8_s2:1 1.085778e-02
*RES
1 lt_pn17_8_s2:Z pgm_pn17_8_s2:1 1.232122e+01
2 pgm_pn17_8_s2:1 vs_44_17:A 1.000000e-03
3 pgm_pn17_8_s2:1 vs_37_17:A 1.000000e-03
*END

*D_NET pgm_pn17_8_s3 4.796385e-03
*CONN
*I lt_pn17_8_s3:Z O
*I vs_55_17:A I
*CAP
1 pgm_pn17_8_s3:1 4.796385e-03
*RES
1 lt_pn17_8_s3:Z pgm_pn17_8_s3:1 5.442851e+00
2 pgm_pn17_8_s3:1 vs_55_17:A 1.000000e-03
*END

*D_NET pgm_pn17_9_s0 2.328572e-03
*CONN
*I lt_pn17_9_s0:Z O
*I vs_11_17:A I
*CAP
1 pgm_pn17_9_s0:1 2.328572e-03
*RES
1 lt_pn17_9_s0:Z pgm_pn17_9_s0:1 2.642422e+00
2 pgm_pn17_9_s0:1 vs_11_17:A 1.000000e-03
*END

*D_NET pgm_pn17_9_s3 5.205218e-03
*CONN
*I lt_pn17_9_s3:Z O
*I vs_63_17:A I
*CAP
1 pgm_pn17_9_s3:1 5.205218e-03
*RES
1 lt_pn17_9_s3:Z pgm_pn17_9_s3:1 5.906788e+00
2 pgm_pn17_9_s3:1 vs_63_17:A 1.000000e-03
*END

*D_NET pgm_pn18_0_s2 2.229919e-02
*CONN
*I lt_pn18_0_s2:Z O
*I vs_47_18:A I
*I vs_32_18:A I
*CAP
1 pgm_pn18_0_s2:1 2.229919e-02
*RES
1 lt_pn18_0_s2:Z pgm_pn18_0_s2:1 2.530472e+01
2 pgm_pn18_0_s2:1 vs_47_18:A 1.000000e-03
3 pgm_pn18_0_s2:1 vs_32_18:A 1.000000e-03
*END

*D_NET pgm_pn18_10_s1 1.343255e-02
*CONN
*I lt_pn18_10_s1:Z O
*I vs_19_18:A I
*CAP
1 pgm_pn18_10_s1:1 1.343255e-02
*RES
1 lt_pn18_10_s1:Z pgm_pn18_10_s1:1 1.439074e+01
2 pgm_pn18_10_s1:1 vs_19_18:A 1.000000e-03
*END

*D_NET pgm_pn18_11_s0 6.803092e-03
*CONN
*I lt_pn18_11_s0:Z O
*I vs_10_18:A I
*CAP
1 pgm_pn18_11_s0:1 6.803092e-03
*RES
1 lt_pn18_11_s0:Z pgm_pn18_11_s0:1 6.147853e+00
2 pgm_pn18_11_s0:1 vs_10_18:A 1.000000e-03
*END

*D_NET pgm_pn18_12_s0 1.495309e-02
*CONN
*I lt_pn18_12_s0:Z O
*I vs_5_18:A I
*CAP
1 pgm_pn18_12_s0:1 1.495309e-02
*RES
1 lt_pn18_12_s0:Z pgm_pn18_12_s0:1 1.539633e+01
2 pgm_pn18_12_s0:1 vs_5_18:A 1.000000e-03
*END

*D_NET pgm_pn18_1_s0 1.803283e-02
*CONN
*I lt_pn18_1_s0:Z O
*I vs_14_18:A I
*CAP
1 pgm_pn18_1_s0:1 1.803283e-02
*RES
1 lt_pn18_1_s0:Z pgm_pn18_1_s0:1 1.845922e+01
2 pgm_pn18_1_s0:1 vs_14_18:A 1.000000e-03
*END

*D_NET pgm_pn18_1_s2 6.741321e-03
*CONN
*I lt_pn18_1_s2:Z O
*I vs_38_18:A I
*CAP
1 pgm_pn18_1_s2:1 6.741321e-03
*RES
1 lt_pn18_1_s2:Z pgm_pn18_1_s2:1 6.221736e+00
2 pgm_pn18_1_s2:1 vs_38_18:A 1.000000e-03
*END

*D_NET pgm_pn18_2_s0 4.313487e-03
*CONN
*I lt_pn18_2_s0:Z O
*I vs_1_18:A I
*I vs_0_18:A I
*CAP
1 pgm_pn18_2_s0:1 4.313487e-03
*RES
1 lt_pn18_2_s0:Z pgm_pn18_2_s0:1 4.894868e+00
2 pgm_pn18_2_s0:1 vs_1_18:A 1.000000e-03
3 pgm_pn18_2_s0:1 vs_0_18:A 1.000000e-03
*END

*D_NET pgm_pn18_2_s2 2.162669e-03
*CONN
*I lt_pn18_2_s2:Z O
*I vs_36_18:A I
*CAP
1 pgm_pn18_2_s2:1 2.162669e-03
*RES
1 lt_pn18_2_s2:Z pgm_pn18_2_s2:1 2.454158e+00
2 pgm_pn18_2_s2:1 vs_36_18:A 1.000000e-03
*END

*D_NET pgm_pn18_3_s1 9.329101e-03
*CONN
*I lt_pn18_3_s1:Z O
*I vs_27_18:A I
*CAP
1 pgm_pn18_3_s1:1 9.329101e-03
*RES
1 lt_pn18_3_s1:Z pgm_pn18_3_s1:1 1.058650e+01
2 pgm_pn18_3_s1:1 vs_27_18:A 1.000000e-03
*END

*D_NET pgm_pn18_3_s2 9.500930e-03
*CONN
*I lt_pn18_3_s2:Z O
*I vs_43_18:A I
*CAP
1 pgm_pn18_3_s2:1 9.500930e-03
*RES
1 lt_pn18_3_s2:Z pgm_pn18_3_s2:1 1.078149e+01
2 pgm_pn18_3_s2:1 vs_43_18:A 1.000000e-03
*END

*D_NET pgm_pn18_3_s3 1.413141e-02
*CONN
*I lt_pn18_3_s3:Z O
*I vs_62_18:A I
*CAP
1 pgm_pn18_3_s3:1 1.413141e-02
*RES
1 lt_pn18_3_s3:Z pgm_pn18_3_s3:1 1.603607e+01
2 pgm_pn18_3_s3:1 vs_62_18:A 1.000000e-03
*END

*D_NET pgm_pn18_4_s0 4.437915e-03
*CONN
*I lt_pn18_4_s0:Z O
*I vs_2_18:A I
*CAP
1 pgm_pn18_4_s0:1 4.437915e-03
*RES
1 lt_pn18_4_s0:Z pgm_pn18_4_s0:1 5.036066e+00
2 pgm_pn18_4_s0:1 vs_2_18:A 1.000000e-03
*END

*D_NET pgm_pn18_4_s2 9.142460e-03
*CONN
*I lt_pn18_4_s2:Z O
*I vs_44_18:A I
*CAP
1 pgm_pn18_4_s2:1 9.142460e-03
*RES
1 lt_pn18_4_s2:Z pgm_pn18_4_s2:1 1.037470e+01
2 pgm_pn18_4_s2:1 vs_44_18:A 1.000000e-03
*END

*D_NET pgm_pn18_4_s3 9.284663e-03
*CONN
*I lt_pn18_4_s3:Z O
*I vs_60_18:A I
*CAP
1 pgm_pn18_4_s3:1 9.284663e-03
*RES
1 lt_pn18_4_s3:Z pgm_pn18_4_s3:1 1.053607e+01
2 pgm_pn18_4_s3:1 vs_60_18:A 1.000000e-03
*END

*D_NET pgm_pn18_5_s0 6.251002e-04
*CONN
*I lt_pn18_5_s0:Z O
*I vs_7_18:A I
*CAP
1 pgm_pn18_5_s0:1 6.251002e-04
*RES
1 lt_pn18_5_s0:Z pgm_pn18_5_s0:1 7.093525e-01
2 pgm_pn18_5_s0:1 vs_7_18:A 1.000000e-03
*END

*D_NET pgm_pn18_6_s1 5.459998e-03
*CONN
*I lt_pn18_6_s1:Z O
*I vs_28_18:A I
*I vs_24_18:A I
*CAP
1 pgm_pn18_6_s1:1 5.459998e-03
*RES
1 lt_pn18_6_s1:Z pgm_pn18_6_s1:1 6.195908e+00
2 pgm_pn18_6_s1:1 vs_28_18:A 1.000000e-03
3 pgm_pn18_6_s1:1 vs_24_18:A 1.000000e-03
*END

*D_NET pgm_pn19_0_s0 1.309261e-02
*CONN
*I lt_pn19_0_s0:Z O
*I vs_9_19:A I
*CAP
1 pgm_pn19_0_s0:1 1.309261e-02
*RES
1 lt_pn19_0_s0:Z pgm_pn19_0_s0:1 1.328508e+01
2 pgm_pn19_0_s0:1 vs_9_19:A 1.000000e-03
*END

*D_NET pgm_pn19_0_s3 2.055424e-02
*CONN
*I lt_pn19_0_s3:Z O
*I vs_62_19:A I
*I vs_61_19:A I
*I vs_50_19:A I
*CAP
1 pgm_pn19_0_s3:1 2.055424e-02
*RES
1 lt_pn19_0_s3:Z pgm_pn19_0_s3:1 2.332458e+01
2 pgm_pn19_0_s3:1 vs_62_19:A 1.000000e-03
3 pgm_pn19_0_s3:1 vs_61_19:A 1.000000e-03
4 pgm_pn19_0_s3:1 vs_50_19:A 1.000000e-03
*END

*D_NET pgm_pn19_10_s0 1.946402e-03
*CONN
*I lt_pn19_10_s0:Z O
*I vs_12_19:A I
*CAP
1 pgm_pn19_10_s0:1 1.946402e-03
*RES
1 lt_pn19_10_s0:Z pgm_pn19_10_s0:1 2.208742e+00
2 pgm_pn19_10_s0:1 vs_12_19:A 1.000000e-03
*END

*D_NET pgm_pn19_11_s1 1.747910e-02
*CONN
*I lt_pn19_11_s1:Z O
*I vs_17_19:A I
*CAP
1 pgm_pn19_11_s1:1 1.747910e-02
*RES
1 lt_pn19_11_s1:Z pgm_pn19_11_s1:1 1.983497e+01
2 pgm_pn19_11_s1:1 vs_17_19:A 1.000000e-03
*END

*D_NET pgm_pn19_11_s2 8.511435e-03
*CONN
*I lt_pn19_11_s2:Z O
*I vs_42_19:A I
*CAP
1 pgm_pn19_11_s2:1 8.511435e-03
*RES
1 lt_pn19_11_s2:Z pgm_pn19_11_s2:1 9.658624e+00
2 pgm_pn19_11_s2:1 vs_42_19:A 1.000000e-03
*END

*D_NET pgm_pn19_12_s0 4.471114e-03
*CONN
*I lt_pn19_12_s0:Z O
*I vs_13_19:A I
*CAP
1 pgm_pn19_12_s0:1 4.471114e-03
*RES
1 lt_pn19_12_s0:Z pgm_pn19_12_s0:1 3.357587e+00
2 pgm_pn19_12_s0:1 vs_13_19:A 1.000000e-03
*END

*D_NET pgm_pn19_12_s2 1.635333e-03
*CONN
*I lt_pn19_12_s2:Z O
*I vs_47_19:A I
*CAP
1 pgm_pn19_12_s2:1 1.635333e-03
*RES
1 lt_pn19_12_s2:Z pgm_pn19_12_s2:1 1.855747e+00
2 pgm_pn19_12_s2:1 vs_47_19:A 1.000000e-03
*END

*D_NET pgm_pn19_1_s0 7.944563e-03
*CONN
*I lt_pn19_1_s0:Z O
*I vs_7_19:A I
*I vs_6_19:A I
*CAP
1 pgm_pn19_1_s0:1 7.944563e-03
*RES
1 lt_pn19_1_s0:Z pgm_pn19_1_s0:1 7.731133e+00
2 pgm_pn19_1_s0:1 vs_7_19:A 1.000000e-03
3 pgm_pn19_1_s0:1 vs_6_19:A 1.000000e-03
*END

*D_NET pgm_pn19_1_s1 1.696362e-02
*CONN
*I lt_pn19_1_s1:Z O
*I vs_29_19:A I
*I vs_22_19:A I
*CAP
1 pgm_pn19_1_s1:1 1.696362e-02
*RES
1 lt_pn19_1_s1:Z pgm_pn19_1_s1:1 1.925001e+01
2 pgm_pn19_1_s1:1 vs_29_19:A 1.000000e-03
3 pgm_pn19_1_s1:1 vs_22_19:A 1.000000e-03
*END

*D_NET pgm_pn19_1_s2 1.851201e-02
*CONN
*I lt_pn19_1_s2:Z O
*I vs_45_19:A I
*I vs_44_19:A I
*I vs_37_19:A I
*CAP
1 pgm_pn19_1_s2:1 1.851201e-02
*RES
1 lt_pn19_1_s2:Z pgm_pn19_1_s2:1 1.972289e+01
2 pgm_pn19_1_s2:1 vs_45_19:A 1.000000e-03
3 pgm_pn19_1_s2:1 vs_44_19:A 1.000000e-03
4 pgm_pn19_1_s2:1 vs_37_19:A 1.000000e-03
*END

*D_NET pgm_pn19_1_s3 2.838132e-03
*CONN
*I lt_pn19_1_s3:Z O
*I vs_51_19:A I
*CAP
1 pgm_pn19_1_s3:1 2.838132e-03
*RES
1 lt_pn19_1_s3:Z pgm_pn19_1_s3:1 3.220662e+00
2 pgm_pn19_1_s3:1 vs_51_19:A 1.000000e-03
*END

*D_NET pgm_pn19_2_s0 2.515213e-03
*CONN
*I lt_pn19_2_s0:Z O
*I vs_2_19:A I
*CAP
1 pgm_pn19_2_s0:1 2.515213e-03
*RES
1 lt_pn19_2_s0:Z pgm_pn19_2_s0:1 2.854219e+00
2 pgm_pn19_2_s0:1 vs_2_19:A 1.000000e-03
*END

*D_NET pgm_pn19_2_s1 2.003089e-02
*CONN
*I lt_pn19_2_s1:Z O
*I vs_31_19:A I
*I vs_19_19:A I
*CAP
1 pgm_pn19_2_s1:1 2.003089e-02
*RES
1 lt_pn19_2_s1:Z pgm_pn19_2_s1:1 2.077040e+01
2 pgm_pn19_2_s1:1 vs_31_19:A 1.000000e-03
3 pgm_pn19_2_s1:1 vs_19_19:A 1.000000e-03
*END

*D_NET pgm_pn19_2_s2 8.751402e-03
*CONN
*I lt_pn19_2_s2:Z O
*I vs_41_19:A I
*CAP
1 pgm_pn19_2_s2:1 8.751402e-03
*RES
1 lt_pn19_2_s2:Z pgm_pn19_2_s2:1 9.930934e+00
2 pgm_pn19_2_s2:1 vs_41_19:A 1.000000e-03
*END

*D_NET pgm_pn19_2_s3 3.637444e-03
*CONN
*I lt_pn19_2_s3:Z O
*I vs_53_19:A I
*CAP
1 pgm_pn19_2_s3:1 3.637444e-03
*RES
1 lt_pn19_2_s3:Z pgm_pn19_2_s3:1 2.987470e+00
2 pgm_pn19_2_s3:1 vs_53_19:A 1.000000e-03
*END

*D_NET pgm_pn19_3_s3 3.235116e-03
*CONN
*I lt_pn19_3_s3:Z O
*I vs_54_19:A I
*CAP
1 pgm_pn19_3_s3:1 3.235116e-03
*RES
1 lt_pn19_3_s3:Z pgm_pn19_3_s3:1 3.671151e+00
2 pgm_pn19_3_s3:1 vs_54_19:A 1.000000e-03
*END

*D_NET pgm_pn19_5_s1 6.508744e-03
*CONN
*I lt_pn19_5_s1:Z O
*I vs_27_19:A I
*CAP
1 pgm_pn19_5_s1:1 6.508744e-03
*RES
1 lt_pn19_5_s1:Z pgm_pn19_5_s1:1 7.386006e+00
2 pgm_pn19_5_s1:1 vs_27_19:A 1.000000e-03
*END

*D_NET pgm_pn19_5_s3 1.747910e-03
*CONN
*I lt_pn19_5_s3:Z O
*I vs_56_19:A I
*CAP
1 pgm_pn19_5_s3:1 1.747910e-03
*RES
1 lt_pn19_5_s3:Z pgm_pn19_5_s3:1 1.983497e+00
2 pgm_pn19_5_s3:1 vs_56_19:A 1.000000e-03
*END

*D_NET pgm_pn19_6_s0 1.063559e-02
*CONN
*I lt_pn19_6_s0:Z O
*I vs_15_19:A I
*CAP
1 pgm_pn19_6_s0:1 1.063559e-02
*RES
1 lt_pn19_6_s0:Z pgm_pn19_6_s0:1 1.206908e+01
2 pgm_pn19_6_s0:1 vs_15_19:A 1.000000e-03
*END

*D_NET pgm_pn19_7_s3 1.232129e-02
*CONN
*I lt_pn19_7_s3:Z O
*I vs_57_19:A I
*I vs_48_19:A I
*CAP
1 pgm_pn19_7_s3:1 1.232129e-02
*RES
1 lt_pn19_7_s3:Z pgm_pn19_7_s3:1 1.398198e+01
2 pgm_pn19_7_s3:1 vs_57_19:A 1.000000e-03
3 pgm_pn19_7_s3:1 vs_48_19:A 1.000000e-03
*END

*D_NET pgm_pn19_8_s1 8.040388e-03
*CONN
*I lt_pn19_8_s1:Z O
*I vs_21_19:A I
*CAP
1 pgm_pn19_8_s1:1 8.040388e-03
*RES
1 lt_pn19_8_s1:Z pgm_pn19_8_s1:1 9.124088e+00
2 pgm_pn19_8_s1:1 vs_21_19:A 1.000000e-03
*END

*D_NET pgm_pn19_9_s1 3.990568e-03
*CONN
*I lt_pn19_9_s1:Z O
*I vs_30_19:A I
*CAP
1 pgm_pn19_9_s1:1 3.990568e-03
*RES
1 lt_pn19_9_s1:Z pgm_pn19_9_s1:1 4.528425e+00
2 pgm_pn19_9_s1:1 vs_30_19:A 1.000000e-03
*END

*D_NET pgm_pn19_9_s3 2.832207e-03
*CONN
*I lt_pn19_9_s3:Z O
*I vs_58_19:A I
*CAP
1 pgm_pn19_9_s3:1 2.832207e-03
*RES
1 lt_pn19_9_s3:Z pgm_pn19_9_s3:1 3.213938e+00
2 pgm_pn19_9_s3:1 vs_58_19:A 1.000000e-03
*END

*D_NET pgm_pn1_0_s0 1.323163e-02
*CONN
*I lt_pn1_0_s0:Z O
*I vs_9_1:A I
*CAP
1 pgm_pn1_0_s0:1 1.323163e-02
*RES
1 lt_pn1_0_s0:Z pgm_pn1_0_s0:1 1.337085e+01
2 pgm_pn1_0_s0:1 vs_9_1:A 1.000000e-03
*END

*D_NET pgm_pn1_0_s3 1.317154e-02
*CONN
*I lt_pn1_0_s3:Z O
*I vs_56_1:A I
*I vs_48_1:A I
*CAP
1 pgm_pn1_0_s3:1 1.317154e-02
*RES
1 lt_pn1_0_s3:Z pgm_pn1_0_s3:1 1.494683e+01
2 pgm_pn1_0_s3:1 vs_56_1:A 1.000000e-03
3 pgm_pn1_0_s3:1 vs_48_1:A 1.000000e-03
*END

*D_NET pgm_pn1_10_s0 9.240225e-03
*CONN
*I lt_pn1_10_s0:Z O
*I vs_7_1:A I
*CAP
1 pgm_pn1_10_s0:1 9.240225e-03
*RES
1 lt_pn1_10_s0:Z pgm_pn1_10_s0:1 1.048564e+01
2 pgm_pn1_10_s0:1 vs_7_1:A 1.000000e-03
*END

*D_NET pgm_pn1_11_s1 3.798002e-03
*CONN
*I lt_pn1_11_s1:Z O
*I vs_28_1:A I
*CAP
1 pgm_pn1_11_s1:1 3.798002e-03
*RES
1 lt_pn1_11_s1:Z pgm_pn1_11_s1:1 4.309905e+00
2 pgm_pn1_11_s1:1 vs_28_1:A 1.000000e-03
*END

*D_NET pgm_pn1_12_s1 1.517423e-02
*CONN
*I lt_pn1_12_s1:Z O
*I vs_21_1:A I
*CAP
1 pgm_pn1_12_s1:1 1.517423e-02
*RES
1 lt_pn1_12_s1:Z pgm_pn1_12_s1:1 1.721945e+01
2 pgm_pn1_12_s1:1 vs_21_1:A 1.000000e-03
*END

*D_NET pgm_pn1_12_s3 1.610161e-02
*CONN
*I lt_pn1_12_s3:Z O
*I vs_53_1:A I
*CAP
1 pgm_pn1_12_s3:1 1.610161e-02
*RES
1 lt_pn1_12_s3:Z pgm_pn1_12_s3:1 1.563545e+01
2 pgm_pn1_12_s3:1 vs_53_1:A 1.000000e-03
*END

*D_NET pgm_pn1_1_s0 1.891625e-02
*CONN
*I lt_pn1_1_s0:Z O
*I vs_14_1:A I
*I vs_13_1:A I
*I vs_11_1:A I
*I vs_5_1:A I
*CAP
1 pgm_pn1_1_s0:1 1.891625e-02
*RES
1 lt_pn1_1_s0:Z pgm_pn1_1_s0:1 2.061355e+01
2 pgm_pn1_1_s0:1 vs_14_1:A 1.000000e-03
3 pgm_pn1_1_s0:1 vs_13_1:A 1.000000e-03
4 pgm_pn1_1_s0:1 vs_11_1:A 1.000000e-03
5 pgm_pn1_1_s0:1 vs_5_1:A 1.000000e-03
*END

*D_NET pgm_pn1_1_s3 6.649924e-03
*CONN
*I lt_pn1_1_s3:Z O
*I vs_54_1:A I
*CAP
1 pgm_pn1_1_s3:1 6.649924e-03
*RES
1 lt_pn1_1_s3:Z pgm_pn1_1_s3:1 6.262000e+00
2 pgm_pn1_1_s3:1 vs_54_1:A 1.000000e-03
*END

*D_NET pgm_pn1_2_s1 1.451685e-02
*CONN
*I lt_pn1_2_s1:Z O
*I vs_29_1:A I
*I vs_27_1:A I
*CAP
1 pgm_pn1_2_s1:1 1.451685e-02
*RES
1 lt_pn1_2_s1:Z pgm_pn1_2_s1:1 1.562118e+01
2 pgm_pn1_2_s1:1 vs_29_1:A 1.000000e-03
3 pgm_pn1_2_s1:1 vs_27_1:A 1.000000e-03
*END

*D_NET pgm_pn1_2_s2 1.288417e-02
*CONN
*I lt_pn1_2_s2:Z O
*I vs_43_1:A I
*I vs_36_1:A I
*CAP
1 pgm_pn1_2_s2:1 1.288417e-02
*RES
1 lt_pn1_2_s2:Z pgm_pn1_2_s2:1 1.462073e+01
2 pgm_pn1_2_s2:1 vs_43_1:A 1.000000e-03
3 pgm_pn1_2_s2:1 vs_36_1:A 1.000000e-03
*END

*D_NET pgm_pn1_3_s2 4.449765e-03
*CONN
*I lt_pn1_3_s2:Z O
*I vs_39_1:A I
*I vs_37_1:A I
*CAP
1 pgm_pn1_3_s2:1 4.449765e-03
*RES
1 lt_pn1_3_s2:Z pgm_pn1_3_s2:1 5.049514e+00
2 pgm_pn1_3_s2:1 vs_39_1:A 1.000000e-03
3 pgm_pn1_3_s2:1 vs_37_1:A 1.000000e-03
*END

*D_NET pgm_pn1_4_s1 3.632099e-03
*CONN
*I lt_pn1_4_s1:Z O
*I vs_24_1:A I
*CAP
1 pgm_pn1_4_s1:1 3.632099e-03
*RES
1 lt_pn1_4_s1:Z pgm_pn1_4_s1:1 4.121640e+00
2 pgm_pn1_4_s1:1 vs_24_1:A 1.000000e-03
*END

*D_NET pgm_pn1_4_s2 1.026009e-02
*CONN
*I lt_pn1_4_s2:Z O
*I vs_44_1:A I
*CAP
1 pgm_pn1_4_s2:1 1.026009e-02
*RES
1 lt_pn1_4_s2:Z pgm_pn1_4_s2:1 1.093467e+01
2 pgm_pn1_4_s2:1 vs_44_1:A 1.000000e-03
*END

*D_NET pgm_pn1_5_s0 1.503734e-02
*CONN
*I lt_pn1_5_s0:Z O
*I vs_15_1:A I
*CAP
1 pgm_pn1_5_s0:1 1.503734e-02
*RES
1 lt_pn1_5_s0:Z pgm_pn1_5_s0:1 1.553575e+01
2 pgm_pn1_5_s0:1 vs_15_1:A 1.000000e-03
*END

*D_NET pgm_pn1_5_s2 9.420941e-04
*CONN
*I lt_pn1_5_s2:Z O
*I vs_38_1:A I
*CAP
1 pgm_pn1_5_s2:1 9.420941e-04
*RES
1 lt_pn1_5_s2:Z pgm_pn1_5_s2:1 1.069071e+00
2 pgm_pn1_5_s2:1 vs_38_1:A 1.000000e-03
*END

*D_NET pgm_pn1_5_s3 1.138873e-02
*CONN
*I lt_pn1_5_s3:Z O
*I vs_62_1:A I
*CAP
1 pgm_pn1_5_s3:1 1.138873e-02
*RES
1 lt_pn1_5_s3:Z pgm_pn1_5_s3:1 1.105107e+01
2 pgm_pn1_5_s3:1 vs_62_1:A 1.000000e-03
*END

*D_NET pgm_pn1_6_s1 1.054375e-02
*CONN
*I lt_pn1_6_s1:Z O
*I vs_31_1:A I
*I vs_25_1:A I
*CAP
1 pgm_pn1_6_s1:1 1.054375e-02
*RES
1 lt_pn1_6_s1:Z pgm_pn1_6_s1:1 1.196486e+01
2 pgm_pn1_6_s1:1 vs_31_1:A 1.000000e-03
3 pgm_pn1_6_s1:1 vs_25_1:A 1.000000e-03
*END

*D_NET pgm_pn1_6_s3 1.476836e-02
*CONN
*I lt_pn1_6_s3:Z O
*I vs_61_1:A I
*I vs_52_1:A I
*CAP
1 pgm_pn1_6_s3:1 1.476836e-02
*RES
1 lt_pn1_6_s3:Z pgm_pn1_6_s3:1 1.675887e+01
2 pgm_pn1_6_s3:1 vs_61_1:A 1.000000e-03
3 pgm_pn1_6_s3:1 vs_52_1:A 1.000000e-03
*END

*D_NET pgm_pn1_8_s3 1.206964e-02
*CONN
*I lt_pn1_8_s3:Z O
*I vs_51_1:A I
*CAP
1 pgm_pn1_8_s3:1 1.206964e-02
*RES
1 lt_pn1_8_s3:Z pgm_pn1_8_s3:1 1.183628e+01
2 pgm_pn1_8_s3:1 vs_51_1:A 1.000000e-03
*END

*D_NET pgm_pn1_9_s1 1.491945e-02
*CONN
*I lt_pn1_9_s1:Z O
*I vs_16_1:A I
*CAP
1 pgm_pn1_9_s1:1 1.491945e-02
*RES
1 lt_pn1_9_s1:Z pgm_pn1_9_s1:1 1.693033e+01
2 pgm_pn1_9_s1:1 vs_16_1:A 1.000000e-03
*END

*D_NET pgm_pn1_9_s2 7.644459e-03
*CONN
*I lt_pn1_9_s2:Z O
*I vs_40_1:A I
*CAP
1 pgm_pn1_9_s2:1 7.644459e-03
*RES
1 lt_pn1_9_s2:Z pgm_pn1_9_s2:1 7.102621e+00
2 pgm_pn1_9_s2:1 vs_40_1:A 1.000000e-03
*END

*D_NET pgm_pn20_0_s2 1.675093e-02
*CONN
*I lt_pn20_0_s2:Z O
*I vs_44_20:A I
*I vs_41_20:A I
*CAP
1 pgm_pn20_0_s2:1 1.675093e-02
*RES
1 lt_pn20_0_s2:Z pgm_pn20_0_s2:1 1.729250e+01
2 pgm_pn20_0_s2:1 vs_44_20:A 1.000000e-03
3 pgm_pn20_0_s2:1 vs_41_20:A 1.000000e-03
*END

*D_NET pgm_pn20_12_s0 2.025502e-02
*CONN
*I lt_pn20_12_s0:Z O
*I vs_0_20:A I
*CAP
1 pgm_pn20_12_s0:1 2.025502e-02
*RES
1 lt_pn20_12_s0:Z pgm_pn20_12_s0:1 2.298504e+01
2 pgm_pn20_12_s0:1 vs_0_20:A 1.000000e-03
*END

*D_NET pgm_pn20_12_s2 1.909666e-02
*CONN
*I lt_pn20_12_s2:Z O
*I vs_33_20:A I
*CAP
1 pgm_pn20_12_s2:1 1.909666e-02
*RES
1 lt_pn20_12_s2:Z pgm_pn20_12_s2:1 2.167055e+01
2 pgm_pn20_12_s2:1 vs_33_20:A 1.000000e-03
*END

*D_NET pgm_pn20_12_s3 9.481689e-03
*CONN
*I lt_pn20_12_s3:Z O
*I vs_57_20:A I
*CAP
1 pgm_pn20_12_s3:1 9.481689e-03
*RES
1 lt_pn20_12_s3:Z pgm_pn20_12_s3:1 9.331456e+00
2 pgm_pn20_12_s3:1 vs_57_20:A 1.000000e-03
*END

*D_NET pgm_pn20_1_s1 1.560084e-02
*CONN
*I lt_pn20_1_s1:Z O
*I vs_29_20:A I
*CAP
1 pgm_pn20_1_s1:1 1.560084e-02
*RES
1 lt_pn20_1_s1:Z pgm_pn20_1_s1:1 1.770355e+01
2 pgm_pn20_1_s1:1 vs_29_20:A 1.000000e-03
*END

*D_NET pgm_pn20_1_s2 3.190677e-03
*CONN
*I lt_pn20_1_s2:Z O
*I vs_32_20:A I
*CAP
1 pgm_pn20_1_s2:1 3.190677e-03
*RES
1 lt_pn20_1_s2:Z pgm_pn20_1_s2:1 3.620723e+00
2 pgm_pn20_1_s2:1 vs_32_20:A 1.000000e-03
*END

*D_NET pgm_pn20_2_s0 9.817924e-03
*CONN
*I lt_pn20_2_s0:Z O
*I vs_10_20:A I
*CAP
1 pgm_pn20_2_s0:1 9.817924e-03
*RES
1 lt_pn20_2_s0:Z pgm_pn20_2_s0:1 1.114120e+01
2 pgm_pn20_2_s0:1 vs_10_20:A 1.000000e-03
*END

*D_NET pgm_pn20_2_s1 9.767560e-03
*CONN
*I lt_pn20_2_s1:Z O
*I vs_26_20:A I
*CAP
1 pgm_pn20_2_s1:1 9.767560e-03
*RES
1 lt_pn20_2_s1:Z pgm_pn20_2_s1:1 1.108405e+01
2 pgm_pn20_2_s1:1 vs_26_20:A 1.000000e-03
*END

*D_NET pgm_pn20_2_s3 9.539443e-04
*CONN
*I lt_pn20_2_s3:Z O
*I vs_51_20:A I
*CAP
1 pgm_pn20_2_s3:1 9.539443e-04
*RES
1 lt_pn20_2_s3:Z pgm_pn20_2_s3:1 1.082519e+00
2 pgm_pn20_2_s3:1 vs_51_20:A 1.000000e-03
*END

*D_NET pgm_pn20_3_s0 1.638296e-03
*CONN
*I lt_pn20_3_s0:Z O
*I vs_4_20:A I
*CAP
1 pgm_pn20_3_s0:1 1.638296e-03
*RES
1 lt_pn20_3_s0:Z pgm_pn20_3_s0:1 1.859109e+00
2 pgm_pn20_3_s0:1 vs_4_20:A 1.000000e-03
*END

*D_NET pgm_pn20_4_s0 5.291812e-03
*CONN
*I lt_pn20_4_s0:Z O
*I vs_3_20:A I
*I vs_2_20:A I
*CAP
1 pgm_pn20_4_s0:1 5.291812e-03
*RES
1 lt_pn20_4_s0:Z pgm_pn20_4_s0:1 5.065137e+00
2 pgm_pn20_4_s0:1 vs_3_20:A 1.000000e-03
3 pgm_pn20_4_s0:1 vs_2_20:A 1.000000e-03
*END

*D_NET pgm_pn20_5_s2 6.464306e-03
*CONN
*I lt_pn20_5_s2:Z O
*I vs_35_20:A I
*CAP
1 pgm_pn20_5_s2:1 6.464306e-03
*RES
1 lt_pn20_5_s2:Z pgm_pn20_5_s2:1 7.335579e+00
2 pgm_pn20_5_s2:1 vs_35_20:A 1.000000e-03
*END

*D_NET pgm_pn20_6_s0 1.195376e-02
*CONN
*I lt_pn20_6_s0:Z O
*I vs_9_20:A I
*I vs_1_20:A I
*CAP
1 pgm_pn20_6_s0:1 1.195376e-02
*RES
1 lt_pn20_6_s0:Z pgm_pn20_6_s0:1 1.218054e+01
2 pgm_pn20_6_s0:1 vs_9_20:A 1.000000e-03
3 pgm_pn20_6_s0:1 vs_1_20:A 1.000000e-03
*END

*D_NET pgm_pn20_6_s1 1.211687e-02
*CONN
*I lt_pn20_6_s1:Z O
*I vs_25_20:A I
*I vs_21_20:A I
*I vs_17_20:A I
*CAP
1 pgm_pn20_6_s1:1 1.211687e-02
*RES
1 lt_pn20_6_s1:Z pgm_pn20_6_s1:1 1.375001e+01
2 pgm_pn20_6_s1:1 vs_25_20:A 1.000000e-03
3 pgm_pn20_6_s1:1 vs_21_20:A 1.000000e-03
4 pgm_pn20_6_s1:1 vs_17_20:A 1.000000e-03
*END

*D_NET pgm_pn20_6_s3 2.255621e-02
*CONN
*I lt_pn20_6_s3:Z O
*I vs_63_20:A I
*I vs_49_20:A I
*CAP
1 pgm_pn20_6_s3:1 2.255621e-02
*RES
1 lt_pn20_6_s3:Z pgm_pn20_6_s3:1 2.345410e+01
2 pgm_pn20_6_s3:1 vs_63_20:A 1.000000e-03
3 pgm_pn20_6_s3:1 vs_49_20:A 1.000000e-03
*END

*D_NET pgm_pn20_7_s1 7.758945e-03
*CONN
*I lt_pn20_7_s1:Z O
*I vs_20_20:A I
*CAP
1 pgm_pn20_7_s1:1 7.758945e-03
*RES
1 lt_pn20_7_s1:Z pgm_pn20_7_s1:1 8.804711e+00
2 pgm_pn20_7_s1:1 vs_20_20:A 1.000000e-03
*END

*D_NET pgm_pn20_7_s2 2.479663e-03
*CONN
*I lt_pn20_7_s2:Z O
*I vs_40_20:A I
*CAP
1 pgm_pn20_7_s2:1 2.479663e-03
*RES
1 lt_pn20_7_s2:Z pgm_pn20_7_s2:1 2.813877e+00
2 pgm_pn20_7_s2:1 vs_40_20:A 1.000000e-03
*END

*D_NET pgm_pn20_8_s1 3.501746e-03
*CONN
*I lt_pn20_8_s1:Z O
*I vs_24_20:A I
*CAP
1 pgm_pn20_8_s1:1 3.501746e-03
*RES
1 lt_pn20_8_s1:Z pgm_pn20_8_s1:1 3.973719e+00
2 pgm_pn20_8_s1:1 vs_24_20:A 1.000000e-03
*END

*D_NET pgm_pn20_8_s3 9.183356e-03
*CONN
*I lt_pn20_8_s3:Z O
*I vs_53_20:A I
*CAP
1 pgm_pn20_8_s3:1 9.183356e-03
*RES
1 lt_pn20_8_s3:Z pgm_pn20_8_s3:1 9.280872e+00
2 pgm_pn20_8_s3:1 vs_53_20:A 1.000000e-03
*END

*D_NET pgm_pn20_9_s0 6.508744e-03
*CONN
*I lt_pn20_9_s0:Z O
*I vs_7_20:A I
*CAP
1 pgm_pn20_9_s0:1 6.508744e-03
*RES
1 lt_pn20_9_s0:Z pgm_pn20_9_s0:1 7.386006e+00
2 pgm_pn20_9_s0:1 vs_7_20:A 1.000000e-03
*END

*D_NET pgm_pn20_9_s2 9.550713e-03
*CONN
*I lt_pn20_9_s2:Z O
*I vs_39_20:A I
*I vs_37_20:A I
*CAP
1 pgm_pn20_9_s2:1 9.550713e-03
*RES
1 lt_pn20_9_s2:Z pgm_pn20_9_s2:1 9.697743e+00
2 pgm_pn20_9_s2:1 vs_39_20:A 1.000000e-03
3 pgm_pn20_9_s2:1 vs_37_20:A 1.000000e-03
*END

*D_NET pgm_pn21_0_s0 1.457283e-02
*CONN
*I lt_pn21_0_s0:Z O
*I vs_14_21:A I
*I vs_6_21:A I
*I vs_3_21:A I
*CAP
1 pgm_pn21_0_s0:1 1.457283e-02
*RES
1 lt_pn21_0_s0:Z pgm_pn21_0_s0:1 1.653699e+01
2 pgm_pn21_0_s0:1 vs_14_21:A 1.000000e-03
3 pgm_pn21_0_s0:1 vs_6_21:A 1.000000e-03
4 pgm_pn21_0_s0:1 vs_3_21:A 1.000000e-03
*END

*D_NET pgm_pn21_0_s1 2.156386e-02
*CONN
*I lt_pn21_0_s1:Z O
*I vs_29_21:A I
*I vs_25_21:A I
*I vs_17_21:A I
*CAP
1 pgm_pn21_0_s1:1 2.156386e-02
*RES
1 lt_pn21_0_s1:Z pgm_pn21_0_s1:1 2.294193e+01
2 pgm_pn21_0_s1:1 vs_29_21:A 1.000000e-03
3 pgm_pn21_0_s1:1 vs_25_21:A 1.000000e-03
4 pgm_pn21_0_s1:1 vs_17_21:A 1.000000e-03
*END

*D_NET pgm_pn21_0_s2 1.998247e-02
*CONN
*I lt_pn21_0_s2:Z O
*I vs_47_21:A I
*I vs_45_21:A I
*I vs_43_21:A I
*I vs_40_21:A I
*I vs_37_21:A I
*I vs_32_21:A I
*CAP
1 pgm_pn21_0_s2:1 1.998247e-02
*RES
1 lt_pn21_0_s2:Z pgm_pn21_0_s2:1 2.267575e+01
2 pgm_pn21_0_s2:1 vs_47_21:A 1.000000e-03
3 pgm_pn21_0_s2:1 vs_45_21:A 1.000000e-03
4 pgm_pn21_0_s2:1 vs_43_21:A 1.000000e-03
5 pgm_pn21_0_s2:1 vs_40_21:A 1.000000e-03
6 pgm_pn21_0_s2:1 vs_37_21:A 1.000000e-03
7 pgm_pn21_0_s2:1 vs_32_21:A 1.000000e-03
*END

*D_NET pgm_pn21_0_s3 1.833528e-02
*CONN
*I lt_pn21_0_s3:Z O
*I vs_62_21:A I
*I vs_55_21:A I
*I vs_53_21:A I
*I vs_48_21:A I
*CAP
1 pgm_pn21_0_s3:1 1.833528e-02
*RES
1 lt_pn21_0_s3:Z pgm_pn21_0_s3:1 2.080655e+01
2 pgm_pn21_0_s3:1 vs_62_21:A 1.000000e-03
3 pgm_pn21_0_s3:1 vs_55_21:A 1.000000e-03
4 pgm_pn21_0_s3:1 vs_53_21:A 1.000000e-03
5 pgm_pn21_0_s3:1 vs_48_21:A 1.000000e-03
*END

*D_NET pgm_pn2_0_s0 1.207437e-02
*CONN
*I lt_pn2_0_s0:Z O
*I vs_9_2:A I
*CAP
1 pgm_pn2_0_s0:1 1.207437e-02
*RES
1 lt_pn2_0_s0:Z pgm_pn2_0_s0:1 1.241757e+01
2 pgm_pn2_0_s0:1 vs_9_2:A 1.000000e-03
*END

*D_NET pgm_pn2_10_s1 1.555048e-02
*CONN
*I lt_pn2_10_s1:Z O
*I vs_21_2:A I
*I vs_18_2:A I
*CAP
1 pgm_pn2_10_s1:1 1.555048e-02
*RES
1 lt_pn2_10_s1:Z pgm_pn2_10_s1:1 1.764640e+01
2 pgm_pn2_10_s1:1 vs_21_2:A 1.000000e-03
3 pgm_pn2_10_s1:1 vs_18_2:A 1.000000e-03
*END

*D_NET pgm_pn2_11_s0 1.382480e-02
*CONN
*I lt_pn2_11_s0:Z O
*I vs_5_2:A I
*CAP
1 pgm_pn2_11_s0:1 1.382480e-02
*RES
1 lt_pn2_11_s0:Z pgm_pn2_11_s0:1 1.425994e+01
2 pgm_pn2_11_s0:1 vs_5_2:A 1.000000e-03
*END

*D_NET pgm_pn2_11_s2 1.362778e-03
*CONN
*I lt_pn2_11_s2:Z O
*I vs_46_2:A I
*CAP
1 pgm_pn2_11_s2:1 1.362778e-03
*RES
1 lt_pn2_11_s2:Z pgm_pn2_11_s2:1 1.546456e+00
2 pgm_pn2_11_s2:1 vs_46_2:A 1.000000e-03
*END

*D_NET pgm_pn2_12_s0 1.321022e-02
*CONN
*I lt_pn2_12_s0:Z O
*I vs_6_2:A I
*CAP
1 pgm_pn2_12_s0:1 1.321022e-02
*RES
1 lt_pn2_12_s0:Z pgm_pn2_12_s0:1 1.313059e+01
2 pgm_pn2_12_s0:1 vs_6_2:A 1.000000e-03
*END

*D_NET pgm_pn2_1_s0 1.366629e-02
*CONN
*I lt_pn2_1_s0:Z O
*I vs_12_2:A I
*CAP
1 pgm_pn2_1_s0:1 1.366629e-02
*RES
1 lt_pn2_1_s0:Z pgm_pn2_1_s0:1 1.550826e+01
2 pgm_pn2_1_s0:1 vs_12_2:A 1.000000e-03
*END

*D_NET pgm_pn2_1_s2 1.701844e-02
*CONN
*I lt_pn2_1_s2:Z O
*I vs_45_2:A I
*I vs_42_2:A I
*I vs_39_2:A I
*CAP
1 pgm_pn2_1_s2:1 1.701844e-02
*RES
1 lt_pn2_1_s2:Z pgm_pn2_1_s2:1 1.788403e+01
2 pgm_pn2_1_s2:1 vs_45_2:A 1.000000e-03
3 pgm_pn2_1_s2:1 vs_42_2:A 1.000000e-03
4 pgm_pn2_1_s2:1 vs_39_2:A 1.000000e-03
*END

*D_NET pgm_pn2_2_s1 1.207229e-02
*CONN
*I lt_pn2_2_s1:Z O
*I vs_27_2:A I
*CAP
1 pgm_pn2_2_s1:1 1.207229e-02
*RES
1 lt_pn2_2_s1:Z pgm_pn2_2_s1:1 1.270317e+01
2 pgm_pn2_2_s1:1 vs_27_2:A 1.000000e-03
*END

*D_NET pgm_pn2_2_s2 1.586155e-02
*CONN
*I lt_pn2_2_s2:Z O
*I vs_47_2:A I
*CAP
1 pgm_pn2_2_s2:1 1.586155e-02
*RES
1 lt_pn2_2_s2:Z pgm_pn2_2_s2:1 1.799940e+01
2 pgm_pn2_2_s2:1 vs_47_2:A 1.000000e-03
*END

*D_NET pgm_pn2_3_s2 7.367887e-03
*CONN
*I lt_pn2_3_s2:Z O
*I vs_35_2:A I
*I vs_32_2:A I
*CAP
1 pgm_pn2_3_s2:1 7.367887e-03
*RES
1 lt_pn2_3_s2:Z pgm_pn2_3_s2:1 8.360946e+00
2 pgm_pn2_3_s2:1 vs_35_2:A 1.000000e-03
3 pgm_pn2_3_s2:1 vs_32_2:A 1.000000e-03
*END

*D_NET pgm_pn2_3_s3 8.558699e-03
*CONN
*I lt_pn2_3_s3:Z O
*I vs_57_2:A I
*CAP
1 pgm_pn2_3_s3:1 8.558699e-03
*RES
1 lt_pn2_3_s3:Z pgm_pn2_3_s3:1 8.716002e+00
2 pgm_pn2_3_s3:1 vs_57_2:A 1.000000e-03
*END

*D_NET pgm_pn2_4_s0 7.077556e-03
*CONN
*I lt_pn2_4_s0:Z O
*I vs_0_2:A I
*CAP
1 pgm_pn2_4_s0:1 7.077556e-03
*RES
1 lt_pn2_4_s0:Z pgm_pn2_4_s0:1 8.031484e+00
2 pgm_pn2_4_s0:1 vs_0_2:A 1.000000e-03
*END

*D_NET pgm_pn2_4_s3 2.020466e-03
*CONN
*I lt_pn2_4_s3:Z O
*I vs_52_2:A I
*CAP
1 pgm_pn2_4_s3:1 2.020466e-03
*RES
1 lt_pn2_4_s3:Z pgm_pn2_4_s3:1 2.292789e+00
2 pgm_pn2_4_s3:1 vs_52_2:A 1.000000e-03
*END

*D_NET pgm_pn2_5_s2 7.480464e-03
*CONN
*I lt_pn2_5_s2:Z O
*I vs_44_2:A I
*CAP
1 pgm_pn2_5_s2:1 7.480464e-03
*RES
1 lt_pn2_5_s2:Z pgm_pn2_5_s2:1 8.488696e+00
2 pgm_pn2_5_s2:1 vs_44_2:A 1.000000e-03
*END

*D_NET pgm_pn2_6_s0 9.954202e-03
*CONN
*I lt_pn2_6_s0:Z O
*I vs_15_2:A I
*CAP
1 pgm_pn2_6_s0:1 9.954202e-03
*RES
1 lt_pn2_6_s0:Z pgm_pn2_6_s0:1 1.129585e+01
2 pgm_pn2_6_s0:1 vs_15_2:A 1.000000e-03
*END

*D_NET pgm_pn2_6_s1 2.056017e-03
*CONN
*I lt_pn2_6_s1:Z O
*I vs_25_2:A I
*CAP
1 pgm_pn2_6_s1:1 2.056017e-03
*RES
1 lt_pn2_6_s1:Z pgm_pn2_6_s1:1 2.333131e+00
2 pgm_pn2_6_s1:1 vs_25_2:A 1.000000e-03
*END

*D_NET pgm_pn2_6_s2 5.867060e-03
*CONN
*I lt_pn2_6_s2:Z O
*I vs_37_2:A I
*CAP
1 pgm_pn2_6_s2:1 5.867060e-03
*RES
1 lt_pn2_6_s2:Z pgm_pn2_6_s2:1 6.093517e+00
2 pgm_pn2_6_s2:1 vs_37_2:A 1.000000e-03
*END

*D_NET pgm_pn2_6_s3 3.875028e-03
*CONN
*I lt_pn2_6_s3:Z O
*I vs_54_2:A I
*CAP
1 pgm_pn2_6_s3:1 3.875028e-03
*RES
1 lt_pn2_6_s3:Z pgm_pn2_6_s3:1 4.397313e+00
2 pgm_pn2_6_s3:1 vs_54_2:A 1.000000e-03
*END

*D_NET pgm_pn2_8_s1 1.112441e-02
*CONN
*I lt_pn2_8_s1:Z O
*I vs_24_2:A I
*I vs_22_2:A I
*I vs_20_2:A I
*I vs_19_2:A I
*CAP
1 pgm_pn2_8_s1:1 1.112441e-02
*RES
1 lt_pn2_8_s1:Z pgm_pn2_8_s1:1 1.262378e+01
2 pgm_pn2_8_s1:1 vs_24_2:A 1.000000e-03
3 pgm_pn2_8_s1:1 vs_22_2:A 1.000000e-03
4 pgm_pn2_8_s1:1 vs_20_2:A 1.000000e-03
5 pgm_pn2_8_s1:1 vs_19_2:A 1.000000e-03
*END

*D_NET pgm_pn2_8_s2 2.610015e-03
*CONN
*I lt_pn2_8_s2:Z O
*I vs_43_2:A I
*CAP
1 pgm_pn2_8_s2:1 2.610015e-03
*RES
1 lt_pn2_8_s2:Z pgm_pn2_8_s2:1 2.961799e+00
2 pgm_pn2_8_s2:1 vs_43_2:A 1.000000e-03
*END

*D_NET pgm_pn2_9_s2 8.256075e-03
*CONN
*I lt_pn2_9_s2:Z O
*I vs_38_2:A I
*CAP
1 pgm_pn2_9_s2:1 8.256075e-03
*RES
1 lt_pn2_9_s2:Z pgm_pn2_9_s2:1 8.228610e+00
2 pgm_pn2_9_s2:1 vs_38_2:A 1.000000e-03
*END

*D_NET pgm_pn3_0_s1 1.835898e-02
*CONN
*I lt_pn3_0_s1:Z O
*I vs_28_3:A I
*I vs_18_3:A I
*CAP
1 pgm_pn3_0_s1:1 1.835898e-02
*RES
1 lt_pn3_0_s1:Z pgm_pn3_0_s1:1 2.083345e+01
2 pgm_pn3_0_s1:1 vs_28_3:A 1.000000e-03
3 pgm_pn3_0_s1:1 vs_18_3:A 1.000000e-03
*END

*D_NET pgm_pn3_0_s2 1.739911e-02
*CONN
*I lt_pn3_0_s2:Z O
*I vs_45_3:A I
*CAP
1 pgm_pn3_0_s2:1 1.739911e-02
*RES
1 lt_pn3_0_s2:Z pgm_pn3_0_s2:1 1.974420e+01
2 pgm_pn3_0_s2:1 vs_45_3:A 1.000000e-03
*END

*D_NET pgm_pn3_0_s3 9.003831e-03
*CONN
*I lt_pn3_0_s3:Z O
*I vs_54_3:A I
*CAP
1 pgm_pn3_0_s3:1 9.003831e-03
*RES
1 lt_pn3_0_s3:Z pgm_pn3_0_s3:1 8.501233e+00
2 pgm_pn3_0_s3:1 vs_54_3:A 1.000000e-03
*END

*D_NET pgm_pn3_10_s2 1.670291e-02
*CONN
*I lt_pn3_10_s2:Z O
*I vs_32_3:A I
*CAP
1 pgm_pn3_10_s2:1 1.670291e-02
*RES
1 lt_pn3_10_s2:Z pgm_pn3_10_s2:1 1.895417e+01
2 pgm_pn3_10_s2:1 vs_32_3:A 1.000000e-03
*END

*D_NET pgm_pn3_11_s0 1.828492e-02
*CONN
*I lt_pn3_11_s0:Z O
*I vs_0_3:A I
*CAP
1 pgm_pn3_11_s0:1 1.828492e-02
*RES
1 lt_pn3_11_s0:Z pgm_pn3_11_s0:1 2.074940e+01
2 pgm_pn3_11_s0:1 vs_0_3:A 1.000000e-03
*END

*D_NET pgm_pn3_11_s1 1.362778e-03
*CONN
*I lt_pn3_11_s1:Z O
*I vs_30_3:A I
*CAP
1 pgm_pn3_11_s1:1 1.362778e-03
*RES
1 lt_pn3_11_s1:Z pgm_pn3_11_s1:1 1.546456e+00
2 pgm_pn3_11_s1:1 vs_30_3:A 1.000000e-03
*END

*D_NET pgm_pn3_11_s3 1.362778e-03
*CONN
*I lt_pn3_11_s3:Z O
*I vs_62_3:A I
*CAP
1 pgm_pn3_11_s3:1 1.362778e-03
*RES
1 lt_pn3_11_s3:Z pgm_pn3_11_s3:1 1.546456e+00
2 pgm_pn3_11_s3:1 vs_62_3:A 1.000000e-03
*END

*D_NET pgm_pn3_12_s0 7.231609e-03
*CONN
*I lt_pn3_12_s0:Z O
*I vs_15_3:A I
*I vs_11_3:A I
*CAP
1 pgm_pn3_12_s0:1 7.231609e-03
*RES
1 lt_pn3_12_s0:Z pgm_pn3_12_s0:1 8.206300e+00
2 pgm_pn3_12_s0:1 vs_15_3:A 1.000000e-03
3 pgm_pn3_12_s0:1 vs_11_3:A 1.000000e-03
*END

*D_NET pgm_pn3_12_s3 9.507432e-03
*CONN
*I lt_pn3_12_s3:Z O
*I vs_57_3:A I
*CAP
1 pgm_pn3_12_s3:1 9.507432e-03
*RES
1 lt_pn3_12_s3:Z pgm_pn3_12_s3:1 8.684592e+00
2 pgm_pn3_12_s3:1 vs_57_3:A 1.000000e-03
*END

*D_NET pgm_pn3_1_s0 1.133921e-02
*CONN
*I lt_pn3_1_s0:Z O
*I vs_9_3:A I
*CAP
1 pgm_pn3_1_s0:1 1.133921e-02
*RES
1 lt_pn3_1_s0:Z pgm_pn3_1_s0:1 1.143934e+01
2 pgm_pn3_1_s0:1 vs_9_3:A 1.000000e-03
*END

*D_NET pgm_pn3_1_s1 1.573712e-02
*CONN
*I lt_pn3_1_s1:Z O
*I vs_29_3:A I
*CAP
1 pgm_pn3_1_s1:1 1.573712e-02
*RES
1 lt_pn3_1_s1:Z pgm_pn3_1_s1:1 1.785820e+01
2 pgm_pn3_1_s1:1 vs_29_3:A 1.000000e-03
*END

*D_NET pgm_pn3_1_s2 2.217934e-03
*CONN
*I lt_pn3_1_s2:Z O
*I vs_33_3:A I
*CAP
1 pgm_pn3_1_s2:1 2.217934e-03
*RES
1 lt_pn3_1_s2:Z pgm_pn3_1_s2:1 1.232658e+00
2 pgm_pn3_1_s2:1 vs_33_3:A 1.000000e-03
*END

*D_NET pgm_pn3_1_s3 2.118230e-03
*CONN
*I lt_pn3_1_s3:Z O
*I vs_49_3:A I
*CAP
1 pgm_pn3_1_s3:1 2.118230e-03
*RES
1 lt_pn3_1_s3:Z pgm_pn3_1_s3:1 2.403730e+00
2 pgm_pn3_1_s3:1 vs_49_3:A 1.000000e-03
*END

*D_NET pgm_pn3_2_s2 1.506166e-02
*CONN
*I lt_pn3_2_s2:Z O
*I vs_46_3:A I
*I vs_44_3:A I
*CAP
1 pgm_pn3_2_s2:1 1.506166e-02
*RES
1 lt_pn3_2_s2:Z pgm_pn3_2_s2:1 1.709170e+01
2 pgm_pn3_2_s2:1 vs_46_3:A 1.000000e-03
3 pgm_pn3_2_s2:1 vs_44_3:A 1.000000e-03
*END

*D_NET pgm_pn3_3_s2 8.422558e-03
*CONN
*I lt_pn3_3_s2:Z O
*I vs_42_3:A I
*CAP
1 pgm_pn3_3_s2:1 8.422558e-03
*RES
1 lt_pn3_3_s2:Z pgm_pn3_3_s2:1 9.557768e+00
2 pgm_pn3_3_s2:1 vs_42_3:A 1.000000e-03
*END

*D_NET pgm_pn3_4_s0 4.177210e-03
*CONN
*I lt_pn3_4_s0:Z O
*I vs_8_3:A I
*CAP
1 pgm_pn3_4_s0:1 4.177210e-03
*RES
1 lt_pn3_4_s0:Z pgm_pn3_4_s0:1 4.740223e+00
2 pgm_pn3_4_s0:1 vs_8_3:A 1.000000e-03
*END

*D_NET pgm_pn3_4_s3 1.312710e-02
*CONN
*I lt_pn3_4_s3:Z O
*I vs_61_3:A I
*I vs_60_3:A I
*I vs_51_3:A I
*CAP
1 pgm_pn3_4_s3:1 1.312710e-02
*RES
1 lt_pn3_4_s3:Z pgm_pn3_4_s3:1 1.489640e+01
2 pgm_pn3_4_s3:1 vs_61_3:A 1.000000e-03
3 pgm_pn3_4_s3:1 vs_60_3:A 1.000000e-03
4 pgm_pn3_4_s3:1 vs_51_3:A 1.000000e-03
*END

*D_NET pgm_pn3_5_s0 8.196941e-03
*CONN
*I lt_pn3_5_s0:Z O
*I vs_10_3:A I
*CAP
1 pgm_pn3_5_s0:1 8.196941e-03
*RES
1 lt_pn3_5_s0:Z pgm_pn3_5_s0:1 7.069141e+00
2 pgm_pn3_5_s0:1 vs_10_3:A 1.000000e-03
*END

*D_NET pgm_pn3_6_s0 5.732554e-03
*CONN
*I lt_pn3_6_s0:Z O
*I vs_12_3:A I
*CAP
1 pgm_pn3_6_s0:1 5.732554e-03
*RES
1 lt_pn3_6_s0:Z pgm_pn3_6_s0:1 6.505199e+00
2 pgm_pn3_6_s0:1 vs_12_3:A 1.000000e-03
*END

*D_NET pgm_pn3_6_s1 5.107453e-03
*CONN
*I lt_pn3_6_s1:Z O
*I vs_20_3:A I
*CAP
1 pgm_pn3_6_s1:1 5.107453e-03
*RES
1 lt_pn3_6_s1:Z pgm_pn3_6_s1:1 5.795847e+00
2 pgm_pn3_6_s1:1 vs_20_3:A 1.000000e-03
*END

*D_NET pgm_pn3_6_s2 1.413141e-03
*CONN
*I lt_pn3_6_s2:Z O
*I vs_41_3:A I
*CAP
1 pgm_pn3_6_s2:1 1.413141e-03
*RES
1 lt_pn3_6_s2:Z pgm_pn3_6_s2:1 1.603607e+00
2 pgm_pn3_6_s2:1 vs_41_3:A 1.000000e-03
*END

*D_NET pgm_pn3_6_s3 3.184752e-03
*CONN
*I lt_pn3_6_s3:Z O
*I vs_58_3:A I
*CAP
1 pgm_pn3_6_s3:1 3.184752e-03
*RES
1 lt_pn3_6_s3:Z pgm_pn3_6_s3:1 3.613999e+00
2 pgm_pn3_6_s3:1 vs_58_3:A 1.000000e-03
*END

*D_NET pgm_pn3_7_s0 1.514536e-02
*CONN
*I lt_pn3_7_s0:Z O
*I vs_14_3:A I
*I vs_3_3:A I
*CAP
1 pgm_pn3_7_s0:1 1.514536e-02
*RES
1 lt_pn3_7_s0:Z pgm_pn3_7_s0:1 1.647838e+01
2 pgm_pn3_7_s0:1 vs_14_3:A 1.000000e-03
3 pgm_pn3_7_s0:1 vs_3_3:A 1.000000e-03
*END

*D_NET pgm_pn3_7_s1 2.912196e-03
*CONN
*I lt_pn3_7_s1:Z O
*I vs_25_3:A I
*I vs_23_3:A I
*CAP
1 pgm_pn3_7_s1:1 2.912196e-03
*RES
1 lt_pn3_7_s1:Z pgm_pn3_7_s1:1 3.304708e+00
2 pgm_pn3_7_s1:1 vs_25_3:A 1.000000e-03
3 pgm_pn3_7_s1:1 vs_23_3:A 1.000000e-03
*END

*D_NET pgm_pn3_7_s2 2.941822e-03
*CONN
*I lt_pn3_7_s2:Z O
*I vs_40_3:A I
*CAP
1 pgm_pn3_7_s2:1 2.941822e-03
*RES
1 lt_pn3_7_s2:Z pgm_pn3_7_s2:1 3.338327e+00
2 pgm_pn3_7_s2:1 vs_40_3:A 1.000000e-03
*END

*D_NET pgm_pn3_7_s3 1.201911e-02
*CONN
*I lt_pn3_7_s3:Z O
*I vs_48_3:A I
*CAP
1 pgm_pn3_7_s3:1 1.201911e-02
*RES
1 lt_pn3_7_s3:Z pgm_pn3_7_s3:1 1.363907e+01
2 pgm_pn3_7_s3:1 vs_48_3:A 1.000000e-03
*END

*D_NET pgm_pn3_8_s1 3.365468e-03
*CONN
*I lt_pn3_8_s1:Z O
*I vs_24_3:A I
*CAP
1 pgm_pn3_8_s1:1 3.365468e-03
*RES
1 lt_pn3_8_s1:Z pgm_pn3_8_s1:1 3.819073e+00
2 pgm_pn3_8_s1:1 vs_24_3:A 1.000000e-03
*END

*D_NET pgm_pn3_8_s3 6.766487e-03
*CONN
*I lt_pn3_8_s3:Z O
*I vs_63_3:A I
*I vs_59_3:A I
*CAP
1 pgm_pn3_8_s3:1 6.766487e-03
*RES
1 lt_pn3_8_s3:Z pgm_pn3_8_s3:1 7.678488e+00
2 pgm_pn3_8_s3:1 vs_63_3:A 1.000000e-03
3 pgm_pn3_8_s3:1 vs_59_3:A 1.000000e-03
*END

*D_NET pgm_pn3_9_s0 1.006708e-02
*CONN
*I lt_pn3_9_s0:Z O
*I vs_4_3:A I
*CAP
1 pgm_pn3_9_s0:1 1.006708e-02
*RES
1 lt_pn3_9_s0:Z pgm_pn3_9_s0:1 1.057167e+01
2 pgm_pn3_9_s0:1 vs_4_3:A 1.000000e-03
*END

*D_NET pgm_pn3_9_s1 2.429299e-03
*CONN
*I lt_pn3_9_s1:Z O
*I vs_26_3:A I
*CAP
1 pgm_pn3_9_s1:1 2.429299e-03
*RES
1 lt_pn3_9_s1:Z pgm_pn3_9_s1:1 2.756725e+00
2 pgm_pn3_9_s1:1 vs_26_3:A 1.000000e-03
*END

*D_NET pgm_pn3_9_s2 1.035711e-02
*CONN
*I lt_pn3_9_s2:Z O
*I vs_36_3:A I
*CAP
1 pgm_pn3_9_s2:1 1.035711e-02
*RES
1 lt_pn3_9_s2:Z pgm_pn3_9_s2:1 1.175306e+01
2 pgm_pn3_9_s2:1 vs_36_3:A 1.000000e-03
*END

*D_NET pgm_pn4_0_s1 1.082351e-02
*CONN
*I lt_pn4_0_s1:Z O
*I vs_24_4:A I
*CAP
1 pgm_pn4_0_s1:1 1.082351e-02
*RES
1 lt_pn4_0_s1:Z pgm_pn4_0_s1:1 1.078214e+01
2 pgm_pn4_0_s1:1 vs_24_4:A 1.000000e-03
*END

*D_NET pgm_pn4_0_s2 9.574994e-03
*CONN
*I lt_pn4_0_s2:Z O
*I vs_38_4:A I
*I vs_34_4:A I
*CAP
1 pgm_pn4_0_s2:1 9.574994e-03
*RES
1 lt_pn4_0_s2:Z pgm_pn4_0_s2:1 1.086553e+01
2 pgm_pn4_0_s2:1 vs_38_4:A 1.000000e-03
3 pgm_pn4_0_s2:1 vs_34_4:A 1.000000e-03
*END

*D_NET pgm_pn4_0_s3 3.993699e-03
*CONN
*I lt_pn4_0_s3:Z O
*I vs_50_4:A I
*CAP
1 pgm_pn4_0_s3:1 3.993699e-03
*RES
1 lt_pn4_0_s3:Z pgm_pn4_0_s3:1 2.671846e+00
2 pgm_pn4_0_s3:1 vs_50_4:A 1.000000e-03
*END

*D_NET pgm_pn4_10_s0 1.430620e-02
*CONN
*I lt_pn4_10_s0:Z O
*I vs_2_4:A I
*CAP
1 pgm_pn4_10_s0:1 1.430620e-02
*RES
1 lt_pn4_10_s0:Z pgm_pn4_10_s0:1 1.623442e+01
2 pgm_pn4_10_s0:1 vs_2_4:A 1.000000e-03
*END

*D_NET pgm_pn4_11_s1 1.501027e-02
*CONN
*I lt_pn4_11_s1:Z O
*I vs_19_4:A I
*CAP
1 pgm_pn4_11_s1:1 1.501027e-02
*RES
1 lt_pn4_11_s1:Z pgm_pn4_11_s1:1 1.574917e+01
2 pgm_pn4_11_s1:1 vs_19_4:A 1.000000e-03
*END

*D_NET pgm_pn4_1_s1 1.845321e-02
*CONN
*I lt_pn4_1_s1:Z O
*I vs_30_4:A I
*I vs_23_4:A I
*CAP
1 pgm_pn4_1_s1:1 1.845321e-02
*RES
1 lt_pn4_1_s1:Z pgm_pn4_1_s1:1 1.980013e+01
2 pgm_pn4_1_s1:1 vs_30_4:A 1.000000e-03
3 pgm_pn4_1_s1:1 vs_23_4:A 1.000000e-03
*END

*D_NET pgm_pn4_1_s2 4.837860e-03
*CONN
*I lt_pn4_1_s2:Z O
*I vs_35_4:A I
*I vs_33_4:A I
*CAP
1 pgm_pn4_1_s2:1 4.837860e-03
*RES
1 lt_pn4_1_s2:Z pgm_pn4_1_s2:1 5.489917e+00
2 pgm_pn4_1_s2:1 vs_35_4:A 1.000000e-03
3 pgm_pn4_1_s2:1 vs_33_4:A 1.000000e-03
*END

*D_NET pgm_pn4_1_s3 1.601560e-02
*CONN
*I lt_pn4_1_s3:Z O
*I vs_61_4:A I
*CAP
1 pgm_pn4_1_s3:1 1.601560e-02
*RES
1 lt_pn4_1_s3:Z pgm_pn4_1_s3:1 1.817422e+01
2 pgm_pn4_1_s3:1 vs_61_4:A 1.000000e-03
*END

*D_NET pgm_pn4_2_s0 1.722170e-02
*CONN
*I lt_pn4_2_s0:Z O
*I vs_10_4:A I
*I vs_1_4:A I
*CAP
1 pgm_pn4_2_s0:1 1.722170e-02
*RES
1 lt_pn4_2_s0:Z pgm_pn4_2_s0:1 1.582261e+01
2 pgm_pn4_2_s0:1 vs_10_4:A 1.000000e-03
3 pgm_pn4_2_s0:1 vs_1_4:A 1.000000e-03
*END

*D_NET pgm_pn4_2_s2 1.387071e-02
*CONN
*I lt_pn4_2_s2:Z O
*I vs_44_4:A I
*I vs_36_4:A I
*CAP
1 pgm_pn4_2_s2:1 1.387071e-02
*RES
1 lt_pn4_2_s2:Z pgm_pn4_2_s2:1 1.574023e+01
2 pgm_pn4_2_s2:1 vs_44_4:A 1.000000e-03
3 pgm_pn4_2_s2:1 vs_36_4:A 1.000000e-03
*END

*D_NET pgm_pn4_3_s1 1.237758e-02
*CONN
*I lt_pn4_3_s1:Z O
*I vs_29_4:A I
*CAP
1 pgm_pn4_3_s1:1 1.237758e-02
*RES
1 lt_pn4_3_s1:Z pgm_pn4_3_s1:1 1.404585e+01
2 pgm_pn4_3_s1:1 vs_29_4:A 1.000000e-03
*END

*D_NET pgm_pn4_3_s3 1.917525e-03
*CONN
*I lt_pn4_3_s3:Z O
*I vs_51_4:A I
*CAP
1 pgm_pn4_3_s3:1 1.917525e-03
*RES
1 lt_pn4_3_s3:Z pgm_pn4_3_s3:1 1.467676e+00
2 pgm_pn4_3_s3:1 vs_51_4:A 1.000000e-03
*END

*D_NET pgm_pn4_4_s3 6.464306e-03
*CONN
*I lt_pn4_4_s3:Z O
*I vs_49_4:A I
*CAP
1 pgm_pn4_4_s3:1 6.464306e-03
*RES
1 lt_pn4_4_s3:Z pgm_pn4_4_s3:1 7.335579e+00
2 pgm_pn4_4_s3:1 vs_49_4:A 1.000000e-03
*END

*D_NET pgm_pn4_5_s0 1.184431e-02
*CONN
*I lt_pn4_5_s0:Z O
*I vs_15_4:A I
*CAP
1 pgm_pn4_5_s0:1 1.184431e-02
*RES
1 lt_pn4_5_s0:Z pgm_pn4_5_s0:1 1.344072e+01
2 pgm_pn4_5_s0:1 vs_15_4:A 1.000000e-03
*END

*D_NET pgm_pn4_5_s3 2.150819e-03
*CONN
*I lt_pn4_5_s3:Z O
*I vs_53_4:A I
*CAP
1 pgm_pn4_5_s3:1 2.150819e-03
*RES
1 lt_pn4_5_s3:Z pgm_pn4_5_s3:1 2.440710e+00
2 pgm_pn4_5_s3:1 vs_53_4:A 1.000000e-03
*END

*D_NET pgm_pn4_6_s0 6.185825e-03
*CONN
*I lt_pn4_6_s0:Z O
*I vs_3_4:A I
*CAP
1 pgm_pn4_6_s0:1 6.185825e-03
*RES
1 lt_pn4_6_s0:Z pgm_pn4_6_s0:1 7.019564e+00
2 pgm_pn4_6_s0:1 vs_3_4:A 1.000000e-03
*END

*D_NET pgm_pn4_6_s1 8.686871e-03
*CONN
*I lt_pn4_6_s1:Z O
*I vs_18_4:A I
*CAP
1 pgm_pn4_6_s1:1 8.686871e-03
*RES
1 lt_pn4_6_s1:Z pgm_pn4_6_s1:1 7.985053e+00
2 pgm_pn4_6_s1:1 vs_18_4:A 1.000000e-03
*END

*D_NET pgm_pn4_6_s3 5.925120e-03
*CONN
*I lt_pn4_6_s3:Z O
*I vs_52_4:A I
*CAP
1 pgm_pn4_6_s3:1 5.925120e-03
*RES
1 lt_pn4_6_s3:Z pgm_pn4_6_s3:1 6.723720e+00
2 pgm_pn4_6_s3:1 vs_52_4:A 1.000000e-03
*END

*D_NET pgm_pn4_7_s2 7.797458e-03
*CONN
*I lt_pn4_7_s2:Z O
*I vs_47_4:A I
*I vs_45_4:A I
*CAP
1 pgm_pn4_7_s2:1 7.797458e-03
*RES
1 lt_pn4_7_s2:Z pgm_pn4_7_s2:1 8.848416e+00
2 pgm_pn4_7_s2:1 vs_47_4:A 1.000000e-03
3 pgm_pn4_7_s2:1 vs_45_4:A 1.000000e-03
*END

*D_NET pgm_pn4_7_s3 2.725555e-04
*CONN
*I lt_pn4_7_s3:Z O
*I vs_57_4:A I
*CAP
1 pgm_pn4_7_s3:1 2.725555e-04
*RES
1 lt_pn4_7_s3:Z pgm_pn4_7_s3:1 3.092911e-01
2 pgm_pn4_7_s3:1 vs_57_4:A 1.000000e-03
*END

*D_NET pgm_pn4_8_s1 2.207107e-03
*CONN
*I lt_pn4_8_s1:Z O
*I vs_25_4:A I
*CAP
1 pgm_pn4_8_s1:1 2.207107e-03
*RES
1 lt_pn4_8_s1:Z pgm_pn4_8_s1:1 2.504586e+00
2 pgm_pn4_8_s1:1 vs_25_4:A 1.000000e-03
*END

*D_NET pgm_pn4_8_s2 1.661584e-02
*CONN
*I lt_pn4_8_s2:Z O
*I vs_32_4:A I
*CAP
1 pgm_pn4_8_s2:1 1.661584e-02
*RES
1 lt_pn4_8_s2:Z pgm_pn4_8_s2:1 1.657489e+01
2 pgm_pn4_8_s2:1 vs_32_4:A 1.000000e-03
*END

*D_NET pgm_pn4_9_s0 7.815982e-03
*CONN
*I lt_pn4_9_s0:Z O
*I vs_7_4:A I
*CAP
1 pgm_pn4_9_s0:1 7.815982e-03
*RES
1 lt_pn4_9_s0:Z pgm_pn4_9_s0:1 8.161139e+00
2 pgm_pn4_9_s0:1 vs_7_4:A 1.000000e-03
*END

*D_NET pgm_pn4_9_s1 5.249656e-03
*CONN
*I lt_pn4_9_s1:Z O
*I vs_31_4:A I
*CAP
1 pgm_pn4_9_s1:1 5.249656e-03
*RES
1 lt_pn4_9_s1:Z pgm_pn4_9_s1:1 5.957216e+00
2 pgm_pn4_9_s1:1 vs_31_4:A 1.000000e-03
*END

*D_NET pgm_pn4_9_s2 3.234535e-03
*CONN
*I lt_pn4_9_s2:Z O
*I vs_42_4:A I
*CAP
1 pgm_pn4_9_s2:1 3.234535e-03
*RES
1 lt_pn4_9_s2:Z pgm_pn4_9_s2:1 2.530257e+00
2 pgm_pn4_9_s2:1 vs_42_4:A 1.000000e-03
*END

*D_NET pgm_pn4_9_s3 5.068940e-03
*CONN
*I lt_pn4_9_s3:Z O
*I vs_63_4:A I
*CAP
1 pgm_pn4_9_s3:1 5.068940e-03
*RES
1 lt_pn4_9_s3:Z pgm_pn4_9_s3:1 5.752142e+00
2 pgm_pn4_9_s3:1 vs_63_4:A 1.000000e-03
*END

*D_NET pgm_pn5_0_s0 1.151860e-02
*CONN
*I lt_pn5_0_s0:Z O
*I vs_8_5:A I
*CAP
1 pgm_pn5_0_s0:1 1.151860e-02
*RES
1 lt_pn5_0_s0:Z pgm_pn5_0_s0:1 1.121097e+01
2 pgm_pn5_0_s0:1 vs_8_5:A 1.000000e-03
*END

*D_NET pgm_pn5_0_s2 2.072014e-02
*CONN
*I lt_pn5_0_s2:Z O
*I vs_47_5:A I
*CAP
1 pgm_pn5_0_s2:1 2.072014e-02
*RES
1 lt_pn5_0_s2:Z pgm_pn5_0_s2:1 2.351285e+01
2 pgm_pn5_0_s2:1 vs_47_5:A 1.000000e-03
*END

*D_NET pgm_pn5_0_s3 2.254508e-03
*CONN
*I lt_pn5_0_s3:Z O
*I vs_49_5:A I
*CAP
1 pgm_pn5_0_s3:1 2.254508e-03
*RES
1 lt_pn5_0_s3:Z pgm_pn5_0_s3:1 2.558375e+00
2 pgm_pn5_0_s3:1 vs_49_5:A 1.000000e-03
*END

*D_NET pgm_pn5_10_s2 8.701039e-03
*CONN
*I lt_pn5_10_s2:Z O
*I vs_39_5:A I
*CAP
1 pgm_pn5_10_s2:1 8.701039e-03
*RES
1 lt_pn5_10_s2:Z pgm_pn5_10_s2:1 9.873783e+00
2 pgm_pn5_10_s2:1 vs_39_5:A 1.000000e-03
*END

*D_NET pgm_pn5_11_s0 4.583249e-03
*CONN
*I lt_pn5_11_s0:Z O
*I vs_12_5:A I
*CAP
1 pgm_pn5_11_s0:1 4.583249e-03
*RES
1 lt_pn5_11_s0:Z pgm_pn5_11_s0:1 3.340856e+00
2 pgm_pn5_11_s0:1 vs_12_5:A 1.000000e-03
*END

*D_NET pgm_pn5_11_s2 8.081864e-03
*CONN
*I lt_pn5_11_s2:Z O
*I vs_41_5:A I
*CAP
1 pgm_pn5_11_s2:1 8.081864e-03
*RES
1 lt_pn5_11_s2:Z pgm_pn5_11_s2:1 9.171154e+00
2 pgm_pn5_11_s2:1 vs_41_5:A 1.000000e-03
*END

*D_NET pgm_pn5_12_s1 4.644050e-03
*CONN
*I lt_pn5_12_s1:Z O
*I vs_29_5:A I
*CAP
1 pgm_pn5_12_s1:1 4.644050e-03
*RES
1 lt_pn5_12_s1:Z pgm_pn5_12_s1:1 3.913780e+00
2 pgm_pn5_12_s1:1 vs_29_5:A 1.000000e-03
*END

*D_NET pgm_pn5_12_s2 7.065706e-03
*CONN
*I lt_pn5_12_s2:Z O
*I vs_43_5:A I
*CAP
1 pgm_pn5_12_s2:1 7.065706e-03
*RES
1 lt_pn5_12_s2:Z pgm_pn5_12_s2:1 8.018036e+00
2 pgm_pn5_12_s2:1 vs_43_5:A 1.000000e-03
*END

*D_NET pgm_pn5_1_s3 1.667921e-02
*CONN
*I lt_pn5_1_s3:Z O
*I vs_62_5:A I
*CAP
1 pgm_pn5_1_s3:1 1.667921e-02
*RES
1 lt_pn5_1_s3:Z pgm_pn5_1_s3:1 1.892727e+01
2 pgm_pn5_1_s3:1 vs_62_5:A 1.000000e-03
*END

*D_NET pgm_pn5_2_s0 1.836787e-02
*CONN
*I lt_pn5_2_s0:Z O
*I vs_14_5:A I
*I vs_6_5:A I
*I vs_1_5:A I
*CAP
1 pgm_pn5_2_s0:1 1.836787e-02
*RES
1 lt_pn5_2_s0:Z pgm_pn5_2_s0:1 2.084353e+01
2 pgm_pn5_2_s0:1 vs_14_5:A 1.000000e-03
3 pgm_pn5_2_s0:1 vs_6_5:A 1.000000e-03
4 pgm_pn5_2_s0:1 vs_1_5:A 1.000000e-03
*END

*D_NET pgm_pn5_2_s1 7.693768e-03
*CONN
*I lt_pn5_2_s1:Z O
*I vs_23_5:A I
*I vs_19_5:A I
*CAP
1 pgm_pn5_2_s1:1 7.693768e-03
*RES
1 lt_pn5_2_s1:Z pgm_pn5_2_s1:1 8.730750e+00
2 pgm_pn5_2_s1:1 vs_23_5:A 1.000000e-03
3 pgm_pn5_2_s1:1 vs_19_5:A 1.000000e-03
*END

*D_NET pgm_pn5_2_s3 1.581711e-02
*CONN
*I lt_pn5_2_s3:Z O
*I vs_63_5:A I
*CAP
1 pgm_pn5_2_s3:1 1.581711e-02
*RES
1 lt_pn5_2_s3:Z pgm_pn5_2_s3:1 1.794897e+01
2 pgm_pn5_2_s3:1 vs_63_5:A 1.000000e-03
*END

*D_NET pgm_pn5_3_s1 1.044302e-02
*CONN
*I lt_pn5_3_s1:Z O
*I vs_27_5:A I
*CAP
1 pgm_pn5_3_s1:1 1.044302e-02
*RES
1 lt_pn5_3_s1:Z pgm_pn5_3_s1:1 1.185056e+01
2 pgm_pn5_3_s1:1 vs_27_5:A 1.000000e-03
*END

*D_NET pgm_pn5_3_s2 1.852860e-02
*CONN
*I lt_pn5_3_s2:Z O
*I vs_45_5:A I
*I vs_33_5:A I
*CAP
1 pgm_pn5_3_s2:1 1.852860e-02
*RES
1 lt_pn5_3_s2:Z pgm_pn5_3_s2:1 2.031762e+01
2 pgm_pn5_3_s2:1 vs_45_5:A 1.000000e-03
3 pgm_pn5_3_s2:1 vs_33_5:A 1.000000e-03
*END

*D_NET pgm_pn5_4_s1 4.790460e-03
*CONN
*I lt_pn5_4_s1:Z O
*I vs_25_5:A I
*CAP
1 pgm_pn5_4_s1:1 4.790460e-03
*RES
1 lt_pn5_4_s1:Z pgm_pn5_4_s1:1 5.436128e+00
2 pgm_pn5_4_s1:1 vs_25_5:A 1.000000e-03
*END

*D_NET pgm_pn5_4_s3 6.473194e-03
*CONN
*I lt_pn5_4_s3:Z O
*I vs_58_5:A I
*I vs_54_5:A I
*CAP
1 pgm_pn5_4_s3:1 6.473194e-03
*RES
1 lt_pn5_4_s3:Z pgm_pn5_4_s3:1 7.345664e+00
2 pgm_pn5_4_s3:1 vs_58_5:A 1.000000e-03
3 pgm_pn5_4_s3:1 vs_54_5:A 1.000000e-03
*END

*D_NET pgm_pn5_5_s0 9.693496e-03
*CONN
*I lt_pn5_5_s0:Z O
*I vs_0_5:A I
*CAP
1 pgm_pn5_5_s0:1 9.693496e-03
*RES
1 lt_pn5_5_s0:Z pgm_pn5_5_s0:1 1.100001e+01
2 pgm_pn5_5_s0:1 vs_0_5:A 1.000000e-03
*END

*D_NET pgm_pn5_5_s3 2.559652e-03
*CONN
*I lt_pn5_5_s3:Z O
*I vs_53_5:A I
*CAP
1 pgm_pn5_5_s3:1 2.559652e-03
*RES
1 lt_pn5_5_s3:Z pgm_pn5_5_s3:1 2.904647e+00
2 pgm_pn5_5_s3:1 vs_53_5:A 1.000000e-03
*END

*D_NET pgm_pn5_6_s1 9.326139e-03
*CONN
*I lt_pn5_6_s1:Z O
*I vs_30_5:A I
*CAP
1 pgm_pn5_6_s1:1 9.326139e-03
*RES
1 lt_pn5_6_s1:Z pgm_pn5_6_s1:1 1.058314e+01
2 pgm_pn5_6_s1:1 vs_30_5:A 1.000000e-03
*END

*D_NET pgm_pn5_6_s3 7.270122e-03
*CONN
*I lt_pn5_6_s3:Z O
*I vs_61_5:A I
*CAP
1 pgm_pn5_6_s3:1 7.270122e-03
*RES
1 lt_pn5_6_s3:Z pgm_pn5_6_s3:1 8.250004e+00
2 pgm_pn5_6_s3:1 vs_61_5:A 1.000000e-03
*END

*D_NET pgm_pn5_8_s0 9.631283e-03
*CONN
*I lt_pn5_8_s0:Z O
*I vs_3_5:A I
*CAP
1 pgm_pn5_8_s0:1 9.631283e-03
*RES
1 lt_pn5_8_s0:Z pgm_pn5_8_s0:1 1.092941e+01
2 pgm_pn5_8_s0:1 vs_3_5:A 1.000000e-03
*END

*D_NET pgm_pn5_8_s1 7.412325e-03
*CONN
*I lt_pn5_8_s1:Z O
*I vs_31_5:A I
*I vs_28_5:A I
*CAP
1 pgm_pn5_8_s1:1 7.412325e-03
*RES
1 lt_pn5_8_s1:Z pgm_pn5_8_s1:1 8.411374e+00
2 pgm_pn5_8_s1:1 vs_31_5:A 1.000000e-03
3 pgm_pn5_8_s1:1 vs_28_5:A 1.000000e-03
*END

*D_NET pgm_pn5_8_s3 1.350927e-02
*CONN
*I lt_pn5_8_s3:Z O
*I vs_56_5:A I
*I vs_48_5:A I
*CAP
1 pgm_pn5_8_s3:1 1.350927e-02
*RES
1 lt_pn5_8_s3:Z pgm_pn5_8_s3:1 1.533008e+01
2 pgm_pn5_8_s3:1 vs_56_5:A 1.000000e-03
3 pgm_pn5_8_s3:1 vs_48_5:A 1.000000e-03
*END

*D_NET pgm_pn5_9_s0 1.084402e-02
*CONN
*I lt_pn5_9_s0:Z O
*I vs_11_5:A I
*I vs_5_5:A I
*CAP
1 pgm_pn5_9_s0:1 1.084402e-02
*RES
1 lt_pn5_9_s0:Z pgm_pn5_9_s0:1 1.074503e+01
2 pgm_pn5_9_s0:1 vs_11_5:A 1.000000e-03
3 pgm_pn5_9_s0:1 vs_5_5:A 1.000000e-03
*END

*D_NET pgm_pn5_9_s3 2.076755e-03
*CONN
*I lt_pn5_9_s3:Z O
*I vs_59_5:A I
*CAP
1 pgm_pn5_9_s3:1 2.076755e-03
*RES
1 lt_pn5_9_s3:Z pgm_pn5_9_s3:1 2.356664e+00
2 pgm_pn5_9_s3:1 vs_59_5:A 1.000000e-03
*END

*D_NET pgm_pn6_0_s0 1.366349e-02
*CONN
*I lt_pn6_0_s0:Z O
*I vs_10_6:A I
*CAP
1 pgm_pn6_0_s0:1 1.366349e-02
*RES
1 lt_pn6_0_s0:Z pgm_pn6_0_s0:1 1.364496e+01
2 pgm_pn6_0_s0:1 vs_10_6:A 1.000000e-03
*END

*D_NET pgm_pn6_0_s2 1.085186e-02
*CONN
*I lt_pn6_0_s2:Z O
*I vs_40_6:A I
*CAP
1 pgm_pn6_0_s2:1 1.085186e-02
*RES
1 lt_pn6_0_s2:Z pgm_pn6_0_s2:1 1.231449e+01
2 pgm_pn6_0_s2:1 vs_40_6:A 1.000000e-03
*END

*D_NET pgm_pn6_10_s2 1.608966e-02
*CONN
*I lt_pn6_10_s2:Z O
*I vs_33_6:A I
*CAP
1 pgm_pn6_10_s2:1 1.608966e-02
*RES
1 lt_pn6_10_s2:Z pgm_pn6_10_s2:1 1.825826e+01
2 pgm_pn6_10_s2:1 vs_33_6:A 1.000000e-03
*END

*D_NET pgm_pn6_11_s2 4.352749e-03
*CONN
*I lt_pn6_11_s2:Z O
*I vs_44_6:A I
*CAP
1 pgm_pn6_11_s2:1 4.352749e-03
*RES
1 lt_pn6_11_s2:Z pgm_pn6_11_s2:1 4.231124e+00
2 pgm_pn6_11_s2:1 vs_44_6:A 1.000000e-03
*END

*D_NET pgm_pn6_12_s0 2.011874e-02
*CONN
*I lt_pn6_12_s0:Z O
*I vs_0_6:A I
*CAP
1 pgm_pn6_12_s0:1 2.011874e-02
*RES
1 lt_pn6_12_s0:Z pgm_pn6_12_s0:1 2.283039e+01
2 pgm_pn6_12_s0:1 vs_0_6:A 1.000000e-03
*END

*D_NET pgm_pn6_12_s1 1.947396e-02
*CONN
*I lt_pn6_12_s1:Z O
*I vs_17_6:A I
*CAP
1 pgm_pn6_12_s1:1 1.947396e-02
*RES
1 lt_pn6_12_s1:Z pgm_pn6_12_s1:1 2.052653e+01
2 pgm_pn6_12_s1:1 vs_17_6:A 1.000000e-03
*END

*D_NET pgm_pn6_12_s2 1.700213e-02
*CONN
*I lt_pn6_12_s2:Z O
*I vs_36_6:A I
*I vs_35_6:A I
*CAP
1 pgm_pn6_12_s2:1 1.700213e-02
*RES
1 lt_pn6_12_s2:Z pgm_pn6_12_s2:1 1.929371e+01
2 pgm_pn6_12_s2:1 vs_36_6:A 1.000000e-03
3 pgm_pn6_12_s2:1 vs_35_6:A 1.000000e-03
*END

*D_NET pgm_pn6_12_s3 1.654294e-02
*CONN
*I lt_pn6_12_s3:Z O
*I vs_51_6:A I
*CAP
1 pgm_pn6_12_s3:1 1.654294e-02
*RES
1 lt_pn6_12_s3:Z pgm_pn6_12_s3:1 1.877263e+01
2 pgm_pn6_12_s3:1 vs_51_6:A 1.000000e-03
*END

*D_NET pgm_pn6_1_s1 1.532829e-02
*CONN
*I lt_pn6_1_s1:Z O
*I vs_29_6:A I
*CAP
1 pgm_pn6_1_s1:1 1.532829e-02
*RES
1 lt_pn6_1_s1:Z pgm_pn6_1_s1:1 1.739426e+01
2 pgm_pn6_1_s1:1 vs_29_6:A 1.000000e-03
*END

*D_NET pgm_pn6_1_s2 3.190677e-03
*CONN
*I lt_pn6_1_s2:Z O
*I vs_32_6:A I
*CAP
1 pgm_pn6_1_s2:1 3.190677e-03
*RES
1 lt_pn6_1_s2:Z pgm_pn6_1_s2:1 3.620723e+00
2 pgm_pn6_1_s2:1 vs_32_6:A 1.000000e-03
*END

*D_NET pgm_pn6_1_s3 4.853727e-03
*CONN
*I lt_pn6_1_s3:Z O
*I vs_50_6:A I
*I vs_48_6:A I
*CAP
1 pgm_pn6_1_s3:1 4.853727e-03
*RES
1 lt_pn6_1_s3:Z pgm_pn6_1_s3:1 3.935749e+00
2 pgm_pn6_1_s3:1 vs_50_6:A 1.000000e-03
3 pgm_pn6_1_s3:1 vs_48_6:A 1.000000e-03
*END

*D_NET pgm_pn6_2_s0 1.143548e-02
*CONN
*I lt_pn6_2_s0:Z O
*I vs_11_6:A I
*CAP
1 pgm_pn6_2_s0:1 1.143548e-02
*RES
1 lt_pn6_2_s0:Z pgm_pn6_2_s0:1 1.297678e+01
2 pgm_pn6_2_s0:1 vs_11_6:A 1.000000e-03
*END

*D_NET pgm_pn6_2_s1 1.983138e-02
*CONN
*I lt_pn6_2_s1:Z O
*I vs_31_6:A I
*I vs_26_6:A I
*I vs_25_6:A I
*I vs_22_6:A I
*I vs_19_6:A I
*CAP
1 pgm_pn6_2_s1:1 1.983138e-02
*RES
1 lt_pn6_2_s1:Z pgm_pn6_2_s1:1 2.250429e+01
2 pgm_pn6_2_s1:1 vs_31_6:A 1.000000e-03
3 pgm_pn6_2_s1:1 vs_26_6:A 1.000000e-03
4 pgm_pn6_2_s1:1 vs_25_6:A 1.000000e-03
5 pgm_pn6_2_s1:1 vs_22_6:A 1.000000e-03
6 pgm_pn6_2_s1:1 vs_19_6:A 1.000000e-03
*END

*D_NET pgm_pn6_2_s2 5.788842e-03
*CONN
*I lt_pn6_2_s2:Z O
*I vs_39_6:A I
*CAP
1 pgm_pn6_2_s2:1 5.788842e-03
*RES
1 lt_pn6_2_s2:Z pgm_pn6_2_s2:1 6.569074e+00
2 pgm_pn6_2_s2:1 vs_39_6:A 1.000000e-03
*END

*D_NET pgm_pn6_3_s0 5.451110e-04
*CONN
*I lt_pn6_3_s0:Z O
*I vs_4_6:A I
*CAP
1 pgm_pn6_3_s0:1 5.451110e-04
*RES
1 lt_pn6_3_s0:Z pgm_pn6_3_s0:1 6.185822e-01
2 pgm_pn6_3_s0:1 vs_4_6:A 1.000000e-03
*END

*D_NET pgm_pn6_4_s0 8.615124e-03
*CONN
*I lt_pn6_4_s0:Z O
*I vs_8_6:A I
*I vs_3_6:A I
*I vs_2_6:A I
*CAP
1 pgm_pn6_4_s0:1 8.615124e-03
*RES
1 lt_pn6_4_s0:Z pgm_pn6_4_s0:1 9.776289e+00
2 pgm_pn6_4_s0:1 vs_8_6:A 1.000000e-03
3 pgm_pn6_4_s0:1 vs_3_6:A 1.000000e-03
4 pgm_pn6_4_s0:1 vs_2_6:A 1.000000e-03
*END

*D_NET pgm_pn6_4_s1 3.036624e-03
*CONN
*I lt_pn6_4_s1:Z O
*I vs_20_6:A I
*CAP
1 pgm_pn6_4_s1:1 3.036624e-03
*RES
1 lt_pn6_4_s1:Z pgm_pn6_4_s1:1 3.445906e+00
2 pgm_pn6_4_s1:1 vs_20_6:A 1.000000e-03
*END

*D_NET pgm_pn6_5_s3 1.027712e-02
*CONN
*I lt_pn6_5_s3:Z O
*I vs_62_6:A I
*I vs_61_6:A I
*CAP
1 pgm_pn6_5_s3:1 1.027712e-02
*RES
1 lt_pn6_5_s3:Z pgm_pn6_5_s3:1 1.166229e+01
2 pgm_pn6_5_s3:1 vs_62_6:A 1.000000e-03
3 pgm_pn6_5_s3:1 vs_61_6:A 1.000000e-03
*END

*D_NET pgm_pn6_6_s1 8.058163e-04
*CONN
*I lt_pn6_6_s1:Z O
*I vs_23_6:A I
*CAP
1 pgm_pn6_6_s1:1 8.058163e-04
*RES
1 lt_pn6_6_s1:Z pgm_pn6_6_s1:1 9.144259e-01
2 pgm_pn6_6_s1:1 vs_23_6:A 1.000000e-03
*END

*D_NET pgm_pn6_6_s2 2.876646e-03
*CONN
*I lt_pn6_6_s2:Z O
*I vs_42_6:A I
*CAP
1 pgm_pn6_6_s2:1 2.876646e-03
*RES
1 lt_pn6_6_s2:Z pgm_pn6_6_s2:1 3.264366e+00
2 pgm_pn6_6_s2:1 vs_42_6:A 1.000000e-03
*END

*D_NET pgm_pn6_6_s3 5.516287e-03
*CONN
*I lt_pn6_6_s3:Z O
*I vs_52_6:A I
*CAP
1 pgm_pn6_6_s3:1 5.516287e-03
*RES
1 lt_pn6_6_s3:Z pgm_pn6_6_s3:1 6.259783e+00
2 pgm_pn6_6_s3:1 vs_52_6:A 1.000000e-03
*END

*D_NET pgm_pn6_7_s1 7.356036e-03
*CONN
*I lt_pn6_7_s1:Z O
*I vs_30_6:A I
*CAP
1 pgm_pn6_7_s1:1 7.356036e-03
*RES
1 lt_pn6_7_s1:Z pgm_pn6_7_s1:1 8.347498e+00
2 pgm_pn6_7_s1:1 vs_30_6:A 1.000000e-03
*END

*D_NET pgm_pn6_7_s2 7.133844e-03
*CONN
*I lt_pn6_7_s2:Z O
*I vs_46_6:A I
*CAP
1 pgm_pn6_7_s2:1 7.133844e-03
*RES
1 lt_pn6_7_s2:Z pgm_pn6_7_s2:1 8.095359e+00
2 pgm_pn6_7_s2:1 vs_46_6:A 1.000000e-03
*END

*D_NET pgm_pn6_8_s0 4.574193e-03
*CONN
*I lt_pn6_8_s0:Z O
*I vs_7_6:A I
*CAP
1 pgm_pn6_8_s0:1 4.574193e-03
*RES
1 lt_pn6_8_s0:Z pgm_pn6_8_s0:1 5.190712e+00
2 pgm_pn6_8_s0:1 vs_7_6:A 1.000000e-03
*END

*D_NET pgm_pn6_8_s3 2.559652e-03
*CONN
*I lt_pn6_8_s3:Z O
*I vs_60_6:A I
*CAP
1 pgm_pn6_8_s3:1 2.559652e-03
*RES
1 lt_pn6_8_s3:Z pgm_pn6_8_s3:1 2.904647e+00
2 pgm_pn6_8_s3:1 vs_60_6:A 1.000000e-03
*END

*D_NET pgm_pn6_9_s2 1.321302e-03
*CONN
*I lt_pn6_9_s2:Z O
*I vs_43_6:A I
*CAP
1 pgm_pn6_9_s2:1 1.321302e-03
*RES
1 lt_pn6_9_s2:Z pgm_pn6_9_s2:1 1.499390e+00
2 pgm_pn6_9_s2:1 vs_43_6:A 1.000000e-03
*END

*D_NET pgm_pn7_0_s0 1.806865e-02
*CONN
*I lt_pn7_0_s0:Z O
*I vs_14_7:A I
*CAP
1 pgm_pn7_0_s0:1 1.806865e-02
*RES
1 lt_pn7_0_s0:Z pgm_pn7_0_s0:1 2.050398e+01
2 pgm_pn7_0_s0:1 vs_14_7:A 1.000000e-03
*END

*D_NET pgm_pn7_0_s1 2.104306e-02
*CONN
*I lt_pn7_0_s1:Z O
*I vs_30_7:A I
*I vs_17_7:A I
*CAP
1 pgm_pn7_0_s1:1 2.104306e-02
*RES
1 lt_pn7_0_s1:Z pgm_pn7_0_s1:1 2.387929e+01
2 pgm_pn7_0_s1:1 vs_30_7:A 1.000000e-03
3 pgm_pn7_0_s1:1 vs_17_7:A 1.000000e-03
*END

*D_NET pgm_pn7_10_s0 8.668451e-03
*CONN
*I lt_pn7_10_s0:Z O
*I vs_8_7:A I
*CAP
1 pgm_pn7_10_s0:1 8.668451e-03
*RES
1 lt_pn7_10_s0:Z pgm_pn7_10_s0:1 9.836802e+00
2 pgm_pn7_10_s0:1 vs_8_7:A 1.000000e-03
*END

*D_NET pgm_pn7_10_s1 1.479502e-02
*CONN
*I lt_pn7_10_s1:Z O
*I vs_18_7:A I
*CAP
1 pgm_pn7_10_s1:1 1.479502e-02
*RES
1 lt_pn7_10_s1:Z pgm_pn7_10_s1:1 1.678913e+01
2 pgm_pn7_10_s1:1 vs_18_7:A 1.000000e-03
*END

*D_NET pgm_pn7_11_s2 5.175592e-03
*CONN
*I lt_pn7_11_s2:Z O
*I vs_43_7:A I
*CAP
1 pgm_pn7_11_s2:1 5.175592e-03
*RES
1 lt_pn7_11_s2:Z pgm_pn7_11_s2:1 5.873169e+00
2 pgm_pn7_11_s2:1 vs_43_7:A 1.000000e-03
*END

*D_NET pgm_pn7_11_s3 1.276080e-02
*CONN
*I lt_pn7_11_s3:Z O
*I vs_53_7:A I
*CAP
1 pgm_pn7_11_s3:1 1.276080e-02
*RES
1 lt_pn7_11_s3:Z pgm_pn7_11_s3:1 1.290855e+01
2 pgm_pn7_11_s3:1 vs_53_7:A 1.000000e-03
*END

*D_NET pgm_pn7_12_s2 1.328085e-02
*CONN
*I lt_pn7_12_s2:Z O
*I vs_38_7:A I
*CAP
1 pgm_pn7_12_s2:1 1.328085e-02
*RES
1 lt_pn7_12_s2:Z pgm_pn7_12_s2:1 1.267864e+01
2 pgm_pn7_12_s2:1 vs_38_7:A 1.000000e-03
*END

*D_NET pgm_pn7_12_s3 3.246966e-03
*CONN
*I lt_pn7_12_s3:Z O
*I vs_62_7:A I
*CAP
1 pgm_pn7_12_s3:1 3.246966e-03
*RES
1 lt_pn7_12_s3:Z pgm_pn7_12_s3:1 3.684599e+00
2 pgm_pn7_12_s3:1 vs_62_7:A 1.000000e-03
*END

*D_NET pgm_pn7_1_s0 1.492538e-02
*CONN
*I lt_pn7_1_s0:Z O
*I vs_13_7:A I
*CAP
1 pgm_pn7_1_s0:1 1.492538e-02
*RES
1 lt_pn7_1_s0:Z pgm_pn7_1_s0:1 1.693705e+01
2 pgm_pn7_1_s0:1 vs_13_7:A 1.000000e-03
*END

*D_NET pgm_pn7_1_s1 3.241041e-03
*CONN
*I lt_pn7_1_s1:Z O
*I vs_16_7:A I
*CAP
1 pgm_pn7_1_s1:1 3.241041e-03
*RES
1 lt_pn7_1_s1:Z pgm_pn7_1_s1:1 3.677875e+00
2 pgm_pn7_1_s1:1 vs_16_7:A 1.000000e-03
*END

*D_NET pgm_pn7_1_s3 1.381087e-02
*CONN
*I lt_pn7_1_s3:Z O
*I vs_60_7:A I
*CAP
1 pgm_pn7_1_s3:1 1.381087e-02
*RES
1 lt_pn7_1_s3:Z pgm_pn7_1_s3:1 1.453210e+01
2 pgm_pn7_1_s3:1 vs_60_7:A 1.000000e-03
*END

*D_NET pgm_pn7_2_s0 8.197404e-03
*CONN
*I lt_pn7_2_s0:Z O
*I vs_7_7:A I
*I vs_3_7:A I
*CAP
1 pgm_pn7_2_s0:1 8.197404e-03
*RES
1 lt_pn7_2_s0:Z pgm_pn7_2_s0:1 9.302267e+00
2 pgm_pn7_2_s0:1 vs_7_7:A 1.000000e-03
3 pgm_pn7_2_s0:1 vs_3_7:A 1.000000e-03
*END

*D_NET pgm_pn7_2_s3 8.244667e-03
*CONN
*I lt_pn7_2_s3:Z O
*I vs_57_7:A I
*CAP
1 pgm_pn7_2_s3:1 8.244667e-03
*RES
1 lt_pn7_2_s3:Z pgm_pn7_2_s3:1 8.359645e+00
2 pgm_pn7_2_s3:1 vs_57_7:A 1.000000e-03
*END

*D_NET pgm_pn7_3_s0 1.134068e-02
*CONN
*I lt_pn7_3_s0:Z O
*I vs_12_7:A I
*I vs_10_7:A I
*I vs_9_7:A I
*CAP
1 pgm_pn7_3_s0:1 1.134068e-02
*RES
1 lt_pn7_3_s0:Z pgm_pn7_3_s0:1 1.286920e+01
2 pgm_pn7_3_s0:1 vs_12_7:A 1.000000e-03
3 pgm_pn7_3_s0:1 vs_10_7:A 1.000000e-03
4 pgm_pn7_3_s0:1 vs_9_7:A 1.000000e-03
*END

*D_NET pgm_pn7_3_s3 1.474466e-02
*CONN
*I lt_pn7_3_s3:Z O
*I vs_63_7:A I
*CAP
1 pgm_pn7_3_s3:1 1.474466e-02
*RES
1 lt_pn7_3_s3:Z pgm_pn7_3_s3:1 1.673198e+01
2 pgm_pn7_3_s3:1 vs_63_7:A 1.000000e-03
*END

*D_NET pgm_pn7_4_s0 5.211857e-03
*CONN
*I lt_pn7_4_s0:Z O
*I vs_2_7:A I
*CAP
1 pgm_pn7_4_s0:1 5.211857e-03
*RES
1 lt_pn7_4_s0:Z pgm_pn7_4_s0:1 4.817906e+00
2 pgm_pn7_4_s0:1 vs_2_7:A 1.000000e-03
*END

*D_NET pgm_pn7_5_s1 1.058523e-02
*CONN
*I lt_pn7_5_s1:Z O
*I vs_28_7:A I
*I vs_21_7:A I
*CAP
1 pgm_pn7_5_s1:1 1.058523e-02
*RES
1 lt_pn7_5_s1:Z pgm_pn7_5_s1:1 1.201193e+01
2 pgm_pn7_5_s1:1 vs_28_7:A 1.000000e-03
3 pgm_pn7_5_s1:1 vs_21_7:A 1.000000e-03
*END

*D_NET pgm_pn7_5_s3 4.932662e-03
*CONN
*I lt_pn7_5_s3:Z O
*I vs_58_7:A I
*CAP
1 pgm_pn7_5_s3:1 4.932662e-03
*RES
1 lt_pn7_5_s3:Z pgm_pn7_5_s3:1 5.597497e+00
2 pgm_pn7_5_s3:1 vs_58_7:A 1.000000e-03
*END

*D_NET pgm_pn7_6_s2 7.385662e-03
*CONN
*I lt_pn7_6_s2:Z O
*I vs_44_7:A I
*I vs_41_7:A I
*CAP
1 pgm_pn7_6_s2:1 7.385662e-03
*RES
1 lt_pn7_6_s2:Z pgm_pn7_6_s2:1 8.381117e+00
2 pgm_pn7_6_s2:1 vs_44_7:A 1.000000e-03
3 pgm_pn7_6_s2:1 vs_41_7:A 1.000000e-03
*END

*D_NET pgm_pn7_6_s3 4.443840e-03
*CONN
*I lt_pn7_6_s3:Z O
*I vs_59_7:A I
*CAP
1 pgm_pn7_6_s3:1 4.443840e-03
*RES
1 lt_pn7_6_s3:Z pgm_pn7_6_s3:1 5.042790e+00
2 pgm_pn7_6_s3:1 vs_59_7:A 1.000000e-03
*END

*D_NET pgm_pn7_7_s1 1.173470e-02
*CONN
*I lt_pn7_7_s1:Z O
*I vs_27_7:A I
*I vs_20_7:A I
*CAP
1 pgm_pn7_7_s1:1 1.173470e-02
*RES
1 lt_pn7_7_s1:Z pgm_pn7_7_s1:1 1.331633e+01
2 pgm_pn7_7_s1:1 vs_27_7:A 1.000000e-03
3 pgm_pn7_7_s1:1 vs_20_7:A 1.000000e-03
*END

*D_NET pgm_pn7_8_s1 1.085186e-02
*CONN
*I lt_pn7_8_s1:Z O
*I vs_19_7:A I
*CAP
1 pgm_pn7_8_s1:1 1.085186e-02
*RES
1 lt_pn7_8_s1:Z pgm_pn7_8_s1:1 1.231449e+01
2 pgm_pn7_8_s1:1 vs_19_7:A 1.000000e-03
*END

*D_NET pgm_pn7_9_s1 2.968485e-03
*CONN
*I lt_pn7_9_s1:Z O
*I vs_29_7:A I
*CAP
1 pgm_pn7_9_s1:1 2.968485e-03
*RES
1 lt_pn7_9_s1:Z pgm_pn7_9_s1:1 3.368584e+00
2 pgm_pn7_9_s1:1 vs_29_7:A 1.000000e-03
*END

*D_NET pgm_pn8_0_s3 1.666144e-02
*CONN
*I lt_pn8_0_s3:Z O
*I vs_59_8:A I
*I vs_48_8:A I
*CAP
1 pgm_pn8_0_s3:1 1.666144e-02
*RES
1 lt_pn8_0_s3:Z pgm_pn8_0_s3:1 1.890710e+01
2 pgm_pn8_0_s3:1 vs_59_8:A 1.000000e-03
3 pgm_pn8_0_s3:1 vs_48_8:A 1.000000e-03
*END

*D_NET pgm_pn8_10_s0 1.533421e-02
*CONN
*I lt_pn8_10_s0:Z O
*I vs_10_8:A I
*I vs_2_8:A I
*CAP
1 pgm_pn8_10_s0:1 1.533421e-02
*RES
1 lt_pn8_10_s0:Z pgm_pn8_10_s0:1 1.740099e+01
2 pgm_pn8_10_s0:1 vs_10_8:A 1.000000e-03
3 pgm_pn8_10_s0:1 vs_2_8:A 1.000000e-03
*END

*D_NET pgm_pn8_10_s2 1.432251e-02
*CONN
*I lt_pn8_10_s2:Z O
*I vs_35_8:A I
*CAP
1 pgm_pn8_10_s2:1 1.432251e-02
*RES
1 lt_pn8_10_s2:Z pgm_pn8_10_s2:1 1.482474e+01
2 pgm_pn8_10_s2:1 vs_35_8:A 1.000000e-03
*END

*D_NET pgm_pn8_11_s2 1.472542e-02
*CONN
*I lt_pn8_11_s2:Z O
*I vs_36_8:A I
*CAP
1 pgm_pn8_11_s2:1 1.472542e-02
*RES
1 lt_pn8_11_s2:Z pgm_pn8_11_s2:1 1.528195e+01
2 pgm_pn8_11_s2:1 vs_36_8:A 1.000000e-03
*END

*D_NET pgm_pn8_12_s1 7.411745e-03
*CONN
*I lt_pn8_12_s1:Z O
*I vs_27_8:A I
*CAP
1 pgm_pn8_12_s1:1 7.411745e-03
*RES
1 lt_pn8_12_s1:Z pgm_pn8_12_s1:1 7.270480e+00
2 pgm_pn8_12_s1:1 vs_27_8:A 1.000000e-03
*END

*D_NET pgm_pn8_1_s1 1.629408e-03
*CONN
*I lt_pn8_1_s1:Z O
*I vs_18_8:A I
*CAP
1 pgm_pn8_1_s1:1 1.629408e-03
*RES
1 lt_pn8_1_s1:Z pgm_pn8_1_s1:1 1.849023e+00
2 pgm_pn8_1_s1:1 vs_18_8:A 1.000000e-03
*END

*D_NET pgm_pn8_1_s3 4.096197e-03
*CONN
*I lt_pn8_1_s3:Z O
*I vs_52_8:A I
*CAP
1 pgm_pn8_1_s3:1 4.096197e-03
*RES
1 lt_pn8_1_s3:Z pgm_pn8_1_s3:1 3.364077e+00
2 pgm_pn8_1_s3:1 vs_52_8:A 1.000000e-03
*END

*D_NET pgm_pn8_2_s0 1.292122e-02
*CONN
*I lt_pn8_2_s0:Z O
*I vs_12_8:A I
*CAP
1 pgm_pn8_2_s0:1 1.292122e-02
*RES
1 lt_pn8_2_s0:Z pgm_pn8_2_s0:1 1.323458e+01
2 pgm_pn8_2_s0:1 vs_12_8:A 1.000000e-03
*END

*D_NET pgm_pn8_2_s2 1.525126e-02
*CONN
*I lt_pn8_2_s2:Z O
*I vs_43_8:A I
*I vs_39_8:A I
*I vs_33_8:A I
*CAP
1 pgm_pn8_2_s2:1 1.525126e-02
*RES
1 lt_pn8_2_s2:Z pgm_pn8_2_s2:1 1.730686e+01
2 pgm_pn8_2_s2:1 vs_43_8:A 1.000000e-03
3 pgm_pn8_2_s2:1 vs_39_8:A 1.000000e-03
4 pgm_pn8_2_s2:1 vs_33_8:A 1.000000e-03
*END

*D_NET pgm_pn8_3_s0 1.839750e-03
*CONN
*I lt_pn8_3_s0:Z O
*I vs_5_8:A I
*CAP
1 pgm_pn8_3_s0:1 1.839750e-03
*RES
1 lt_pn8_3_s0:Z pgm_pn8_3_s0:1 2.087715e+00
2 pgm_pn8_3_s0:1 vs_5_8:A 1.000000e-03
*END

*D_NET pgm_pn8_3_s1 6.872116e-03
*CONN
*I lt_pn8_3_s1:Z O
*I vs_16_8:A I
*CAP
1 pgm_pn8_3_s1:1 6.872116e-03
*RES
1 lt_pn8_3_s1:Z pgm_pn8_3_s1:1 6.514140e+00
2 pgm_pn8_3_s1:1 vs_16_8:A 1.000000e-03
*END

*D_NET pgm_pn8_4_s1 1.331374e-02
*CONN
*I lt_pn8_4_s1:Z O
*I vs_31_8:A I
*I vs_21_8:A I
*CAP
1 pgm_pn8_4_s1:1 1.331374e-02
*RES
1 lt_pn8_4_s1:Z pgm_pn8_4_s1:1 1.510820e+01
2 pgm_pn8_4_s1:1 vs_31_8:A 1.000000e-03
3 pgm_pn8_4_s1:1 vs_21_8:A 1.000000e-03
*END

*D_NET pgm_pn8_4_s3 1.098814e-02
*CONN
*I lt_pn8_4_s3:Z O
*I vs_61_8:A I
*CAP
1 pgm_pn8_4_s3:1 1.098814e-02
*RES
1 lt_pn8_4_s3:Z pgm_pn8_4_s3:1 1.246914e+01
2 pgm_pn8_4_s3:1 vs_61_8:A 1.000000e-03
*END

*D_NET pgm_pn8_5_s2 1.192430e-02
*CONN
*I lt_pn8_5_s2:Z O
*I vs_47_8:A I
*CAP
1 pgm_pn8_5_s2:1 1.192430e-02
*RES
1 lt_pn8_5_s2:Z pgm_pn8_5_s2:1 1.353149e+01
2 pgm_pn8_5_s2:1 vs_47_8:A 1.000000e-03
*END

*D_NET pgm_pn8_6_s3 4.168322e-03
*CONN
*I lt_pn8_6_s3:Z O
*I vs_58_8:A I
*CAP
1 pgm_pn8_6_s3:1 4.168322e-03
*RES
1 lt_pn8_6_s3:Z pgm_pn8_6_s3:1 4.730137e+00
2 pgm_pn8_6_s3:1 vs_58_8:A 1.000000e-03
*END

*D_NET pgm_pn8_7_s0 6.810925e-03
*CONN
*I lt_pn8_7_s0:Z O
*I vs_4_8:A I
*CAP
1 pgm_pn8_7_s0:1 6.810925e-03
*RES
1 lt_pn8_7_s0:Z pgm_pn8_7_s0:1 7.728916e+00
2 pgm_pn8_7_s0:1 vs_4_8:A 1.000000e-03
*END

*D_NET pgm_pn8_7_s3 5.805083e-03
*CONN
*I lt_pn8_7_s3:Z O
*I vs_55_8:A I
*CAP
1 pgm_pn8_7_s3:1 5.805083e-03
*RES
1 lt_pn8_7_s3:Z pgm_pn8_7_s3:1 4.383073e+00
2 pgm_pn8_7_s3:1 vs_55_8:A 1.000000e-03
*END

*D_NET pgm_pn8_8_s0 7.003492e-03
*CONN
*I lt_pn8_8_s0:Z O
*I vs_15_8:A I
*CAP
1 pgm_pn8_8_s0:1 7.003492e-03
*RES
1 lt_pn8_8_s0:Z pgm_pn8_8_s0:1 7.947437e+00
2 pgm_pn8_8_s0:1 vs_15_8:A 1.000000e-03
*END

*D_NET pgm_pn8_8_s2 1.337251e-02
*CONN
*I lt_pn8_8_s2:Z O
*I vs_41_8:A I
*I vs_34_8:A I
*CAP
1 pgm_pn8_8_s2:1 1.337251e-02
*RES
1 lt_pn8_8_s2:Z pgm_pn8_8_s2:1 1.084207e+01
2 pgm_pn8_8_s2:1 vs_41_8:A 1.000000e-03
3 pgm_pn8_8_s2:1 vs_34_8:A 1.000000e-03
*END

*D_NET pgm_pn8_9_s3 3.638024e-03
*CONN
*I lt_pn8_9_s3:Z O
*I vs_62_8:A I
*CAP
1 pgm_pn8_9_s3:1 3.638024e-03
*RES
1 lt_pn8_9_s3:Z pgm_pn8_9_s3:1 4.128364e+00
2 pgm_pn8_9_s3:1 vs_62_8:A 1.000000e-03
*END

*D_NET pgm_pn9_0_s0 2.186073e-02
*CONN
*I lt_pn9_0_s0:Z O
*I vs_15_9:A I
*I vs_6_9:A I
*I vs_4_9:A I
*CAP
1 pgm_pn9_0_s0:1 2.186073e-02
*RES
1 lt_pn9_0_s0:Z pgm_pn9_0_s0:1 2.480716e+01
2 pgm_pn9_0_s0:1 vs_15_9:A 1.000000e-03
3 pgm_pn9_0_s0:1 vs_6_9:A 1.000000e-03
4 pgm_pn9_0_s0:1 vs_4_9:A 1.000000e-03
*END

*D_NET pgm_pn9_0_s1 1.905815e-02
*CONN
*I lt_pn9_0_s1:Z O
*I vs_30_9:A I
*CAP
1 pgm_pn9_0_s1:1 1.905815e-02
*RES
1 lt_pn9_0_s1:Z pgm_pn9_0_s1:1 2.162685e+01
2 pgm_pn9_0_s1:1 vs_30_9:A 1.000000e-03
*END

*D_NET pgm_pn9_0_s3 5.437351e-03
*CONN
*I lt_pn9_0_s3:Z O
*I vs_51_9:A I
*CAP
1 pgm_pn9_0_s3:1 5.437351e-03
*RES
1 lt_pn9_0_s3:Z pgm_pn9_0_s3:1 4.598035e+00
2 pgm_pn9_0_s3:1 vs_51_9:A 1.000000e-03
*END

*D_NET pgm_pn9_10_s2 1.508478e-02
*CONN
*I lt_pn9_10_s2:Z O
*I vs_34_9:A I
*CAP
1 pgm_pn9_10_s2:1 1.508478e-02
*RES
1 lt_pn9_10_s2:Z pgm_pn9_10_s2:1 1.597770e+01
2 pgm_pn9_10_s2:1 vs_34_9:A 1.000000e-03
*END

*D_NET pgm_pn9_10_s3 1.862561e-02
*CONN
*I lt_pn9_10_s3:Z O
*I vs_61_9:A I
*I vs_54_9:A I
*I vs_48_9:A I
*CAP
1 pgm_pn9_10_s3:1 1.862561e-02
*RES
1 lt_pn9_10_s3:Z pgm_pn9_10_s3:1 2.113601e+01
2 pgm_pn9_10_s3:1 vs_61_9:A 1.000000e-03
3 pgm_pn9_10_s3:1 vs_54_9:A 1.000000e-03
4 pgm_pn9_10_s3:1 vs_48_9:A 1.000000e-03
*END

*D_NET pgm_pn9_12_s1 6.073248e-03
*CONN
*I lt_pn9_12_s1:Z O
*I vs_28_9:A I
*CAP
1 pgm_pn9_12_s1:1 6.073248e-03
*RES
1 lt_pn9_12_s1:Z pgm_pn9_12_s1:1 6.891813e+00
2 pgm_pn9_12_s1:1 vs_28_9:A 1.000000e-03
*END

*D_NET pgm_pn9_12_s2 1.735692e-02
*CONN
*I lt_pn9_12_s2:Z O
*I vs_35_9:A I
*CAP
1 pgm_pn9_12_s2:1 1.735692e-02
*RES
1 lt_pn9_12_s2:Z pgm_pn9_12_s2:1 1.754823e+01
2 pgm_pn9_12_s2:1 vs_35_9:A 1.000000e-03
*END

*D_NET pgm_pn9_12_s3 9.612484e-03
*CONN
*I lt_pn9_12_s3:Z O
*I vs_57_9:A I
*CAP
1 pgm_pn9_12_s3:1 9.612484e-03
*RES
1 lt_pn9_12_s3:Z pgm_pn9_12_s3:1 9.623860e+00
2 pgm_pn9_12_s3:1 vs_57_9:A 1.000000e-03
*END

*D_NET pgm_pn9_1_s1 6.961741e-03
*CONN
*I lt_pn9_1_s1:Z O
*I vs_21_9:A I
*CAP
1 pgm_pn9_1_s1:1 6.961741e-03
*RES
1 lt_pn9_1_s1:Z pgm_pn9_1_s1:1 5.895948e+00
2 pgm_pn9_1_s1:1 vs_21_9:A 1.000000e-03
*END

*D_NET pgm_pn9_1_s2 1.532829e-02
*CONN
*I lt_pn9_1_s2:Z O
*I vs_45_9:A I
*CAP
1 pgm_pn9_1_s2:1 1.532829e-02
*RES
1 lt_pn9_1_s2:Z pgm_pn9_1_s2:1 1.739426e+01
2 pgm_pn9_1_s2:1 vs_45_9:A 1.000000e-03
*END

*D_NET pgm_pn9_1_s3 1.681549e-02
*CONN
*I lt_pn9_1_s3:Z O
*I vs_62_9:A I
*CAP
1 pgm_pn9_1_s3:1 1.681549e-02
*RES
1 lt_pn9_1_s3:Z pgm_pn9_1_s3:1 1.908192e+01
2 pgm_pn9_1_s3:1 vs_62_9:A 1.000000e-03
*END

*D_NET pgm_pn9_2_s1 6.959053e-03
*CONN
*I lt_pn9_2_s1:Z O
*I vs_23_9:A I
*CAP
1 pgm_pn9_2_s1:1 6.959053e-03
*RES
1 lt_pn9_2_s1:Z pgm_pn9_2_s1:1 7.897009e+00
2 pgm_pn9_2_s1:1 vs_23_9:A 1.000000e-03
*END

*D_NET pgm_pn9_2_s2 1.022018e-02
*CONN
*I lt_pn9_2_s2:Z O
*I vs_42_9:A I
*CAP
1 pgm_pn9_2_s2:1 1.022018e-02
*RES
1 lt_pn9_2_s2:Z pgm_pn9_2_s2:1 9.681208e+00
2 pgm_pn9_2_s2:1 vs_42_9:A 1.000000e-03
*END

*D_NET pgm_pn9_3_s1 7.219759e-03
*CONN
*I lt_pn9_3_s1:Z O
*I vs_25_9:A I
*CAP
1 pgm_pn9_3_s1:1 7.219759e-03
*RES
1 lt_pn9_3_s1:Z pgm_pn9_3_s1:1 8.192853e+00
2 pgm_pn9_3_s1:1 vs_25_9:A 1.000000e-03
*END

*D_NET pgm_pn9_4_s2 2.020466e-03
*CONN
*I lt_pn9_4_s2:Z O
*I vs_36_9:A I
*CAP
1 pgm_pn9_4_s2:1 2.020466e-03
*RES
1 lt_pn9_4_s2:Z pgm_pn9_4_s2:1 2.292789e+00
2 pgm_pn9_4_s2:1 vs_36_9:A 1.000000e-03
*END

*D_NET pgm_pn9_5_s0 1.601560e-02
*CONN
*I lt_pn9_5_s0:Z O
*I vs_11_9:A I
*I vs_0_9:A I
*CAP
1 pgm_pn9_5_s0:1 1.601560e-02
*RES
1 lt_pn9_5_s0:Z pgm_pn9_5_s0:1 1.817422e+01
2 pgm_pn9_5_s0:1 vs_11_9:A 1.000000e-03
3 pgm_pn9_5_s0:1 vs_0_9:A 1.000000e-03
*END

*D_NET pgm_pn9_5_s2 8.826382e-03
*CONN
*I lt_pn9_5_s2:Z O
*I vs_44_9:A I
*CAP
1 pgm_pn9_5_s2:1 8.826382e-03
*RES
1 lt_pn9_5_s2:Z pgm_pn9_5_s2:1 6.891373e+00
2 pgm_pn9_5_s2:1 vs_44_9:A 1.000000e-03
*END

*D_NET pgm_pn9_6_s2 1.060596e-02
*CONN
*I lt_pn9_6_s2:Z O
*I vs_40_9:A I
*I vs_33_9:A I
*CAP
1 pgm_pn9_6_s2:1 1.060596e-02
*RES
1 lt_pn9_6_s2:Z pgm_pn9_6_s2:1 1.203546e+01
2 pgm_pn9_6_s2:1 vs_40_9:A 1.000000e-03
3 pgm_pn9_6_s2:1 vs_33_9:A 1.000000e-03
*END

*D_NET pgm_pn9_6_s3 5.839206e-03
*CONN
*I lt_pn9_6_s3:Z O
*I vs_60_9:A I
*I vs_59_9:A I
*CAP
1 pgm_pn9_6_s3:1 5.839206e-03
*RES
1 lt_pn9_6_s3:Z pgm_pn9_6_s3:1 6.626226e+00
2 pgm_pn9_6_s3:1 vs_60_9:A 1.000000e-03
3 pgm_pn9_6_s3:1 vs_59_9:A 1.000000e-03
*END

*D_NET pgm_pn9_7_s0 7.406400e-03
*CONN
*I lt_pn9_7_s0:Z O
*I vs_14_9:A I
*CAP
1 pgm_pn9_7_s0:1 7.406400e-03
*RES
1 lt_pn9_7_s0:Z pgm_pn9_7_s0:1 8.404650e+00
2 pgm_pn9_7_s0:1 vs_14_9:A 1.000000e-03
*END

*D_NET pgm_pn9_7_s2 4.846748e-03
*CONN
*I lt_pn9_7_s2:Z O
*I vs_38_9:A I
*CAP
1 pgm_pn9_7_s2:1 4.846748e-03
*RES
1 lt_pn9_7_s2:Z pgm_pn9_7_s2:1 5.500003e+00
2 pgm_pn9_7_s2:1 vs_38_9:A 1.000000e-03
*END

*D_NET pgm_pn9_8_s0 1.199837e-03
*CONN
*I lt_pn9_8_s0:Z O
*I vs_10_9:A I
*CAP
1 pgm_pn9_8_s0:1 1.199837e-03
*RES
1 lt_pn9_8_s0:Z pgm_pn9_8_s0:1 1.361553e+00
2 pgm_pn9_8_s0:1 vs_10_9:A 1.000000e-03
*END

*D_NET pgm_pn9_8_s1 9.480192e-04
*CONN
*I lt_pn9_8_s1:Z O
*I vs_26_9:A I
*CAP
1 pgm_pn9_8_s1:1 9.480192e-04
*RES
1 lt_pn9_8_s1:Z pgm_pn9_8_s1:1 1.075795e+00
2 pgm_pn9_8_s1:1 vs_26_9:A 1.000000e-03
*END

*D_NET pgm_pn9_8_s2 2.710742e-03
*CONN
*I lt_pn9_8_s2:Z O
*I vs_43_9:A I
*CAP
1 pgm_pn9_8_s2:1 2.710742e-03
*RES
1 lt_pn9_8_s2:Z pgm_pn9_8_s2:1 3.076102e+00
2 pgm_pn9_8_s2:1 vs_43_9:A 1.000000e-03
*END

*D_NET pgm_pn9_8_s3 1.304711e-02
*CONN
*I lt_pn9_8_s3:Z O
*I vs_56_9:A I
*I vs_49_9:A I
*CAP
1 pgm_pn9_8_s3:1 1.304711e-02
*RES
1 lt_pn9_8_s3:Z pgm_pn9_8_s3:1 1.480563e+01
2 pgm_pn9_8_s3:1 vs_56_9:A 1.000000e-03
3 pgm_pn9_8_s3:1 vs_49_9:A 1.000000e-03
*END

*D_NET pgm_pn9_9_s2 2.080013e-02
*CONN
*I lt_pn9_9_s2:Z O
*I vs_47_9:A I
*I vs_32_9:A I
*CAP
1 pgm_pn9_9_s2:1 2.080013e-02
*RES
1 lt_pn9_9_s2:Z pgm_pn9_9_s2:1 2.360362e+01
2 pgm_pn9_9_s2:1 vs_47_9:A 1.000000e-03
3 pgm_pn9_9_s2:1 vs_32_9:A 1.000000e-03
*END

*D_NET pgm_pp0_0_s0 2.055945e-02
*CONN
*I lt_pp0_0_s0:Z O
*I vs_13_0:A I
*I vs_5_0:A I
*CAP
1 pgm_pp0_0_s0:1 2.055945e-02
*RES
1 lt_pp0_0_s0:Z pgm_pp0_0_s0:1 2.118240e+01
2 pgm_pp0_0_s0:1 vs_13_0:A 1.000000e-03
3 pgm_pp0_0_s0:1 vs_5_0:A 1.000000e-03
*END

*D_NET pgm_pp0_0_s3 1.987878e-03
*CONN
*I lt_pp0_0_s3:Z O
*I vs_48_0:A I
*CAP
1 pgm_pp0_0_s3:1 1.987878e-03
*RES
1 lt_pp0_0_s3:Z pgm_pp0_0_s3:1 2.255808e+00
2 pgm_pp0_0_s3:1 vs_48_0:A 1.000000e-03
*END

*D_NET pgm_pp0_10_s0 8.043213e-03
*CONN
*I lt_pp0_10_s0:Z O
*I vs_7_0:A I
*CAP
1 pgm_pp0_10_s0:1 8.043213e-03
*RES
1 lt_pp0_10_s0:Z pgm_pp0_10_s0:1 8.131038e+00
2 pgm_pp0_10_s0:1 vs_7_0:A 1.000000e-03
*END

*D_NET pgm_pp0_10_s3 9.868287e-03
*CONN
*I lt_pp0_10_s3:Z O
*I vs_53_0:A I
*CAP
1 pgm_pp0_10_s3:1 9.868287e-03
*RES
1 lt_pp0_10_s3:Z pgm_pp0_10_s3:1 1.119836e+01
2 pgm_pp0_10_s3:1 vs_53_0:A 1.000000e-03
*END

*D_NET pgm_pp0_11_s0 5.255581e-03
*CONN
*I lt_pp0_11_s0:Z O
*I vs_10_0:A I
*CAP
1 pgm_pp0_11_s0:1 5.255581e-03
*RES
1 lt_pp0_11_s0:Z pgm_pp0_11_s0:1 5.963940e+00
2 pgm_pp0_11_s0:1 vs_10_0:A 1.000000e-03
*END

*D_NET pgm_pp0_12_s3 3.573901e-03
*CONN
*I lt_pp0_12_s3:Z O
*I vs_61_0:A I
*CAP
1 pgm_pp0_12_s3:1 3.573901e-03
*RES
1 lt_pp0_12_s3:Z pgm_pp0_12_s3:1 2.483425e+00
2 pgm_pp0_12_s3:1 vs_61_0:A 1.000000e-03
*END

*D_NET pgm_pp0_1_s0 2.011448e-02
*CONN
*I lt_pp0_1_s0:Z O
*I vs_14_0:A I
*CAP
1 pgm_pp0_1_s0:1 2.011448e-02
*RES
1 lt_pp0_1_s0:Z pgm_pp0_1_s0:1 1.953723e+01
2 pgm_pp0_1_s0:1 vs_14_0:A 1.000000e-03
*END

*D_NET pgm_pp0_1_s1 1.027610e-02
*CONN
*I lt_pp0_1_s1:Z O
*I vs_24_0:A I
*CAP
1 pgm_pp0_1_s1:1 1.027610e-02
*RES
1 lt_pp0_1_s1:Z pgm_pp0_1_s1:1 1.037692e+01
2 pgm_pp0_1_s1:1 vs_24_0:A 1.000000e-03
*END

*D_NET pgm_pp0_1_s2 2.521139e-03
*CONN
*I lt_pp0_1_s2:Z O
*I vs_32_0:A I
*CAP
1 pgm_pp0_1_s2:1 2.521139e-03
*RES
1 lt_pp0_1_s2:Z pgm_pp0_1_s2:1 2.860943e+00
2 pgm_pp0_1_s2:1 vs_32_0:A 1.000000e-03
*END

*D_NET pgm_pp0_2_s1 1.465875e-02
*CONN
*I lt_pp0_2_s1:Z O
*I vs_29_0:A I
*CAP
1 pgm_pp0_2_s1:1 1.465875e-02
*RES
1 lt_pp0_2_s1:Z pgm_pp0_2_s1:1 1.663448e+01
2 pgm_pp0_2_s1:1 vs_29_0:A 1.000000e-03
*END

*D_NET pgm_pp0_2_s3 1.035060e-02
*CONN
*I lt_pp0_2_s3:Z O
*I vs_58_0:A I
*CAP
1 pgm_pp0_2_s3:1 1.035060e-02
*RES
1 lt_pp0_2_s3:Z pgm_pp0_2_s3:1 1.060545e+01
2 pgm_pp0_2_s3:1 vs_58_0:A 1.000000e-03
*END

*D_NET pgm_pp0_3_s2 6.550220e-03
*CONN
*I lt_pp0_3_s2:Z O
*I vs_40_0:A I
*CAP
1 pgm_pp0_3_s2:1 6.550220e-03
*RES
1 lt_pp0_3_s2:Z pgm_pp0_3_s2:1 7.433072e+00
2 pgm_pp0_3_s2:1 vs_40_0:A 1.000000e-03
*END

*D_NET pgm_pp0_3_s3 1.062967e-02
*CONN
*I lt_pp0_3_s3:Z O
*I vs_59_0:A I
*CAP
1 pgm_pp0_3_s3:1 1.062967e-02
*RES
1 lt_pp0_3_s3:Z pgm_pp0_3_s3:1 1.206235e+01
2 pgm_pp0_3_s3:1 vs_59_0:A 1.000000e-03
*END

*D_NET pgm_pp0_4_s3 7.270122e-03
*CONN
*I lt_pp0_4_s3:Z O
*I vs_54_0:A I
*I vs_49_0:A I
*CAP
1 pgm_pp0_4_s3:1 7.270122e-03
*RES
1 lt_pp0_4_s3:Z pgm_pp0_4_s3:1 8.250004e+00
2 pgm_pp0_4_s3:1 vs_54_0:A 1.000000e-03
3 pgm_pp0_4_s3:1 vs_49_0:A 1.000000e-03
*END

*D_NET pgm_pp0_5_s0 4.221648e-03
*CONN
*I lt_pp0_5_s0:Z O
*I vs_9_0:A I
*CAP
1 pgm_pp0_5_s0:1 4.221648e-03
*RES
1 lt_pp0_5_s0:Z pgm_pp0_5_s0:1 4.790650e+00
2 pgm_pp0_5_s0:1 vs_9_0:A 1.000000e-03
*END

*D_NET pgm_pp0_5_s1 1.028008e-03
*CONN
*I lt_pp0_5_s1:Z O
*I vs_21_0:A I
*CAP
1 pgm_pp0_5_s1:1 1.028008e-03
*RES
1 lt_pp0_5_s1:Z pgm_pp0_5_s1:1 1.166565e+00
2 pgm_pp0_5_s1:1 vs_21_0:A 1.000000e-03
*END

*D_NET pgm_pp0_5_s2 1.430916e-03
*CONN
*I lt_pp0_5_s2:Z O
*I vs_37_0:A I
*CAP
1 pgm_pp0_5_s2:1 1.430916e-03
*RES
1 lt_pp0_5_s2:Z pgm_pp0_5_s2:1 1.623778e+00
2 pgm_pp0_5_s2:1 vs_37_0:A 1.000000e-03
*END

*D_NET pgm_pp0_5_s3 2.690004e-03
*CONN
*I lt_pp0_5_s3:Z O
*I vs_56_0:A I
*CAP
1 pgm_pp0_5_s3:1 2.690004e-03
*RES
1 lt_pp0_5_s3:Z pgm_pp0_5_s3:1 3.052569e+00
2 pgm_pp0_5_s3:1 vs_56_0:A 1.000000e-03
*END

*D_NET pgm_pp0_6_s0 1.171396e-02
*CONN
*I lt_pp0_6_s0:Z O
*I vs_15_0:A I
*CAP
1 pgm_pp0_6_s0:1 1.171396e-02
*RES
1 lt_pp0_6_s0:Z pgm_pp0_6_s0:1 1.329279e+01
2 pgm_pp0_6_s0:1 vs_15_0:A 1.000000e-03
*END

*D_NET pgm_pp0_6_s1 1.567194e-03
*CONN
*I lt_pp0_6_s1:Z O
*I vs_22_0:A I
*CAP
1 pgm_pp0_6_s1:1 1.567194e-03
*RES
1 lt_pp0_6_s1:Z pgm_pp0_6_s1:1 1.778424e+00
2 pgm_pp0_6_s1:1 vs_22_0:A 1.000000e-03
*END

*D_NET pgm_pp0_6_s2 4.029082e-04
*CONN
*I lt_pp0_6_s2:Z O
*I vs_39_0:A I
*CAP
1 pgm_pp0_6_s2:1 4.029082e-04
*RES
1 lt_pp0_6_s2:Z pgm_pp0_6_s2:1 4.572130e-01
2 pgm_pp0_6_s2:1 vs_39_0:A 1.000000e-03
*END

*D_NET pgm_pp0_7_s1 1.914379e-02
*CONN
*I lt_pp0_7_s1:Z O
*I vs_30_0:A I
*I vs_20_0:A I
*CAP
1 pgm_pp0_7_s1:1 1.914379e-02
*RES
1 lt_pp0_7_s1:Z pgm_pp0_7_s1:1 1.971992e+01
2 pgm_pp0_7_s1:1 vs_30_0:A 1.000000e-03
3 pgm_pp0_7_s1:1 vs_20_0:A 1.000000e-03
*END

*D_NET pgm_pp0_8_s1 3.501746e-03
*CONN
*I lt_pp0_8_s1:Z O
*I vs_28_0:A I
*CAP
1 pgm_pp0_8_s1:1 3.501746e-03
*RES
1 lt_pp0_8_s1:Z pgm_pp0_8_s1:1 3.973719e+00
2 pgm_pp0_8_s1:1 vs_28_0:A 1.000000e-03
*END

*D_NET pgm_pp0_8_s3 5.646639e-03
*CONN
*I lt_pp0_8_s3:Z O
*I vs_62_0:A I
*CAP
1 pgm_pp0_8_s3:1 5.646639e-03
*RES
1 lt_pp0_8_s3:Z pgm_pp0_8_s3:1 6.407705e+00
2 pgm_pp0_8_s3:1 vs_62_0:A 1.000000e-03
*END

*D_NET pgm_pp0_9_s1 7.049870e-03
*CONN
*I lt_pp0_9_s1:Z O
*I vs_23_0:A I
*CAP
1 pgm_pp0_9_s1:1 7.049870e-03
*RES
1 lt_pp0_9_s1:Z pgm_pp0_9_s1:1 6.715851e+00
2 pgm_pp0_9_s1:1 vs_23_0:A 1.000000e-03
*END

*D_NET pgm_pp10_0_s1 1.516197e-02
*CONN
*I lt_pp10_0_s1:Z O
*I vs_25_10:A I
*I vs_19_10:A I
*CAP
1 pgm_pp10_0_s1:1 1.516197e-02
*RES
1 lt_pp10_0_s1:Z pgm_pp10_0_s1:1 1.420516e+01
2 pgm_pp10_0_s1:1 vs_25_10:A 1.000000e-03
3 pgm_pp10_0_s1:1 vs_19_10:A 1.000000e-03
*END

*D_NET pgm_pp10_10_s2 9.539443e-04
*CONN
*I lt_pp10_10_s2:Z O
*I vs_44_10:A I
*CAP
1 pgm_pp10_10_s2:1 9.539443e-04
*RES
1 lt_pp10_10_s2:Z pgm_pp10_10_s2:1 1.082519e+00
2 pgm_pp10_10_s2:1 vs_44_10:A 1.000000e-03
*END

*D_NET pgm_pp10_10_s3 2.881991e-03
*CONN
*I lt_pp10_10_s3:Z O
*I vs_59_10:A I
*CAP
1 pgm_pp10_10_s3:1 2.881991e-03
*RES
1 lt_pp10_10_s3:Z pgm_pp10_10_s3:1 2.130196e+00
2 pgm_pp10_10_s3:1 vs_59_10:A 1.000000e-03
*END

*D_NET pgm_pp10_11_s1 1.238943e-02
*CONN
*I lt_pp10_11_s1:Z O
*I vs_21_10:A I
*CAP
1 pgm_pp10_11_s1:1 1.238943e-02
*RES
1 lt_pp10_11_s1:Z pgm_pp10_11_s1:1 1.405930e+01
2 pgm_pp10_11_s1:1 vs_21_10:A 1.000000e-03
*END

*D_NET pgm_pp10_11_s2 1.970889e-02
*CONN
*I lt_pp10_11_s2:Z O
*I vs_47_10:A I
*I vs_39_10:A I
*I vs_34_10:A I
*CAP
1 pgm_pp10_11_s2:1 1.970889e-02
*RES
1 lt_pp10_11_s2:Z pgm_pp10_11_s2:1 2.108108e+01
2 pgm_pp10_11_s2:1 vs_47_10:A 1.000000e-03
3 pgm_pp10_11_s2:1 vs_39_10:A 1.000000e-03
4 pgm_pp10_11_s2:1 vs_34_10:A 1.000000e-03
*END

*D_NET pgm_pp10_12_s0 2.314813e-03
*CONN
*I lt_pp10_12_s0:Z O
*I vs_14_10:A I
*CAP
1 pgm_pp10_12_s0:1 2.314813e-03
*RES
1 lt_pp10_12_s0:Z pgm_pp10_12_s0:1 1.054635e+00
2 pgm_pp10_12_s0:1 vs_14_10:A 1.000000e-03
*END

*D_NET pgm_pp10_12_s2 1.912629e-02
*CONN
*I lt_pp10_12_s2:Z O
*I vs_32_10:A I
*CAP
1 pgm_pp10_12_s2:1 1.912629e-02
*RES
1 lt_pp10_12_s2:Z pgm_pp10_12_s2:1 2.170417e+01
2 pgm_pp10_12_s2:1 vs_32_10:A 1.000000e-03
*END

*D_NET pgm_pp10_2_s0 1.157768e-02
*CONN
*I lt_pp10_2_s0:Z O
*I vs_10_10:A I
*I vs_9_10:A I
*I vs_4_10:A I
*CAP
1 pgm_pp10_2_s0:1 1.157768e-02
*RES
1 lt_pp10_2_s0:Z pgm_pp10_2_s0:1 1.313815e+01
2 pgm_pp10_2_s0:1 vs_10_10:A 1.000000e-03
3 pgm_pp10_2_s0:1 vs_9_10:A 1.000000e-03
4 pgm_pp10_2_s0:1 vs_4_10:A 1.000000e-03
*END

*D_NET pgm_pp10_3_s0 6.458381e-03
*CONN
*I lt_pp10_3_s0:Z O
*I vs_8_10:A I
*CAP
1 pgm_pp10_3_s0:1 6.458381e-03
*RES
1 lt_pp10_3_s0:Z pgm_pp10_3_s0:1 7.328855e+00
2 pgm_pp10_3_s0:1 vs_8_10:A 1.000000e-03
*END

*D_NET pgm_pp10_3_s1 1.227092e-02
*CONN
*I lt_pp10_3_s1:Z O
*I vs_28_10:A I
*I vs_27_10:A I
*CAP
1 pgm_pp10_3_s1:1 1.227092e-02
*RES
1 lt_pp10_3_s1:Z pgm_pp10_3_s1:1 1.392482e+01
2 pgm_pp10_3_s1:1 vs_28_10:A 1.000000e-03
3 pgm_pp10_3_s1:1 vs_27_10:A 1.000000e-03
*END

*D_NET pgm_pp10_3_s3 1.486909e-02
*CONN
*I lt_pp10_3_s3:Z O
*I vs_63_10:A I
*CAP
1 pgm_pp10_3_s3:1 1.486909e-02
*RES
1 lt_pp10_3_s3:Z pgm_pp10_3_s3:1 1.687318e+01
2 pgm_pp10_3_s3:1 vs_63_10:A 1.000000e-03
*END

*D_NET pgm_pp10_4_s1 1.200800e-02
*CONN
*I lt_pp10_4_s1:Z O
*I vs_29_10:A I
*CAP
1 pgm_pp10_4_s1:1 1.200800e-02
*RES
1 lt_pp10_4_s1:Z pgm_pp10_4_s1:1 1.291817e+01
2 pgm_pp10_4_s1:1 vs_29_10:A 1.000000e-03
*END

*D_NET pgm_pp10_5_s0 1.567194e-03
*CONN
*I lt_pp10_5_s0:Z O
*I vs_7_10:A I
*CAP
1 pgm_pp10_5_s0:1 1.567194e-03
*RES
1 lt_pp10_5_s0:Z pgm_pp10_5_s0:1 1.778424e+00
2 pgm_pp10_5_s0:1 vs_7_10:A 1.000000e-03
*END

*D_NET pgm_pp10_6_s0 1.122218e-02
*CONN
*I lt_pp10_6_s0:Z O
*I vs_12_10:A I
*I vs_5_10:A I
*CAP
1 pgm_pp10_6_s0:1 1.122218e-02
*RES
1 lt_pp10_6_s0:Z pgm_pp10_6_s0:1 1.273473e+01
2 pgm_pp10_6_s0:1 vs_12_10:A 1.000000e-03
3 pgm_pp10_6_s0:1 vs_5_10:A 1.000000e-03
*END

*D_NET pgm_pp10_6_s1 5.602201e-03
*CONN
*I lt_pp10_6_s1:Z O
*I vs_26_10:A I
*I vs_22_10:A I
*CAP
1 pgm_pp10_6_s1:1 5.602201e-03
*RES
1 lt_pp10_6_s1:Z pgm_pp10_6_s1:1 6.357277e+00
2 pgm_pp10_6_s1:1 vs_26_10:A 1.000000e-03
3 pgm_pp10_6_s1:1 vs_22_10:A 1.000000e-03
*END

*D_NET pgm_pp10_6_s2 2.559652e-03
*CONN
*I lt_pp10_6_s2:Z O
*I vs_41_10:A I
*CAP
1 pgm_pp10_6_s2:1 2.559652e-03
*RES
1 lt_pp10_6_s2:Z pgm_pp10_6_s2:1 2.904647e+00
2 pgm_pp10_6_s2:1 vs_41_10:A 1.000000e-03
*END

*D_NET pgm_pp10_6_s3 1.996469e-02
*CONN
*I lt_pp10_6_s3:Z O
*I vs_62_10:A I
*I vs_48_10:A I
*CAP
1 pgm_pp10_6_s3:1 1.996469e-02
*RES
1 lt_pp10_6_s3:Z pgm_pp10_6_s3:1 2.265557e+01
2 pgm_pp10_6_s3:1 vs_62_10:A 1.000000e-03
3 pgm_pp10_6_s3:1 vs_48_10:A 1.000000e-03
*END

*D_NET pgm_pp10_7_s1 9.148385e-03
*CONN
*I lt_pp10_7_s1:Z O
*I vs_18_10:A I
*CAP
1 pgm_pp10_7_s1:1 9.148385e-03
*RES
1 lt_pp10_7_s1:Z pgm_pp10_7_s1:1 1.038142e+01
2 pgm_pp10_7_s1:1 vs_18_10:A 1.000000e-03
*END

*D_NET pgm_pp10_7_s3 1.345002e-03
*CONN
*I lt_pp10_7_s3:Z O
*I vs_57_10:A I
*I vs_56_10:A I
*CAP
1 pgm_pp10_7_s3:1 1.345002e-03
*RES
1 lt_pp10_7_s3:Z pgm_pp10_7_s3:1 1.526284e+00
2 pgm_pp10_7_s3:1 vs_57_10:A 1.000000e-03
3 pgm_pp10_7_s3:1 vs_56_10:A 1.000000e-03
*END

*D_NET pgm_pp10_8_s0 9.998640e-03
*CONN
*I lt_pp10_8_s0:Z O
*I vs_2_10:A I
*CAP
1 pgm_pp10_8_s0:1 9.998640e-03
*RES
1 lt_pp10_8_s0:Z pgm_pp10_8_s0:1 1.134628e+01
2 pgm_pp10_8_s0:1 vs_2_10:A 1.000000e-03
*END

*D_NET pgm_pp10_8_s2 2.832207e-03
*CONN
*I lt_pp10_8_s2:Z O
*I vs_40_10:A I
*CAP
1 pgm_pp10_8_s2:1 2.832207e-03
*RES
1 lt_pp10_8_s2:Z pgm_pp10_8_s2:1 3.213938e+00
2 pgm_pp10_8_s2:1 vs_40_10:A 1.000000e-03
*END

*D_NET pgm_pp10_8_s3 4.535679e-03
*CONN
*I lt_pp10_8_s3:Z O
*I vs_55_10:A I
*CAP
1 pgm_pp10_8_s3:1 4.535679e-03
*RES
1 lt_pp10_8_s3:Z pgm_pp10_8_s3:1 5.147008e+00
2 pgm_pp10_8_s3:1 vs_55_10:A 1.000000e-03
*END

*D_NET pgm_pp11_0_s0 1.531616e-02
*CONN
*I lt_pp11_0_s0:Z O
*I vs_10_11:A I
*CAP
1 pgm_pp11_0_s0:1 1.531616e-02
*RES
1 lt_pp11_0_s0:Z pgm_pp11_0_s0:1 1.537639e+01
2 pgm_pp11_0_s0:1 vs_10_11:A 1.000000e-03
*END

*D_NET pgm_pp11_0_s2 5.614051e-03
*CONN
*I lt_pp11_0_s2:Z O
*I vs_35_11:A I
*CAP
1 pgm_pp11_0_s2:1 5.614051e-03
*RES
1 lt_pp11_0_s2:Z pgm_pp11_0_s2:1 6.370725e+00
2 pgm_pp11_0_s2:1 vs_35_11:A 1.000000e-03
*END

*D_NET pgm_pp11_0_s3 2.058788e-02
*CONN
*I lt_pp11_0_s3:Z O
*I vs_63_11:A I
*I vs_62_11:A I
*CAP
1 pgm_pp11_0_s3:1 2.058788e-02
*RES
1 lt_pp11_0_s3:Z pgm_pp11_0_s3:1 2.179059e+01
2 pgm_pp11_0_s3:1 vs_63_11:A 1.000000e-03
3 pgm_pp11_0_s3:1 vs_62_11:A 1.000000e-03
*END

*D_NET pgm_pp11_10_s1 9.725947e-03
*CONN
*I lt_pp11_10_s1:Z O
*I vs_21_11:A I
*CAP
1 pgm_pp11_10_s1:1 9.725947e-03
*RES
1 lt_pp11_10_s1:Z pgm_pp11_10_s1:1 1.004057e+01
2 pgm_pp11_10_s1:1 vs_21_11:A 1.000000e-03
*END

*D_NET pgm_pp11_11_s1 1.774573e-02
*CONN
*I lt_pp11_11_s1:Z O
*I vs_16_11:A I
*CAP
1 pgm_pp11_11_s1:1 1.774573e-02
*RES
1 lt_pp11_11_s1:Z pgm_pp11_11_s1:1 2.013754e+01
2 pgm_pp11_11_s1:1 vs_16_11:A 1.000000e-03
*END

*D_NET pgm_pp11_12_s0 1.743306e-02
*CONN
*I lt_pp11_12_s0:Z O
*I vs_9_11:A I
*I vs_4_11:A I
*CAP
1 pgm_pp11_12_s0:1 1.743306e-02
*RES
1 lt_pp11_12_s0:Z pgm_pp11_12_s0:1 1.735828e+01
2 pgm_pp11_12_s0:1 vs_9_11:A 1.000000e-03
3 pgm_pp11_12_s0:1 vs_4_11:A 1.000000e-03
*END

*D_NET pgm_pp11_12_s2 1.851600e-03
*CONN
*I lt_pp11_12_s2:Z O
*I vs_46_11:A I
*CAP
1 pgm_pp11_12_s2:1 1.851600e-03
*RES
1 lt_pp11_12_s2:Z pgm_pp11_12_s2:1 2.101163e+00
2 pgm_pp11_12_s2:1 vs_46_11:A 1.000000e-03
*END

*D_NET pgm_pp11_12_s3 1.328858e-02
*CONN
*I lt_pp11_12_s3:Z O
*I vs_53_11:A I
*CAP
1 pgm_pp11_12_s3:1 1.328858e-02
*RES
1 lt_pp11_12_s3:Z pgm_pp11_12_s3:1 1.365145e+01
2 pgm_pp11_12_s3:1 vs_53_11:A 1.000000e-03
*END

*D_NET pgm_pp11_1_s0 1.470022e-02
*CONN
*I lt_pp11_1_s0:Z O
*I vs_8_11:A I
*I vs_7_11:A I
*I vs_2_11:A I
*CAP
1 pgm_pp11_1_s0:1 1.470022e-02
*RES
1 lt_pp11_1_s0:Z pgm_pp11_1_s0:1 1.668155e+01
2 pgm_pp11_1_s0:1 vs_8_11:A 1.000000e-03
3 pgm_pp11_1_s0:1 vs_7_11:A 1.000000e-03
4 pgm_pp11_1_s0:1 vs_2_11:A 1.000000e-03
*END

*D_NET pgm_pp11_1_s1 2.257756e-02
*CONN
*I lt_pp11_1_s1:Z O
*I vs_30_11:A I
*I vs_22_11:A I
*CAP
1 pgm_pp11_1_s1:1 2.257756e-02
*RES
1 lt_pp11_1_s1:Z pgm_pp11_1_s1:1 2.175637e+01
2 pgm_pp11_1_s1:1 vs_30_11:A 1.000000e-03
3 pgm_pp11_1_s1:1 vs_22_11:A 1.000000e-03
*END

*D_NET pgm_pp11_1_s2 1.362778e-03
*CONN
*I lt_pp11_1_s2:Z O
*I vs_33_11:A I
*CAP
1 pgm_pp11_1_s2:1 1.362778e-03
*RES
1 lt_pp11_1_s2:Z pgm_pp11_1_s2:1 1.546456e+00
2 pgm_pp11_1_s2:1 vs_33_11:A 1.000000e-03
*END

*D_NET pgm_pp11_2_s3 7.285477e-03
*CONN
*I lt_pp11_2_s3:Z O
*I vs_55_11:A I
*CAP
1 pgm_pp11_2_s3:1 7.285477e-03
*RES
1 lt_pp11_2_s3:Z pgm_pp11_2_s3:1 5.775039e+00
2 pgm_pp11_2_s3:1 vs_55_11:A 1.000000e-03
*END

*D_NET pgm_pp11_3_s1 1.179766e-02
*CONN
*I lt_pp11_3_s1:Z O
*I vs_27_11:A I
*CAP
1 pgm_pp11_3_s1:1 1.179766e-02
*RES
1 lt_pp11_3_s1:Z pgm_pp11_3_s1:1 1.267948e+01
2 pgm_pp11_3_s1:1 vs_27_11:A 1.000000e-03
*END

*D_NET pgm_pp11_3_s2 2.479663e-03
*CONN
*I lt_pp11_3_s2:Z O
*I vs_37_11:A I
*CAP
1 pgm_pp11_3_s2:1 2.479663e-03
*RES
1 lt_pp11_3_s2:Z pgm_pp11_3_s2:1 2.813877e+00
2 pgm_pp11_3_s2:1 vs_37_11:A 1.000000e-03
*END

*D_NET pgm_pp11_3_s3 1.656377e-03
*CONN
*I lt_pp11_3_s3:Z O
*I vs_52_11:A I
*CAP
1 pgm_pp11_3_s3:1 1.656377e-03
*RES
1 lt_pp11_3_s3:Z pgm_pp11_3_s3:1 1.027350e+00
2 pgm_pp11_3_s3:1 vs_52_11:A 1.000000e-03
*END

*D_NET pgm_pp11_4_s0 9.480192e-04
*CONN
*I lt_pp11_4_s0:Z O
*I vs_5_11:A I
*CAP
1 pgm_pp11_4_s0:1 9.480192e-04
*RES
1 lt_pp11_4_s0:Z pgm_pp11_4_s0:1 1.075795e+00
2 pgm_pp11_4_s0:1 vs_5_11:A 1.000000e-03
*END

*D_NET pgm_pp11_4_s1 7.264197e-03
*CONN
*I lt_pp11_4_s1:Z O
*I vs_26_11:A I
*CAP
1 pgm_pp11_4_s1:1 7.264197e-03
*RES
1 lt_pp11_4_s1:Z pgm_pp11_4_s1:1 8.243281e+00
2 pgm_pp11_4_s1:1 vs_26_11:A 1.000000e-03
*END

*D_NET pgm_pp11_4_s2 2.156744e-03
*CONN
*I lt_pp11_4_s2:Z O
*I vs_38_11:A I
*CAP
1 pgm_pp11_4_s2:1 2.156744e-03
*RES
1 lt_pp11_4_s2:Z pgm_pp11_4_s2:1 2.447434e+00
2 pgm_pp11_4_s2:1 vs_38_11:A 1.000000e-03
*END

*D_NET pgm_pp11_5_s1 2.343385e-03
*CONN
*I lt_pp11_5_s1:Z O
*I vs_23_11:A I
*CAP
1 pgm_pp11_5_s1:1 2.343385e-03
*RES
1 lt_pp11_5_s1:Z pgm_pp11_5_s1:1 2.659231e+00
2 pgm_pp11_5_s1:1 vs_23_11:A 1.000000e-03
*END

*D_NET pgm_pp11_5_s3 1.542605e-02
*CONN
*I lt_pp11_5_s3:Z O
*I vs_61_11:A I
*I vs_50_11:A I
*CAP
1 pgm_pp11_5_s3:1 1.542605e-02
*RES
1 lt_pp11_5_s3:Z pgm_pp11_5_s3:1 1.750521e+01
2 pgm_pp11_5_s3:1 vs_61_11:A 1.000000e-03
3 pgm_pp11_5_s3:1 vs_50_11:A 1.000000e-03
*END

*D_NET pgm_pp11_6_s1 2.775919e-03
*CONN
*I lt_pp11_6_s1:Z O
*I vs_25_11:A I
*CAP
1 pgm_pp11_6_s1:1 2.775919e-03
*RES
1 lt_pp11_6_s1:Z pgm_pp11_6_s1:1 3.150063e+00
2 pgm_pp11_6_s1:1 vs_25_11:A 1.000000e-03
*END

*D_NET pgm_pp11_6_s3 1.250983e-02
*CONN
*I lt_pp11_6_s3:Z O
*I vs_48_11:A I
*CAP
1 pgm_pp11_6_s3:1 1.250983e-02
*RES
1 lt_pp11_6_s3:Z pgm_pp11_6_s3:1 1.252360e+01
2 pgm_pp11_6_s3:1 vs_48_11:A 1.000000e-03
*END

*D_NET pgm_pp11_7_s3 2.373011e-03
*CONN
*I lt_pp11_7_s3:Z O
*I vs_58_11:A I
*CAP
1 pgm_pp11_7_s3:1 2.373011e-03
*RES
1 lt_pp11_7_s3:Z pgm_pp11_7_s3:1 2.692850e+00
2 pgm_pp11_7_s3:1 vs_58_11:A 1.000000e-03
*END

*D_NET pgm_pp11_8_s0 1.013522e-02
*CONN
*I lt_pp11_8_s0:Z O
*I vs_3_11:A I
*CAP
1 pgm_pp11_8_s0:1 1.013522e-02
*RES
1 lt_pp11_8_s0:Z pgm_pp11_8_s0:1 1.064899e+01
2 pgm_pp11_8_s0:1 vs_3_11:A 1.000000e-03
*END

*D_NET pgm_pp11_8_s1 1.656071e-02
*CONN
*I lt_pp11_8_s1:Z O
*I vs_31_11:A I
*I vs_20_11:A I
*CAP
1 pgm_pp11_8_s1:1 1.656071e-02
*RES
1 lt_pp11_8_s1:Z pgm_pp11_8_s1:1 1.879280e+01
2 pgm_pp11_8_s1:1 vs_31_11:A 1.000000e-03
3 pgm_pp11_8_s1:1 vs_20_11:A 1.000000e-03
*END

*D_NET pgm_pp11_8_s2 1.367221e-02
*CONN
*I lt_pp11_8_s2:Z O
*I vs_42_11:A I
*I vs_32_11:A I
*CAP
1 pgm_pp11_8_s2:1 1.367221e-02
*RES
1 lt_pp11_8_s2:Z pgm_pp11_8_s2:1 1.551498e+01
2 pgm_pp11_8_s2:1 vs_42_11:A 1.000000e-03
3 pgm_pp11_8_s2:1 vs_32_11:A 1.000000e-03
*END

*D_NET pgm_pp11_8_s3 1.921516e-02
*CONN
*I lt_pp11_8_s3:Z O
*I vs_60_11:A I
*I vs_49_11:A I
*CAP
1 pgm_pp11_8_s3:1 1.921516e-02
*RES
1 lt_pp11_8_s3:Z pgm_pp11_8_s3:1 2.180502e+01
2 pgm_pp11_8_s3:1 vs_60_11:A 1.000000e-03
3 pgm_pp11_8_s3:1 vs_49_11:A 1.000000e-03
*END

*D_NET pgm_pp12_0_s0 1.876935e-02
*CONN
*I lt_pp12_0_s0:Z O
*I vs_11_12:A I
*CAP
1 pgm_pp12_0_s0:1 1.876935e-02
*RES
1 lt_pp12_0_s0:Z pgm_pp12_0_s0:1 1.700293e+01
2 pgm_pp12_0_s0:1 vs_11_12:A 1.000000e-03
*END

*D_NET pgm_pp12_0_s2 1.629765e-02
*CONN
*I lt_pp12_0_s2:Z O
*I vs_43_12:A I
*I vs_41_12:A I
*CAP
1 pgm_pp12_0_s2:1 1.629765e-02
*RES
1 lt_pp12_0_s2:Z pgm_pp12_0_s2:1 1.677813e+01
2 pgm_pp12_0_s2:1 vs_43_12:A 1.000000e-03
3 pgm_pp12_0_s2:1 vs_41_12:A 1.000000e-03
*END

*D_NET pgm_pp12_0_s3 2.032629e-02
*CONN
*I lt_pp12_0_s3:Z O
*I vs_63_12:A I
*CAP
1 pgm_pp12_0_s3:1 2.032629e-02
*RES
1 lt_pp12_0_s3:Z pgm_pp12_0_s3:1 2.120578e+01
2 pgm_pp12_0_s3:1 vs_63_12:A 1.000000e-03
*END

*D_NET pgm_pp12_10_s1 1.524830e-02
*CONN
*I lt_pp12_10_s1:Z O
*I vs_19_12:A I
*I vs_17_12:A I
*CAP
1 pgm_pp12_10_s1:1 1.524830e-02
*RES
1 lt_pp12_10_s1:Z pgm_pp12_10_s1:1 1.730349e+01
2 pgm_pp12_10_s1:1 vs_19_12:A 1.000000e-03
3 pgm_pp12_10_s1:1 vs_17_12:A 1.000000e-03
*END

*D_NET pgm_pp12_10_s2 5.880682e-03
*CONN
*I lt_pp12_10_s2:Z O
*I vs_47_12:A I
*I vs_44_12:A I
*CAP
1 pgm_pp12_10_s2:1 5.880682e-03
*RES
1 lt_pp12_10_s2:Z pgm_pp12_10_s2:1 6.673292e+00
2 pgm_pp12_10_s2:1 vs_47_12:A 1.000000e-03
3 pgm_pp12_10_s2:1 vs_44_12:A 1.000000e-03
*END

*D_NET pgm_pp12_11_s2 1.653701e-02
*CONN
*I lt_pp12_11_s2:Z O
*I vs_33_12:A I
*CAP
1 pgm_pp12_11_s2:1 1.653701e-02
*RES
1 lt_pp12_11_s2:Z pgm_pp12_11_s2:1 1.876590e+01
2 pgm_pp12_11_s2:1 vs_33_12:A 1.000000e-03
*END

*D_NET pgm_pp12_12_s1 1.769332e-02
*CONN
*I lt_pp12_12_s1:Z O
*I vs_26_12:A I
*I vs_20_12:A I
*CAP
1 pgm_pp12_12_s1:1 1.769332e-02
*RES
1 lt_pp12_12_s1:Z pgm_pp12_12_s1:1 1.750964e+01
2 pgm_pp12_12_s1:1 vs_26_12:A 1.000000e-03
3 pgm_pp12_12_s1:1 vs_20_12:A 1.000000e-03
*END

*D_NET pgm_pp12_12_s2 1.851600e-03
*CONN
*I lt_pp12_12_s2:Z O
*I vs_46_12:A I
*CAP
1 pgm_pp12_12_s2:1 1.851600e-03
*RES
1 lt_pp12_12_s2:Z pgm_pp12_12_s2:1 2.101163e+00
2 pgm_pp12_12_s2:1 vs_46_12:A 1.000000e-03
*END

*D_NET pgm_pp12_1_s2 9.909763e-03
*CONN
*I lt_pp12_1_s2:Z O
*I vs_40_12:A I
*CAP
1 pgm_pp12_1_s2:1 9.909763e-03
*RES
1 lt_pp12_1_s2:Z pgm_pp12_1_s2:1 1.124542e+01
2 pgm_pp12_1_s2:1 vs_40_12:A 1.000000e-03
*END

*D_NET pgm_pp12_2_s3 1.187677e-02
*CONN
*I lt_pp12_2_s3:Z O
*I vs_59_12:A I
*CAP
1 pgm_pp12_2_s3:1 1.187677e-02
*RES
1 lt_pp12_2_s3:Z pgm_pp12_2_s3:1 1.248128e+01
2 pgm_pp12_2_s3:1 vs_59_12:A 1.000000e-03
*END

*D_NET pgm_pp12_3_s0 2.681117e-03
*CONN
*I lt_pp12_3_s0:Z O
*I vs_4_12:A I
*CAP
1 pgm_pp12_3_s0:1 2.681117e-03
*RES
1 lt_pp12_3_s0:Z pgm_pp12_3_s0:1 3.042483e+00
2 pgm_pp12_3_s0:1 vs_4_12:A 1.000000e-03
*END

*D_NET pgm_pp12_3_s1 5.954746e-03
*CONN
*I lt_pp12_3_s1:Z O
*I vs_23_12:A I
*CAP
1 pgm_pp12_3_s1:1 5.954746e-03
*RES
1 lt_pp12_3_s1:Z pgm_pp12_3_s1:1 6.757339e+00
2 pgm_pp12_3_s1:1 vs_23_12:A 1.000000e-03
*END

*D_NET pgm_pp12_3_s2 5.039315e-03
*CONN
*I lt_pp12_3_s2:Z O
*I vs_38_12:A I
*I vs_35_12:A I
*CAP
1 pgm_pp12_3_s2:1 5.039315e-03
*RES
1 lt_pp12_3_s2:Z pgm_pp12_3_s2:1 5.718524e+00
2 pgm_pp12_3_s2:1 vs_38_12:A 1.000000e-03
3 pgm_pp12_3_s2:1 vs_35_12:A 1.000000e-03
*END

*D_NET pgm_pp12_3_s3 2.328572e-03
*CONN
*I lt_pp12_3_s3:Z O
*I vs_50_12:A I
*CAP
1 pgm_pp12_3_s3:1 2.328572e-03
*RES
1 lt_pp12_3_s3:Z pgm_pp12_3_s3:1 2.642422e+00
2 pgm_pp12_3_s3:1 vs_50_12:A 1.000000e-03
*END

*D_NET pgm_pp12_4_s0 3.175864e-03
*CONN
*I lt_pp12_4_s0:Z O
*I vs_3_12:A I
*CAP
1 pgm_pp12_4_s0:1 3.175864e-03
*RES
1 lt_pp12_4_s0:Z pgm_pp12_4_s0:1 3.603914e+00
2 pgm_pp12_4_s0:1 vs_3_12:A 1.000000e-03
*END

*D_NET pgm_pp12_4_s2 9.983827e-04
*CONN
*I lt_pp12_4_s2:Z O
*I vs_37_12:A I
*CAP
1 pgm_pp12_4_s2:1 9.983827e-04
*RES
1 lt_pp12_4_s2:Z pgm_pp12_4_s2:1 1.132947e+00
2 pgm_pp12_4_s2:1 vs_37_12:A 1.000000e-03
*END

*D_NET pgm_pp12_5_s1 3.457475e-03
*CONN
*I lt_pp12_5_s1:Z O
*I vs_24_12:A I
*CAP
1 pgm_pp12_5_s1:1 3.457475e-03
*RES
1 lt_pp12_5_s1:Z pgm_pp12_5_s1:1 1.518731e+00
2 pgm_pp12_5_s1:1 vs_24_12:A 1.000000e-03
*END

*D_NET pgm_pp12_6_s3 8.602251e-03
*CONN
*I lt_pp12_6_s3:Z O
*I vs_60_12:A I
*CAP
1 pgm_pp12_6_s3:1 8.602251e-03
*RES
1 lt_pp12_6_s3:Z pgm_pp12_6_s3:1 8.477466e+00
2 pgm_pp12_6_s3:1 vs_60_12:A 1.000000e-03
*END

*D_NET pgm_pp12_7_s3 6.867214e-03
*CONN
*I lt_pp12_7_s3:Z O
*I vs_61_12:A I
*CAP
1 pgm_pp12_7_s3:1 6.867214e-03
*RES
1 lt_pp12_7_s3:Z pgm_pp12_7_s3:1 7.792791e+00
2 pgm_pp12_7_s3:1 vs_61_12:A 1.000000e-03
*END

*D_NET pgm_pp12_8_s2 1.267383e-02
*CONN
*I lt_pp12_8_s2:Z O
*I vs_32_12:A I
*CAP
1 pgm_pp12_8_s2:1 1.267383e-02
*RES
1 lt_pp12_8_s2:Z pgm_pp12_8_s2:1 1.438204e+01
2 pgm_pp12_8_s2:1 vs_32_12:A 1.000000e-03
*END

*D_NET pgm_pp12_8_s3 7.951511e-03
*CONN
*I lt_pp12_8_s3:Z O
*I vs_62_12:A I
*I vs_57_12:A I
*CAP
1 pgm_pp12_8_s3:1 7.951511e-03
*RES
1 lt_pp12_8_s3:Z pgm_pp12_8_s3:1 9.023232e+00
2 pgm_pp12_8_s3:1 vs_62_12:A 1.000000e-03
3 pgm_pp12_8_s3:1 vs_57_12:A 1.000000e-03
*END

*D_NET pgm_pp12_9_s0 4.357926e-03
*CONN
*I lt_pp12_9_s0:Z O
*I vs_14_12:A I
*CAP
1 pgm_pp12_9_s0:1 4.357926e-03
*RES
1 lt_pp12_9_s0:Z pgm_pp12_9_s0:1 4.945296e+00
2 pgm_pp12_9_s0:1 vs_14_12:A 1.000000e-03
*END

*D_NET pgm_pp13_0_s0 1.521571e-02
*CONN
*I lt_pp13_0_s0:Z O
*I vs_10_13:A I
*I vs_1_13:A I
*CAP
1 pgm_pp13_0_s0:1 1.521571e-02
*RES
1 lt_pp13_0_s0:Z pgm_pp13_0_s0:1 1.726651e+01
2 pgm_pp13_0_s0:1 vs_10_13:A 1.000000e-03
3 pgm_pp13_0_s0:1 vs_1_13:A 1.000000e-03
*END

*D_NET pgm_pp13_0_s1 1.891002e-02
*CONN
*I lt_pp13_0_s1:Z O
*I vs_30_13:A I
*CAP
1 pgm_pp13_0_s1:1 1.891002e-02
*RES
1 lt_pp13_0_s1:Z pgm_pp13_0_s1:1 2.145875e+01
2 pgm_pp13_0_s1:1 vs_30_13:A 1.000000e-03
*END

*D_NET pgm_pp13_0_s2 1.559345e-02
*CONN
*I lt_pp13_0_s2:Z O
*I vs_42_13:A I
*CAP
1 pgm_pp13_0_s2:1 1.559345e-02
*RES
1 lt_pp13_0_s2:Z pgm_pp13_0_s2:1 1.626697e+01
2 pgm_pp13_0_s2:1 vs_42_13:A 1.000000e-03
*END

*D_NET pgm_pp13_10_s0 1.540827e-02
*CONN
*I lt_pp13_10_s0:Z O
*I vs_0_13:A I
*CAP
1 pgm_pp13_10_s0:1 1.540827e-02
*RES
1 lt_pp13_10_s0:Z pgm_pp13_10_s0:1 1.748503e+01
2 pgm_pp13_10_s0:1 vs_0_13:A 1.000000e-03
*END

*D_NET pgm_pp13_10_s2 7.400475e-03
*CONN
*I lt_pp13_10_s2:Z O
*I vs_39_13:A I
*CAP
1 pgm_pp13_10_s2:1 7.400475e-03
*RES
1 lt_pp13_10_s2:Z pgm_pp13_10_s2:1 8.397926e+00
2 pgm_pp13_10_s2:1 vs_39_13:A 1.000000e-03
*END

*D_NET pgm_pp13_11_s2 3.898897e-03
*CONN
*I lt_pp13_11_s2:Z O
*I vs_46_13:A I
*CAP
1 pgm_pp13_11_s2:1 3.898897e-03
*RES
1 lt_pp13_11_s2:Z pgm_pp13_11_s2:1 2.564266e+00
2 pgm_pp13_11_s2:1 vs_46_13:A 1.000000e-03
*END

*D_NET pgm_pp13_12_s2 1.796793e-02
*CONN
*I lt_pp13_12_s2:Z O
*I vs_33_13:A I
*CAP
1 pgm_pp13_12_s2:1 1.796793e-02
*RES
1 lt_pp13_12_s2:Z pgm_pp13_12_s2:1 2.038968e+01
2 pgm_pp13_12_s2:1 vs_33_13:A 1.000000e-03
*END

*D_NET pgm_pp13_12_s3 1.082114e-02
*CONN
*I lt_pp13_12_s3:Z O
*I vs_57_13:A I
*CAP
1 pgm_pp13_12_s3:1 1.082114e-02
*RES
1 lt_pp13_12_s3:Z pgm_pp13_12_s3:1 1.021918e+01
2 pgm_pp13_12_s3:1 vs_57_13:A 1.000000e-03
*END

*D_NET pgm_pp13_1_s1 1.362778e-03
*CONN
*I lt_pp13_1_s1:Z O
*I vs_17_13:A I
*CAP
1 pgm_pp13_1_s1:1 1.362778e-03
*RES
1 lt_pp13_1_s1:Z pgm_pp13_1_s1:1 1.546456e+00
2 pgm_pp13_1_s1:1 vs_17_13:A 1.000000e-03
*END

*D_NET pgm_pp13_1_s2 8.558699e-03
*CONN
*I lt_pp13_1_s2:Z O
*I vs_38_13:A I
*CAP
1 pgm_pp13_1_s2:1 8.558699e-03
*RES
1 lt_pp13_1_s2:Z pgm_pp13_1_s2:1 8.716002e+00
2 pgm_pp13_1_s2:1 vs_38_13:A 1.000000e-03
*END

*D_NET pgm_pp13_2_s1 1.940477e-02
*CONN
*I lt_pp13_2_s1:Z O
*I vs_31_13:A I
*I vs_27_13:A I
*CAP
1 pgm_pp13_2_s1:1 1.940477e-02
*RES
1 lt_pp13_2_s1:Z pgm_pp13_2_s1:1 2.202018e+01
2 pgm_pp13_2_s1:1 vs_31_13:A 1.000000e-03
3 pgm_pp13_2_s1:1 vs_27_13:A 1.000000e-03
*END

*D_NET pgm_pp13_3_s1 2.832207e-03
*CONN
*I lt_pp13_3_s1:Z O
*I vs_21_13:A I
*CAP
1 pgm_pp13_3_s1:1 2.832207e-03
*RES
1 lt_pp13_3_s1:Z pgm_pp13_3_s1:1 3.213938e+00
2 pgm_pp13_3_s1:1 vs_21_13:A 1.000000e-03
*END

*D_NET pgm_pp13_4_s0 2.456711e-03
*CONN
*I lt_pp13_4_s0:Z O
*I vs_6_13:A I
*CAP
1 pgm_pp13_4_s0:1 2.456711e-03
*RES
1 lt_pp13_4_s0:Z pgm_pp13_4_s0:1 2.079534e+00
2 pgm_pp13_4_s0:1 vs_6_13:A 1.000000e-03
*END

*D_NET pgm_pp13_4_s2 1.310960e-02
*CONN
*I lt_pp13_4_s2:Z O
*I vs_40_13:A I
*I vs_32_13:A I
*CAP
1 pgm_pp13_4_s2:1 1.310960e-02
*RES
1 lt_pp13_4_s2:Z pgm_pp13_4_s2:1 1.363614e+01
2 pgm_pp13_4_s2:1 vs_40_13:A 1.000000e-03
3 pgm_pp13_4_s2:1 vs_32_13:A 1.000000e-03
*END

*D_NET pgm_pp13_5_s0 1.651331e-02
*CONN
*I lt_pp13_5_s0:Z O
*I vs_14_13:A I
*I vs_2_13:A I
*CAP
1 pgm_pp13_5_s0:1 1.651331e-02
*RES
1 lt_pp13_5_s0:Z pgm_pp13_5_s0:1 1.873901e+01
2 pgm_pp13_5_s0:1 vs_14_13:A 1.000000e-03
3 pgm_pp13_5_s0:1 vs_2_13:A 1.000000e-03
*END

*D_NET pgm_pp13_5_s1 8.200366e-03
*CONN
*I lt_pp13_5_s1:Z O
*I vs_28_13:A I
*CAP
1 pgm_pp13_5_s1:1 8.200366e-03
*RES
1 lt_pp13_5_s1:Z pgm_pp13_5_s1:1 9.305628e+00
2 pgm_pp13_5_s1:1 vs_28_13:A 1.000000e-03
*END

*D_NET pgm_pp13_5_s2 5.658012e-03
*CONN
*I lt_pp13_5_s2:Z O
*I vs_35_13:A I
*CAP
1 pgm_pp13_5_s2:1 5.658012e-03
*RES
1 lt_pp13_5_s2:Z pgm_pp13_5_s2:1 5.900113e+00
2 pgm_pp13_5_s2:1 vs_35_13:A 1.000000e-03
*END

*D_NET pgm_pp13_6_s2 1.077084e-02
*CONN
*I lt_pp13_6_s2:Z O
*I vs_36_13:A I
*I vs_34_13:A I
*CAP
1 pgm_pp13_6_s2:1 1.077084e-02
*RES
1 lt_pp13_6_s2:Z pgm_pp13_6_s2:1 6.048381e+00
2 pgm_pp13_6_s2:1 vs_36_13:A 1.000000e-03
3 pgm_pp13_6_s2:1 vs_34_13:A 1.000000e-03
*END

*D_NET pgm_pp13_7_s0 4.040932e-03
*CONN
*I lt_pp13_7_s0:Z O
*I vs_11_13:A I
*CAP
1 pgm_pp13_7_s0:1 4.040932e-03
*RES
1 lt_pp13_7_s0:Z pgm_pp13_7_s0:1 4.585577e+00
2 pgm_pp13_7_s0:1 vs_11_13:A 1.000000e-03
*END

*D_NET pgm_pp13_7_s3 3.587660e-03
*CONN
*I lt_pp13_7_s3:Z O
*I vs_54_13:A I
*CAP
1 pgm_pp13_7_s3:1 3.587660e-03
*RES
1 lt_pp13_7_s3:Z pgm_pp13_7_s3:1 4.071212e+00
2 pgm_pp13_7_s3:1 vs_54_13:A 1.000000e-03
*END

*D_NET pgm_pp13_8_s0 8.466996e-03
*CONN
*I lt_pp13_8_s0:Z O
*I vs_3_13:A I
*CAP
1 pgm_pp13_8_s0:1 8.466996e-03
*RES
1 lt_pp13_8_s0:Z pgm_pp13_8_s0:1 9.608196e+00
2 pgm_pp13_8_s0:1 vs_3_13:A 1.000000e-03
*END

*D_NET pgm_pp13_8_s1 2.017503e-02
*CONN
*I lt_pp13_8_s1:Z O
*I vs_29_13:A I
*I vs_24_13:A I
*I vs_16_13:A I
*CAP
1 pgm_pp13_8_s1:1 2.017503e-02
*RES
1 lt_pp13_8_s1:Z pgm_pp13_8_s1:1 2.289427e+01
2 pgm_pp13_8_s1:1 vs_29_13:A 1.000000e-03
3 pgm_pp13_8_s1:1 vs_24_13:A 1.000000e-03
4 pgm_pp13_8_s1:1 vs_16_13:A 1.000000e-03
*END

*D_NET pgm_pp13_8_s3 1.017047e-02
*CONN
*I lt_pp13_8_s3:Z O
*I vs_50_13:A I
*CAP
1 pgm_pp13_8_s3:1 1.017047e-02
*RES
1 lt_pp13_8_s3:Z pgm_pp13_8_s3:1 1.154127e+01
2 pgm_pp13_8_s3:1 vs_50_13:A 1.000000e-03
*END

*D_NET pgm_pp13_9_s0 3.321030e-03
*CONN
*I lt_pp13_9_s0:Z O
*I vs_9_13:A I
*CAP
1 pgm_pp13_9_s0:1 3.321030e-03
*RES
1 lt_pp13_9_s0:Z pgm_pp13_9_s0:1 3.768645e+00
2 pgm_pp13_9_s0:1 vs_9_13:A 1.000000e-03
*END

*D_NET pgm_pp13_9_s1 3.018849e-03
*CONN
*I lt_pp13_9_s1:Z O
*I vs_25_13:A I
*CAP
1 pgm_pp13_9_s1:1 3.018849e-03
*RES
1 lt_pp13_9_s1:Z pgm_pp13_9_s1:1 3.425735e+00
2 pgm_pp13_9_s1:1 vs_25_13:A 1.000000e-03
*END

*D_NET pgm_pp13_9_s3 1.804199e-03
*CONN
*I lt_pp13_9_s3:Z O
*I vs_58_13:A I
*CAP
1 pgm_pp13_9_s3:1 1.804199e-03
*RES
1 lt_pp13_9_s3:Z pgm_pp13_9_s3:1 2.047373e+00
2 pgm_pp13_9_s3:1 vs_58_13:A 1.000000e-03
*END

*D_NET pgm_pp14_0_s0 2.089445e-02
*CONN
*I lt_pp14_0_s0:Z O
*I vs_13_14:A I
*CAP
1 pgm_pp14_0_s0:1 2.089445e-02
*RES
1 lt_pp14_0_s0:Z pgm_pp14_0_s0:1 1.993405e+01
2 pgm_pp14_0_s0:1 vs_13_14:A 1.000000e-03
*END

*D_NET pgm_pp14_0_s1 1.215511e-02
*CONN
*I lt_pp14_0_s1:Z O
*I vs_23_14:A I
*I vs_20_14:A I
*CAP
1 pgm_pp14_0_s1:1 1.215511e-02
*RES
1 lt_pp14_0_s1:Z pgm_pp14_0_s1:1 1.178929e+01
2 pgm_pp14_0_s1:1 vs_23_14:A 1.000000e-03
3 pgm_pp14_0_s1:1 vs_20_14:A 1.000000e-03
*END

*D_NET pgm_pp14_11_s3 1.662885e-02
*CONN
*I lt_pp14_11_s3:Z O
*I vs_49_14:A I
*CAP
1 pgm_pp14_11_s3:1 1.662885e-02
*RES
1 lt_pp14_11_s3:Z pgm_pp14_11_s3:1 1.887012e+01
2 pgm_pp14_11_s3:1 vs_49_14:A 1.000000e-03
*END

*D_NET pgm_pp14_12_s1 4.722321e-03
*CONN
*I lt_pp14_12_s1:Z O
*I vs_28_14:A I
*CAP
1 pgm_pp14_12_s1:1 4.722321e-03
*RES
1 lt_pp14_12_s1:Z pgm_pp14_12_s1:1 5.358805e+00
2 pgm_pp14_12_s1:1 vs_28_14:A 1.000000e-03
*END

*D_NET pgm_pp14_1_s0 2.995759e-03
*CONN
*I lt_pp14_1_s0:Z O
*I vs_2_14:A I
*CAP
1 pgm_pp14_1_s0:1 2.995759e-03
*RES
1 lt_pp14_1_s0:Z pgm_pp14_1_s0:1 1.683381e+00
2 pgm_pp14_1_s0:1 vs_2_14:A 1.000000e-03
*END

*D_NET pgm_pp14_1_s2 9.207636e-03
*CONN
*I lt_pp14_1_s2:Z O
*I vs_38_14:A I
*CAP
1 pgm_pp14_1_s2:1 9.207636e-03
*RES
1 lt_pp14_1_s2:Z pgm_pp14_1_s2:1 1.044866e+01
2 pgm_pp14_1_s2:1 vs_38_14:A 1.000000e-03
*END

*D_NET pgm_pp14_2_s1 6.248039e-03
*CONN
*I lt_pp14_2_s1:Z O
*I vs_22_14:A I
*CAP
1 pgm_pp14_2_s1:1 6.248039e-03
*RES
1 lt_pp14_2_s1:Z pgm_pp14_2_s1:1 7.090163e+00
2 pgm_pp14_2_s1:1 vs_22_14:A 1.000000e-03
*END

*D_NET pgm_pp14_3_s0 4.040932e-03
*CONN
*I lt_pp14_3_s0:Z O
*I vs_6_14:A I
*CAP
1 pgm_pp14_3_s0:1 4.040932e-03
*RES
1 lt_pp14_3_s0:Z pgm_pp14_3_s0:1 4.585577e+00
2 pgm_pp14_3_s0:1 vs_6_14:A 1.000000e-03
*END

*D_NET pgm_pp14_3_s2 1.925637e-02
*CONN
*I lt_pp14_3_s2:Z O
*I vs_45_14:A I
*I vs_36_14:A I
*I vs_35_14:A I
*CAP
1 pgm_pp14_3_s2:1 1.925637e-02
*RES
1 lt_pp14_3_s2:Z pgm_pp14_3_s2:1 1.984767e+01
2 pgm_pp14_3_s2:1 vs_45_14:A 1.000000e-03
3 pgm_pp14_3_s2:1 vs_36_14:A 1.000000e-03
4 pgm_pp14_3_s2:1 vs_35_14:A 1.000000e-03
*END

*D_NET pgm_pp14_4_s1 5.986311e-03
*CONN
*I lt_pp14_4_s1:Z O
*I vs_24_14:A I
*CAP
1 pgm_pp14_4_s1:1 5.986311e-03
*RES
1 lt_pp14_4_s1:Z pgm_pp14_4_s1:1 5.508943e+00
2 pgm_pp14_4_s1:1 vs_24_14:A 1.000000e-03
*END

*D_NET pgm_pp14_4_s3 4.263124e-03
*CONN
*I lt_pp14_4_s3:Z O
*I vs_50_14:A I
*CAP
1 pgm_pp14_4_s3:1 4.263124e-03
*RES
1 lt_pp14_4_s3:Z pgm_pp14_4_s3:1 4.837717e+00
2 pgm_pp14_4_s3:1 vs_50_14:A 1.000000e-03
*END

*D_NET pgm_pp14_5_s0 3.350655e-03
*CONN
*I lt_pp14_5_s0:Z O
*I vs_4_14:A I
*CAP
1 pgm_pp14_5_s0:1 3.350655e-03
*RES
1 lt_pp14_5_s0:Z pgm_pp14_5_s0:1 3.802264e+00
2 pgm_pp14_5_s0:1 vs_4_14:A 1.000000e-03
*END

*D_NET pgm_pp14_5_s1 1.138512e-02
*CONN
*I lt_pp14_5_s1:Z O
*I vs_30_14:A I
*CAP
1 pgm_pp14_5_s1:1 1.138512e-02
*RES
1 lt_pp14_5_s1:Z pgm_pp14_5_s1:1 1.291963e+01
2 pgm_pp14_5_s1:1 vs_30_14:A 1.000000e-03
*END

*D_NET pgm_pp14_5_s2 7.270122e-03
*CONN
*I lt_pp14_5_s2:Z O
*I vs_33_14:A I
*CAP
1 pgm_pp14_5_s2:1 7.270122e-03
*RES
1 lt_pp14_5_s2:Z pgm_pp14_5_s2:1 8.250004e+00
2 pgm_pp14_5_s2:1 vs_33_14:A 1.000000e-03
*END

*D_NET pgm_pp14_5_s3 3.898729e-03
*CONN
*I lt_pp14_5_s3:Z O
*I vs_57_14:A I
*CAP
1 pgm_pp14_5_s3:1 3.898729e-03
*RES
1 lt_pp14_5_s3:Z pgm_pp14_5_s3:1 4.424208e+00
2 pgm_pp14_5_s3:1 vs_57_14:A 1.000000e-03
*END

*D_NET pgm_pp14_6_s2 1.085778e-02
*CONN
*I lt_pp14_6_s2:Z O
*I vs_32_14:A I
*CAP
1 pgm_pp14_6_s2:1 1.085778e-02
*RES
1 lt_pp14_6_s2:Z pgm_pp14_6_s2:1 1.232122e+01
2 pgm_pp14_6_s2:1 vs_32_14:A 1.000000e-03
*END

*D_NET pgm_pp14_7_s1 8.917306e-04
*CONN
*I lt_pp14_7_s1:Z O
*I vs_25_14:A I
*CAP
1 pgm_pp14_7_s1:1 8.917306e-04
*RES
1 lt_pp14_7_s1:Z pgm_pp14_7_s1:1 1.011920e+00
2 pgm_pp14_7_s1:1 vs_25_14:A 1.000000e-03
*END

*D_NET pgm_pp14_7_s3 4.710470e-03
*CONN
*I lt_pp14_7_s3:Z O
*I vs_53_14:A I
*CAP
1 pgm_pp14_7_s3:1 4.710470e-03
*RES
1 lt_pp14_7_s3:Z pgm_pp14_7_s3:1 5.345357e+00
2 pgm_pp14_7_s3:1 vs_53_14:A 1.000000e-03
*END

*D_NET pgm_pp14_8_s0 7.264197e-03
*CONN
*I lt_pp14_8_s0:Z O
*I vs_15_14:A I
*CAP
1 pgm_pp14_8_s0:1 7.264197e-03
*RES
1 lt_pp14_8_s0:Z pgm_pp14_8_s0:1 8.243281e+00
2 pgm_pp14_8_s0:1 vs_15_14:A 1.000000e-03
*END

*D_NET pgm_pp14_8_s3 9.284663e-03
*CONN
*I lt_pp14_8_s3:Z O
*I vs_51_14:A I
*CAP
1 pgm_pp14_8_s3:1 9.284663e-03
*RES
1 lt_pp14_8_s3:Z pgm_pp14_8_s3:1 1.053607e+01
2 pgm_pp14_8_s3:1 vs_51_14:A 1.000000e-03
*END

*D_NET pgm_pp14_9_s3 2.444112e-03
*CONN
*I lt_pp14_9_s3:Z O
*I vs_58_14:A I
*CAP
1 pgm_pp14_9_s3:1 2.444112e-03
*RES
1 lt_pp14_9_s3:Z pgm_pp14_9_s3:1 2.773534e+00
2 pgm_pp14_9_s3:1 vs_58_14:A 1.000000e-03
*END

*D_NET pgm_pp15_0_s1 1.656084e-02
*CONN
*I lt_pp15_0_s1:Z O
*I vs_27_15:A I
*I vs_24_15:A I
*I vs_20_15:A I
*CAP
1 pgm_pp15_0_s1:1 1.656084e-02
*RES
1 lt_pp15_0_s1:Z pgm_pp15_0_s1:1 1.655630e+01
2 pgm_pp15_0_s1:1 vs_27_15:A 1.000000e-03
3 pgm_pp15_0_s1:1 vs_24_15:A 1.000000e-03
4 pgm_pp15_0_s1:1 vs_20_15:A 1.000000e-03
*END

*D_NET pgm_pp15_0_s3 1.866430e-02
*CONN
*I lt_pp15_0_s3:Z O
*I vs_61_15:A I
*CAP
1 pgm_pp15_0_s3:1 1.866430e-02
*RES
1 lt_pp15_0_s3:Z pgm_pp15_0_s3:1 1.931978e+01
2 pgm_pp15_0_s3:1 vs_61_15:A 1.000000e-03
*END

*D_NET pgm_pp15_10_s0 4.766759e-03
*CONN
*I lt_pp15_10_s0:Z O
*I vs_11_15:A I
*I vs_9_15:A I
*CAP
1 pgm_pp15_10_s0:1 4.766759e-03
*RES
1 lt_pp15_10_s0:Z pgm_pp15_10_s0:1 5.409233e+00
2 pgm_pp15_10_s0:1 vs_11_15:A 1.000000e-03
3 pgm_pp15_10_s0:1 vs_9_15:A 1.000000e-03
*END

*D_NET pgm_pp15_10_s1 9.539443e-04
*CONN
*I lt_pp15_10_s1:Z O
*I vs_28_15:A I
*CAP
1 pgm_pp15_10_s1:1 9.539443e-04
*RES
1 lt_pp15_10_s1:Z pgm_pp15_10_s1:1 1.082519e+00
2 pgm_pp15_10_s1:1 vs_28_15:A 1.000000e-03
*END

*D_NET pgm_pp15_11_s2 2.032316e-03
*CONN
*I lt_pp15_11_s2:Z O
*I vs_46_15:A I
*CAP
1 pgm_pp15_11_s2:1 2.032316e-03
*RES
1 lt_pp15_11_s2:Z pgm_pp15_11_s2:1 2.306236e+00
2 pgm_pp15_11_s2:1 vs_46_15:A 1.000000e-03
*END

*D_NET pgm_pp15_11_s3 1.366629e-02
*CONN
*I lt_pp15_11_s3:Z O
*I vs_51_15:A I
*CAP
1 pgm_pp15_11_s3:1 1.366629e-02
*RES
1 lt_pp15_11_s3:Z pgm_pp15_11_s3:1 1.550826e+01
2 pgm_pp15_11_s3:1 vs_51_15:A 1.000000e-03
*END

*D_NET pgm_pp15_1_s0 1.015671e-02
*CONN
*I lt_pp15_1_s0:Z O
*I vs_8_15:A I
*CAP
1 pgm_pp15_1_s0:1 1.015671e-02
*RES
1 lt_pp15_1_s0:Z pgm_pp15_1_s0:1 9.953478e+00
2 pgm_pp15_1_s0:1 vs_8_15:A 1.000000e-03
*END

*D_NET pgm_pp15_1_s1 1.657583e-02
*CONN
*I lt_pp15_1_s1:Z O
*I vs_29_15:A I
*CAP
1 pgm_pp15_1_s1:1 1.657583e-02
*RES
1 lt_pp15_1_s1:Z pgm_pp15_1_s1:1 1.795768e+01
2 pgm_pp15_1_s1:1 vs_29_15:A 1.000000e-03
*END

*D_NET pgm_pp15_1_s2 2.521139e-03
*CONN
*I lt_pp15_1_s2:Z O
*I vs_33_15:A I
*I vs_32_15:A I
*CAP
1 pgm_pp15_1_s2:1 2.521139e-03
*RES
1 lt_pp15_1_s2:Z pgm_pp15_1_s2:1 2.860943e+00
2 pgm_pp15_1_s2:1 vs_33_15:A 1.000000e-03
3 pgm_pp15_1_s2:1 vs_32_15:A 1.000000e-03
*END

*D_NET pgm_pp15_2_s0 1.774308e-02
*CONN
*I lt_pp15_2_s0:Z O
*I vs_13_15:A I
*I vs_10_15:A I
*I vs_5_15:A I
*CAP
1 pgm_pp15_2_s0:1 1.774308e-02
*RES
1 lt_pp15_2_s0:Z pgm_pp15_2_s0:1 1.928225e+01
2 pgm_pp15_2_s0:1 vs_13_15:A 1.000000e-03
3 pgm_pp15_2_s0:1 vs_10_15:A 1.000000e-03
4 pgm_pp15_2_s0:1 vs_5_15:A 1.000000e-03
*END

*D_NET pgm_pp15_2_s3 3.960943e-03
*CONN
*I lt_pp15_2_s3:Z O
*I vs_48_15:A I
*CAP
1 pgm_pp15_2_s3:1 3.960943e-03
*RES
1 lt_pp15_2_s3:Z pgm_pp15_2_s3:1 4.494807e+00
2 pgm_pp15_2_s3:1 vs_48_15:A 1.000000e-03
*END

*D_NET pgm_pp15_3_s1 5.385934e-03
*CONN
*I lt_pp15_3_s1:Z O
*I vs_23_15:A I
*CAP
1 pgm_pp15_3_s1:1 5.385934e-03
*RES
1 lt_pp15_3_s1:Z pgm_pp15_3_s1:1 6.111861e+00
2 pgm_pp15_3_s1:1 vs_23_15:A 1.000000e-03
*END

*D_NET pgm_pp15_4_s2 1.300564e-03
*CONN
*I lt_pp15_4_s2:Z O
*I vs_36_15:A I
*CAP
1 pgm_pp15_4_s2:1 1.300564e-03
*RES
1 lt_pp15_4_s2:Z pgm_pp15_4_s2:1 1.475857e+00
2 pgm_pp15_4_s2:1 vs_36_15:A 1.000000e-03
*END

*D_NET pgm_pp15_5_s1 7.258272e-04
*CONN
*I lt_pp15_5_s1:Z O
*I vs_22_15:A I
*CAP
1 pgm_pp15_5_s1:1 7.258272e-04
*RES
1 lt_pp15_5_s1:Z pgm_pp15_5_s1:1 8.236557e-01
2 pgm_pp15_5_s1:1 vs_22_15:A 1.000000e-03
*END

*D_NET pgm_pp15_5_s2 6.805000e-03
*CONN
*I lt_pp15_5_s2:Z O
*I vs_43_15:A I
*I vs_40_15:A I
*CAP
1 pgm_pp15_5_s2:1 6.805000e-03
*RES
1 lt_pp15_5_s2:Z pgm_pp15_5_s2:1 7.722192e+00
2 pgm_pp15_5_s2:1 vs_43_15:A 1.000000e-03
3 pgm_pp15_5_s2:1 vs_40_15:A 1.000000e-03
*END

*D_NET pgm_pp15_6_s0 1.115992e-02
*CONN
*I lt_pp15_6_s0:Z O
*I vs_7_15:A I
*I vs_0_15:A I
*CAP
1 pgm_pp15_6_s0:1 1.115992e-02
*RES
1 lt_pp15_6_s0:Z pgm_pp15_6_s0:1 8.486840e+00
2 pgm_pp15_6_s0:1 vs_7_15:A 1.000000e-03
3 pgm_pp15_6_s0:1 vs_0_15:A 1.000000e-03
*END

*D_NET pgm_pp15_6_s1 9.500930e-03
*CONN
*I lt_pp15_6_s1:Z O
*I vs_30_15:A I
*CAP
1 pgm_pp15_6_s1:1 9.500930e-03
*RES
1 lt_pp15_6_s1:Z pgm_pp15_6_s1:1 1.078149e+01
2 pgm_pp15_6_s1:1 vs_30_15:A 1.000000e-03
*END

*D_NET pgm_pp15_6_s3 1.205496e-02
*CONN
*I lt_pp15_6_s3:Z O
*I vs_63_15:A I
*I vs_57_15:A I
*CAP
1 pgm_pp15_6_s3:1 1.205496e-02
*RES
1 lt_pp15_6_s3:Z pgm_pp15_6_s3:1 1.282748e+01
2 pgm_pp15_6_s3:1 vs_63_15:A 1.000000e-03
3 pgm_pp15_6_s3:1 vs_57_15:A 1.000000e-03
*END

*D_NET pgm_pp15_7_s0 1.131698e-02
*CONN
*I lt_pp15_7_s0:Z O
*I vs_1_15:A I
*CAP
1 pgm_pp15_7_s0:1 1.131698e-02
*RES
1 lt_pp15_7_s0:Z pgm_pp15_7_s0:1 1.284231e+01
2 pgm_pp15_7_s0:1 vs_1_15:A 1.000000e-03
*END

*D_NET pgm_pp15_7_s3 3.400064e-03
*CONN
*I lt_pp15_7_s3:Z O
*I vs_59_15:A I
*CAP
1 pgm_pp15_7_s3:1 3.400064e-03
*RES
1 lt_pp15_7_s3:Z pgm_pp15_7_s3:1 2.805736e+00
2 pgm_pp15_7_s3:1 vs_59_15:A 1.000000e-03
*END

*D_NET pgm_pp15_8_s3 3.824665e-03
*CONN
*I lt_pp15_8_s3:Z O
*I vs_60_15:A I
*CAP
1 pgm_pp15_8_s3:1 3.824665e-03
*RES
1 lt_pp15_8_s3:Z pgm_pp15_8_s3:1 4.340161e+00
2 pgm_pp15_8_s3:1 vs_60_15:A 1.000000e-03
*END

*D_NET pgm_pp15_9_s2 1.273012e-02
*CONN
*I lt_pp15_9_s2:Z O
*I vs_39_15:A I
*I vs_34_15:A I
*CAP
1 pgm_pp15_9_s2:1 1.273012e-02
*RES
1 lt_pp15_9_s2:Z pgm_pp15_9_s2:1 1.444591e+01
2 pgm_pp15_9_s2:1 vs_39_15:A 1.000000e-03
3 pgm_pp15_9_s2:1 vs_34_15:A 1.000000e-03
*END

*D_NET pgm_pp16_0_s2 2.224883e-03
*CONN
*I lt_pp16_0_s2:Z O
*I vs_32_16:A I
*CAP
1 pgm_pp16_0_s2:1 2.224883e-03
*RES
1 lt_pp16_0_s2:Z pgm_pp16_0_s2:1 2.524757e+00
2 pgm_pp16_0_s2:1 vs_32_16:A 1.000000e-03
*END

*D_NET pgm_pp16_10_s0 1.179412e-02
*CONN
*I lt_pp16_10_s0:Z O
*I vs_12_16:A I
*I vs_6_16:A I
*CAP
1 pgm_pp16_10_s0:1 1.179412e-02
*RES
1 lt_pp16_10_s0:Z pgm_pp16_10_s0:1 1.152362e+01
2 pgm_pp16_10_s0:1 vs_12_16:A 1.000000e-03
3 pgm_pp16_10_s0:1 vs_6_16:A 1.000000e-03
*END

*D_NET pgm_pp16_10_s2 1.515646e-02
*CONN
*I lt_pp16_10_s2:Z O
*I vs_34_16:A I
*CAP
1 pgm_pp16_10_s2:1 1.515646e-02
*RES
1 lt_pp16_10_s2:Z pgm_pp16_10_s2:1 1.719928e+01
2 pgm_pp16_10_s2:1 vs_34_16:A 1.000000e-03
*END

*D_NET pgm_pp16_11_s0 1.326180e-02
*CONN
*I lt_pp16_11_s0:Z O
*I vs_7_16:A I
*I vs_5_16:A I
*CAP
1 pgm_pp16_11_s0:1 1.326180e-02
*RES
1 lt_pp16_11_s0:Z pgm_pp16_11_s0:1 1.362418e+01
2 pgm_pp16_11_s0:1 vs_7_16:A 1.000000e-03
3 pgm_pp16_11_s0:1 vs_5_16:A 1.000000e-03
*END

*D_NET pgm_pp16_11_s3 2.775781e-03
*CONN
*I lt_pp16_11_s3:Z O
*I vs_61_16:A I
*I vs_60_16:A I
*CAP
1 pgm_pp16_11_s3:1 2.775781e-03
*RES
1 lt_pp16_11_s3:Z pgm_pp16_11_s3:1 2.153651e+00
2 pgm_pp16_11_s3:1 vs_61_16:A 1.000000e-03
3 pgm_pp16_11_s3:1 vs_60_16:A 1.000000e-03
*END

*D_NET pgm_pp16_12_s1 1.901964e-03
*CONN
*I lt_pp16_12_s1:Z O
*I vs_31_16:A I
*CAP
1 pgm_pp16_12_s1:1 1.901964e-03
*RES
1 lt_pp16_12_s1:Z pgm_pp16_12_s1:1 2.158314e+00
2 pgm_pp16_12_s1:1 vs_31_16:A 1.000000e-03
*END

*D_NET pgm_pp16_12_s2 1.466365e-02
*CONN
*I lt_pp16_12_s2:Z O
*I vs_37_16:A I
*I vs_36_16:A I
*CAP
1 pgm_pp16_12_s2:1 1.466365e-02
*RES
1 lt_pp16_12_s2:Z pgm_pp16_12_s2:1 1.535583e+01
2 pgm_pp16_12_s2:1 vs_37_16:A 1.000000e-03
3 pgm_pp16_12_s2:1 vs_36_16:A 1.000000e-03
*END

*D_NET pgm_pp16_1_s0 1.243788e-02
*CONN
*I lt_pp16_1_s0:Z O
*I vs_10_16:A I
*CAP
1 pgm_pp16_1_s0:1 1.243788e-02
*RES
1 lt_pp16_1_s0:Z pgm_pp16_1_s0:1 1.254211e+01
2 pgm_pp16_1_s0:1 vs_10_16:A 1.000000e-03
*END

*D_NET pgm_pp16_1_s1 1.032128e-02
*CONN
*I lt_pp16_1_s1:Z O
*I vs_23_16:A I
*CAP
1 pgm_pp16_1_s1:1 1.032128e-02
*RES
1 lt_pp16_1_s1:Z pgm_pp16_1_s1:1 9.708297e+00
2 pgm_pp16_1_s1:1 vs_23_16:A 1.000000e-03
*END

*D_NET pgm_pp16_1_s2 2.084845e-02
*CONN
*I lt_pp16_1_s2:Z O
*I vs_46_16:A I
*CAP
1 pgm_pp16_1_s2:1 2.084845e-02
*RES
1 lt_pp16_1_s2:Z pgm_pp16_1_s2:1 2.107842e+01
2 pgm_pp16_1_s2:1 vs_46_16:A 1.000000e-03
*END

*D_NET pgm_pp16_2_s1 8.806225e-03
*CONN
*I lt_pp16_2_s1:Z O
*I vs_24_16:A I
*CAP
1 pgm_pp16_2_s1:1 8.806225e-03
*RES
1 lt_pp16_2_s1:Z pgm_pp16_2_s1:1 8.564952e+00
2 pgm_pp16_2_s1:1 vs_24_16:A 1.000000e-03
*END

*D_NET pgm_pp16_2_s2 7.603426e-03
*CONN
*I lt_pp16_2_s2:Z O
*I vs_39_16:A I
*CAP
1 pgm_pp16_2_s2:1 7.603426e-03
*RES
1 lt_pp16_2_s2:Z pgm_pp16_2_s2:1 7.200037e+00
2 pgm_pp16_2_s2:1 vs_39_16:A 1.000000e-03
*END

*D_NET pgm_pp16_2_s3 9.829774e-03
*CONN
*I lt_pp16_2_s3:Z O
*I vs_57_16:A I
*I vs_55_16:A I
*CAP
1 pgm_pp16_2_s3:1 9.829774e-03
*RES
1 lt_pp16_2_s3:Z pgm_pp16_2_s3:1 1.115465e+01
2 pgm_pp16_2_s3:1 vs_57_16:A 1.000000e-03
3 pgm_pp16_2_s3:1 vs_55_16:A 1.000000e-03
*END

*D_NET pgm_pp16_3_s0 2.817395e-03
*CONN
*I lt_pp16_3_s0:Z O
*I vs_4_16:A I
*CAP
1 pgm_pp16_3_s0:1 2.817395e-03
*RES
1 lt_pp16_3_s0:Z pgm_pp16_3_s0:1 3.197129e+00
2 pgm_pp16_3_s0:1 vs_4_16:A 1.000000e-03
*END

*D_NET pgm_pp16_3_s2 1.414919e-02
*CONN
*I lt_pp16_3_s2:Z O
*I vs_45_16:A I
*I vs_40_16:A I
*CAP
1 pgm_pp16_3_s2:1 1.414919e-02
*RES
1 lt_pp16_3_s2:Z pgm_pp16_3_s2:1 1.605624e+01
2 pgm_pp16_3_s2:1 vs_45_16:A 1.000000e-03
3 pgm_pp16_3_s2:1 vs_40_16:A 1.000000e-03
*END

*D_NET pgm_pp16_4_s0 4.772684e-03
*CONN
*I lt_pp16_4_s0:Z O
*I vs_2_16:A I
*CAP
1 pgm_pp16_4_s0:1 4.772684e-03
*RES
1 lt_pp16_4_s0:Z pgm_pp16_4_s0:1 5.415956e+00
2 pgm_pp16_4_s0:1 vs_2_16:A 1.000000e-03
*END

*D_NET pgm_pp16_4_s2 3.703200e-03
*CONN
*I lt_pp16_4_s2:Z O
*I vs_35_16:A I
*CAP
1 pgm_pp16_4_s2:1 3.703200e-03
*RES
1 lt_pp16_4_s2:Z pgm_pp16_4_s2:1 4.202325e+00
2 pgm_pp16_4_s2:1 vs_35_16:A 1.000000e-03
*END

*D_NET pgm_pp16_5_s3 4.035007e-03
*CONN
*I lt_pp16_5_s3:Z O
*I vs_51_16:A I
*CAP
1 pgm_pp16_5_s3:1 4.035007e-03
*RES
1 lt_pp16_5_s3:Z pgm_pp16_5_s3:1 4.578853e+00
2 pgm_pp16_5_s3:1 vs_51_16:A 1.000000e-03
*END

*D_NET pgm_pp16_6_s0 6.061398e-03
*CONN
*I lt_pp16_6_s0:Z O
*I vs_11_16:A I
*CAP
1 pgm_pp16_6_s0:1 6.061398e-03
*RES
1 lt_pp16_6_s0:Z pgm_pp16_6_s0:1 6.878366e+00
2 pgm_pp16_6_s0:1 vs_11_16:A 1.000000e-03
*END

*D_NET pgm_pp16_6_s2 9.426866e-03
*CONN
*I lt_pp16_6_s2:Z O
*I vs_33_16:A I
*CAP
1 pgm_pp16_6_s2:1 9.426866e-03
*RES
1 lt_pp16_6_s2:Z pgm_pp16_6_s2:1 1.069744e+01
2 pgm_pp16_6_s2:1 vs_33_16:A 1.000000e-03
*END

*D_NET pgm_pp16_7_s0 9.175797e-03
*CONN
*I lt_pp16_7_s0:Z O
*I vs_15_16:A I
*CAP
1 pgm_pp16_7_s0:1 9.175797e-03
*RES
1 lt_pp16_7_s0:Z pgm_pp16_7_s0:1 9.704233e+00
2 pgm_pp16_7_s0:1 vs_15_16:A 1.000000e-03
*END

*D_NET pgm_pp16_7_s1 8.699130e-03
*CONN
*I lt_pp16_7_s1:Z O
*I vs_29_16:A I
*CAP
1 pgm_pp16_7_s1:1 8.699130e-03
*RES
1 lt_pp16_7_s1:Z pgm_pp16_7_s1:1 8.299443e+00
2 pgm_pp16_7_s1:1 vs_29_16:A 1.000000e-03
*END

*D_NET pgm_pp16_7_s3 1.170804e-02
*CONN
*I lt_pp16_7_s3:Z O
*I vs_48_16:A I
*CAP
1 pgm_pp16_7_s3:1 1.170804e-02
*RES
1 lt_pp16_7_s3:Z pgm_pp16_7_s3:1 1.328607e+01
2 pgm_pp16_7_s3:1 vs_48_16:A 1.000000e-03
*END

*D_NET pgm_pp16_8_s1 1.646887e-02
*CONN
*I lt_pp16_8_s1:Z O
*I vs_27_16:A I
*I vs_16_16:A I
*CAP
1 pgm_pp16_8_s1:1 1.646887e-02
*RES
1 lt_pp16_8_s1:Z pgm_pp16_8_s1:1 1.868858e+01
2 pgm_pp16_8_s1:1 vs_27_16:A 1.000000e-03
3 pgm_pp16_8_s1:1 vs_16_16:A 1.000000e-03
*END

*D_NET pgm_pp16_8_s2 2.026391e-03
*CONN
*I lt_pp16_8_s2:Z O
*I vs_42_16:A I
*I vs_41_16:A I
*CAP
1 pgm_pp16_8_s2:1 2.026391e-03
*RES
1 lt_pp16_8_s2:Z pgm_pp16_8_s2:1 2.299512e+00
2 pgm_pp16_8_s2:1 vs_42_16:A 1.000000e-03
3 pgm_pp16_8_s2:1 vs_41_16:A 1.000000e-03
*END

*D_NET pgm_pp16_9_s0 5.039315e-03
*CONN
*I lt_pp16_9_s0:Z O
*I vs_14_16:A I
*CAP
1 pgm_pp16_9_s0:1 5.039315e-03
*RES
1 lt_pp16_9_s0:Z pgm_pp16_9_s0:1 5.718524e+00
2 pgm_pp16_9_s0:1 vs_14_16:A 1.000000e-03
*END

*D_NET pgm_pp16_9_s1 6.221376e-03
*CONN
*I lt_pp16_9_s1:Z O
*I vs_22_16:A I
*CAP
1 pgm_pp16_9_s1:1 6.221376e-03
*RES
1 lt_pp16_9_s1:Z pgm_pp16_9_s1:1 7.059906e+00
2 pgm_pp16_9_s1:1 vs_22_16:A 1.000000e-03
*END

*D_NET pgm_pp17_0_s1 1.099634e-02
*CONN
*I lt_pp17_0_s1:Z O
*I vs_23_17:A I
*CAP
1 pgm_pp17_0_s1:1 1.099634e-02
*RES
1 lt_pp17_0_s1:Z pgm_pp17_0_s1:1 1.017386e+01
2 pgm_pp17_0_s1:1 vs_23_17:A 1.000000e-03
*END

*D_NET pgm_pp17_0_s2 1.166629e-02
*CONN
*I lt_pp17_0_s2:Z O
*I vs_39_17:A I
*CAP
1 pgm_pp17_0_s2:1 1.166629e-02
*RES
1 lt_pp17_0_s2:Z pgm_pp17_0_s2:1 1.123458e+01
2 pgm_pp17_0_s2:1 vs_39_17:A 1.000000e-03
*END

*D_NET pgm_pp17_10_s2 1.816049e-02
*CONN
*I lt_pp17_10_s2:Z O
*I vs_45_17:A I
*I vs_32_17:A I
*CAP
1 pgm_pp17_10_s2:1 1.816049e-02
*RES
1 lt_pp17_10_s2:Z pgm_pp17_10_s2:1 2.060820e+01
2 pgm_pp17_10_s2:1 vs_45_17:A 1.000000e-03
3 pgm_pp17_10_s2:1 vs_32_17:A 1.000000e-03
*END

*D_NET pgm_pp17_11_s0 1.131698e-02
*CONN
*I lt_pp17_11_s0:Z O
*I vs_9_17:A I
*I vs_6_17:A I
*CAP
1 pgm_pp17_11_s0:1 1.131698e-02
*RES
1 lt_pp17_11_s0:Z pgm_pp17_11_s0:1 1.284231e+01
2 pgm_pp17_11_s0:1 vs_9_17:A 1.000000e-03
3 pgm_pp17_11_s0:1 vs_6_17:A 1.000000e-03
*END

*D_NET pgm_pp17_11_s1 1.537763e-02
*CONN
*I lt_pp17_11_s1:Z O
*I vs_18_17:A I
*CAP
1 pgm_pp17_11_s1:1 1.537763e-02
*RES
1 lt_pp17_11_s1:Z pgm_pp17_11_s1:1 1.616604e+01
2 pgm_pp17_11_s1:1 vs_18_17:A 1.000000e-03
*END

*D_NET pgm_pp17_11_s2 6.916555e-03
*CONN
*I lt_pp17_11_s2:Z O
*I vs_41_17:A I
*CAP
1 pgm_pp17_11_s2:1 6.916555e-03
*RES
1 lt_pp17_11_s2:Z pgm_pp17_11_s2:1 6.564567e+00
2 pgm_pp17_11_s2:1 vs_41_17:A 1.000000e-03
*END

*D_NET pgm_pp17_12_s0 2.254508e-03
*CONN
*I lt_pp17_12_s0:Z O
*I vs_14_17:A I
*CAP
1 pgm_pp17_12_s0:1 2.254508e-03
*RES
1 lt_pp17_12_s0:Z pgm_pp17_12_s0:1 2.558375e+00
2 pgm_pp17_12_s0:1 vs_14_17:A 1.000000e-03
*END

*D_NET pgm_pp17_1_s2 1.896038e-02
*CONN
*I lt_pp17_1_s2:Z O
*I vs_47_17:A I
*CAP
1 pgm_pp17_1_s2:1 1.896038e-02
*RES
1 lt_pp17_1_s2:Z pgm_pp17_1_s2:1 2.151590e+01
2 pgm_pp17_1_s2:1 vs_47_17:A 1.000000e-03
*END

*D_NET pgm_pp17_1_s3 1.362778e-03
*CONN
*I lt_pp17_1_s3:Z O
*I vs_49_17:A I
*CAP
1 pgm_pp17_1_s3:1 1.362778e-03
*RES
1 lt_pp17_1_s3:Z pgm_pp17_1_s3:1 1.546456e+00
2 pgm_pp17_1_s3:1 vs_49_17:A 1.000000e-03
*END

*D_NET pgm_pp17_2_s2 8.837316e-03
*CONN
*I lt_pp17_2_s2:Z O
*I vs_40_17:A I
*I vs_34_17:A I
*CAP
1 pgm_pp17_2_s2:1 8.837316e-03
*RES
1 lt_pp17_2_s2:Z pgm_pp17_2_s2:1 1.002843e+01
2 pgm_pp17_2_s2:1 vs_40_17:A 1.000000e-03
3 pgm_pp17_2_s2:1 vs_34_17:A 1.000000e-03
*END

*D_NET pgm_pp17_2_s3 3.148621e-03
*CONN
*I lt_pp17_2_s3:Z O
*I vs_52_17:A I
*CAP
1 pgm_pp17_2_s3:1 3.148621e-03
*RES
1 lt_pp17_2_s3:Z pgm_pp17_2_s3:1 2.432763e+00
2 pgm_pp17_2_s3:1 vs_52_17:A 1.000000e-03
*END

*D_NET pgm_pp17_3_s1 3.646774e-03
*CONN
*I lt_pp17_3_s1:Z O
*I vs_21_17:A I
*CAP
1 pgm_pp17_3_s1:1 3.646774e-03
*RES
1 lt_pp17_3_s1:Z pgm_pp17_3_s1:1 3.142038e+00
2 pgm_pp17_3_s1:1 vs_21_17:A 1.000000e-03
*END

*D_NET pgm_pp17_3_s2 1.057930e-02
*CONN
*I lt_pp17_3_s2:Z O
*I vs_43_17:A I
*CAP
1 pgm_pp17_3_s2:1 1.057930e-02
*RES
1 lt_pp17_3_s2:Z pgm_pp17_3_s2:1 1.200520e+01
2 pgm_pp17_3_s2:1 vs_43_17:A 1.000000e-03
*END

*D_NET pgm_pp17_4_s0 7.673030e-03
*CONN
*I lt_pp17_4_s0:Z O
*I vs_10_17:A I
*I vs_8_17:A I
*CAP
1 pgm_pp17_4_s0:1 7.673030e-03
*RES
1 lt_pp17_4_s0:Z pgm_pp17_4_s0:1 8.707217e+00
2 pgm_pp17_4_s0:1 vs_10_17:A 1.000000e-03
3 pgm_pp17_4_s0:1 vs_8_17:A 1.000000e-03
*END

*D_NET pgm_pp17_4_s1 4.923977e-03
*CONN
*I lt_pp17_4_s1:Z O
*I vs_24_17:A I
*CAP
1 pgm_pp17_4_s1:1 4.923977e-03
*RES
1 lt_pp17_4_s1:Z pgm_pp17_4_s1:1 3.571009e+00
2 pgm_pp17_4_s1:1 vs_24_17:A 1.000000e-03
*END

*D_NET pgm_pp17_7_s1 9.966052e-03
*CONN
*I lt_pp17_7_s1:Z O
*I vs_31_17:A I
*CAP
1 pgm_pp17_7_s1:1 9.966052e-03
*RES
1 lt_pp17_7_s1:Z pgm_pp17_7_s1:1 1.130930e+01
2 pgm_pp17_7_s1:1 vs_31_17:A 1.000000e-03
*END

*D_NET pgm_pp17_8_s1 6.708427e-03
*CONN
*I lt_pp17_8_s1:Z O
*I vs_30_17:A I
*CAP
1 pgm_pp17_8_s1:1 6.708427e-03
*RES
1 lt_pp17_8_s1:Z pgm_pp17_8_s1:1 7.048285e+00
2 pgm_pp17_8_s1:1 vs_30_17:A 1.000000e-03
*END

*D_NET pgm_pp17_8_s3 2.423374e-03
*CONN
*I lt_pp17_8_s3:Z O
*I vs_57_17:A I
*I vs_56_17:A I
*CAP
1 pgm_pp17_8_s3:1 2.423374e-03
*RES
1 lt_pp17_8_s3:Z pgm_pp17_8_s3:1 2.750001e+00
2 pgm_pp17_8_s3:1 vs_57_17:A 1.000000e-03
3 pgm_pp17_8_s3:1 vs_56_17:A 1.000000e-03
*END

*D_NET pgm_pp17_9_s1 4.565305e-03
*CONN
*I lt_pp17_9_s1:Z O
*I vs_25_17:A I
*CAP
1 pgm_pp17_9_s1:1 4.565305e-03
*RES
1 lt_pp17_9_s1:Z pgm_pp17_9_s1:1 5.180626e+00
2 pgm_pp17_9_s1:1 vs_25_17:A 1.000000e-03
*END

*D_NET pgm_pp17_9_s3 1.402772e-02
*CONN
*I lt_pp17_9_s3:Z O
*I vs_48_17:A I
*CAP
1 pgm_pp17_9_s3:1 1.402772e-02
*RES
1 lt_pp17_9_s3:Z pgm_pp17_9_s3:1 1.591841e+01
2 pgm_pp17_9_s3:1 vs_48_17:A 1.000000e-03
*END

*D_NET pgm_pp18_0_s0 7.409088e-03
*CONN
*I lt_pp18_0_s0:Z O
*I vs_4_18:A I
*CAP
1 pgm_pp18_0_s0:1 7.409088e-03
*RES
1 lt_pp18_0_s0:Z pgm_pp18_0_s0:1 6.403588e+00
2 pgm_pp18_0_s0:1 vs_4_18:A 1.000000e-03
*END

*D_NET pgm_pp18_0_s2 1.110473e-02
*CONN
*I lt_pp18_0_s2:Z O
*I vs_39_18:A I
*I vs_37_18:A I
*CAP
1 pgm_pp18_0_s2:1 1.110473e-02
*RES
1 lt_pp18_0_s2:Z pgm_pp18_0_s2:1 1.102927e+01
2 pgm_pp18_0_s2:1 vs_39_18:A 1.000000e-03
3 pgm_pp18_0_s2:1 vs_37_18:A 1.000000e-03
*END

*D_NET pgm_pp18_0_s3 6.304328e-03
*CONN
*I lt_pp18_0_s3:Z O
*I vs_51_18:A I
*I vs_49_18:A I
*CAP
1 pgm_pp18_0_s3:1 6.304328e-03
*RES
1 lt_pp18_0_s3:Z pgm_pp18_0_s3:1 7.154038e+00
2 pgm_pp18_0_s3:1 vs_51_18:A 1.000000e-03
3 pgm_pp18_0_s3:1 vs_49_18:A 1.000000e-03
*END

*D_NET pgm_pp18_11_s1 1.655479e-02
*CONN
*I lt_pp18_11_s1:Z O
*I vs_29_18:A I
*I vs_21_18:A I
*I vs_18_18:A I
*CAP
1 pgm_pp18_11_s1:1 1.655479e-02
*RES
1 lt_pp18_11_s1:Z pgm_pp18_11_s1:1 1.878607e+01
2 pgm_pp18_11_s1:1 vs_29_18:A 1.000000e-03
3 pgm_pp18_11_s1:1 vs_21_18:A 1.000000e-03
4 pgm_pp18_11_s1:1 vs_18_18:A 1.000000e-03
*END

*D_NET pgm_pp18_11_s2 1.795461e-02
*CONN
*I lt_pp18_11_s2:Z O
*I vs_41_18:A I
*I vs_33_18:A I
*CAP
1 pgm_pp18_11_s2:1 1.795461e-02
*RES
1 lt_pp18_11_s2:Z pgm_pp18_11_s2:1 1.894638e+01
2 pgm_pp18_11_s2:1 vs_41_18:A 1.000000e-03
3 pgm_pp18_11_s2:1 vs_33_18:A 1.000000e-03
*END

*D_NET pgm_pp18_11_s3 1.357149e-02
*CONN
*I lt_pp18_11_s3:Z O
*I vs_52_18:A I
*CAP
1 pgm_pp18_11_s3:1 1.357149e-02
*RES
1 lt_pp18_11_s3:Z pgm_pp18_11_s3:1 1.540068e+01
2 pgm_pp18_11_s3:1 vs_52_18:A 1.000000e-03
*END

*D_NET pgm_pp18_12_s2 1.853081e-02
*CONN
*I lt_pp18_12_s2:Z O
*I vs_46_18:A I
*I vs_34_18:A I
*CAP
1 pgm_pp18_12_s2:1 1.853081e-02
*RES
1 lt_pp18_12_s2:Z pgm_pp18_12_s2:1 2.102843e+01
2 pgm_pp18_12_s2:1 vs_46_18:A 1.000000e-03
3 pgm_pp18_12_s2:1 vs_34_18:A 1.000000e-03
*END

*D_NET pgm_pp18_12_s3 1.209027e-02
*CONN
*I lt_pp18_12_s3:Z O
*I vs_54_18:A I
*CAP
1 pgm_pp18_12_s3:1 1.209027e-02
*RES
1 lt_pp18_12_s3:Z pgm_pp18_12_s3:1 1.069534e+01
2 pgm_pp18_12_s3:1 vs_54_18:A 1.000000e-03
*END

*D_NET pgm_pp18_1_s1 5.043774e-03
*CONN
*I lt_pp18_1_s1:Z O
*I vs_20_18:A I
*CAP
1 pgm_pp18_1_s1:1 5.043774e-03
*RES
1 lt_pp18_1_s1:Z pgm_pp18_1_s1:1 4.295390e+00
2 pgm_pp18_1_s1:1 vs_20_18:A 1.000000e-03
*END

*D_NET pgm_pp18_1_s3 2.621866e-03
*CONN
*I lt_pp18_1_s3:Z O
*I vs_48_18:A I
*CAP
1 pgm_pp18_1_s3:1 2.621866e-03
*RES
1 lt_pp18_1_s3:Z pgm_pp18_1_s3:1 2.975246e+00
2 pgm_pp18_1_s3:1 vs_48_18:A 1.000000e-03
*END

*D_NET pgm_pp18_2_s1 1.721247e-02
*CONN
*I lt_pp18_2_s1:Z O
*I vs_31_18:A I
*I vs_30_18:A I
*CAP
1 pgm_pp18_2_s1:1 1.721247e-02
*RES
1 lt_pp18_2_s1:Z pgm_pp18_2_s1:1 1.953241e+01
2 pgm_pp18_2_s1:1 vs_31_18:A 1.000000e-03
3 pgm_pp18_2_s1:1 vs_30_18:A 1.000000e-03
*END

*D_NET pgm_pp18_2_s3 2.009504e-02
*CONN
*I lt_pp18_2_s3:Z O
*I vs_63_18:A I
*I vs_53_18:A I
*CAP
1 pgm_pp18_2_s3:1 2.009504e-02
*RES
1 lt_pp18_2_s3:Z pgm_pp18_2_s3:1 2.280350e+01
2 pgm_pp18_2_s3:1 vs_63_18:A 1.000000e-03
3 pgm_pp18_2_s3:1 vs_53_18:A 1.000000e-03
*END

*D_NET pgm_pp18_3_s0 8.126302e-03
*CONN
*I lt_pp18_3_s0:Z O
*I vs_9_18:A I
*I vs_8_18:A I
*CAP
1 pgm_pp18_3_s0:1 8.126302e-03
*RES
1 lt_pp18_3_s0:Z pgm_pp18_3_s0:1 9.221582e+00
2 pgm_pp18_3_s0:1 vs_9_18:A 1.000000e-03
3 pgm_pp18_3_s0:1 vs_8_18:A 1.000000e-03
*END

*D_NET pgm_pp18_4_s0 1.591593e-02
*CONN
*I lt_pp18_4_s0:Z O
*I vs_15_18:A I
*CAP
1 pgm_pp18_4_s0:1 1.591593e-02
*RES
1 lt_pp18_4_s0:Z pgm_pp18_4_s0:1 1.648893e+01
2 pgm_pp18_4_s0:1 vs_15_18:A 1.000000e-03
*END

*D_NET pgm_pp18_4_s1 1.255829e-02
*CONN
*I lt_pp18_4_s1:Z O
*I vs_26_18:A I
*I vs_17_18:A I
*CAP
1 pgm_pp18_4_s1:1 1.255829e-02
*RES
1 lt_pp18_4_s1:Z pgm_pp18_4_s1:1 1.425092e+01
2 pgm_pp18_4_s1:1 vs_26_18:A 1.000000e-03
3 pgm_pp18_4_s1:1 vs_17_18:A 1.000000e-03
*END

*D_NET pgm_pp18_4_s2 5.960671e-03
*CONN
*I lt_pp18_4_s2:Z O
*I vs_40_18:A I
*CAP
1 pgm_pp18_4_s2:1 5.960671e-03
*RES
1 lt_pp18_4_s2:Z pgm_pp18_4_s2:1 6.764062e+00
2 pgm_pp18_4_s2:1 vs_40_18:A 1.000000e-03
*END

*D_NET pgm_pp18_4_s3 5.119304e-03
*CONN
*I lt_pp18_4_s3:Z O
*I vs_56_18:A I
*CAP
1 pgm_pp18_4_s3:1 5.119304e-03
*RES
1 lt_pp18_4_s3:Z pgm_pp18_4_s3:1 5.809294e+00
2 pgm_pp18_4_s3:1 vs_56_18:A 1.000000e-03
*END

*D_NET pgm_pp18_5_s0 2.725555e-04
*CONN
*I lt_pp18_5_s0:Z O
*I vs_6_18:A I
*CAP
1 pgm_pp18_5_s0:1 2.725555e-04
*RES
1 lt_pp18_5_s0:Z pgm_pp18_5_s0:1 3.092911e-01
2 pgm_pp18_5_s0:1 vs_6_18:A 1.000000e-03
*END

*D_NET pgm_pp18_5_s3 7.637480e-03
*CONN
*I lt_pp18_5_s3:Z O
*I vs_59_18:A I
*I vs_57_18:A I
*CAP
1 pgm_pp18_5_s3:1 7.637480e-03
*RES
1 lt_pp18_5_s3:Z pgm_pp18_5_s3:1 8.666875e+00
2 pgm_pp18_5_s3:1 vs_59_18:A 1.000000e-03
3 pgm_pp18_5_s3:1 vs_57_18:A 1.000000e-03
*END

*D_NET pgm_pp18_6_s1 2.503363e-03
*CONN
*I lt_pp18_6_s1:Z O
*I vs_25_18:A I
*CAP
1 pgm_pp18_6_s1:1 2.503363e-03
*RES
1 lt_pp18_6_s1:Z pgm_pp18_6_s1:1 2.840772e+00
2 pgm_pp18_6_s1:1 vs_25_18:A 1.000000e-03
*END

*D_NET pgm_pp18_6_s3 4.671957e-03
*CONN
*I lt_pp18_6_s3:Z O
*I vs_58_18:A I
*CAP
1 pgm_pp18_6_s3:1 4.671957e-03
*RES
1 lt_pp18_6_s3:Z pgm_pp18_6_s3:1 5.301653e+00
2 pgm_pp18_6_s3:1 vs_58_18:A 1.000000e-03
*END

*D_NET pgm_pp18_7_s2 1.030807e-02
*CONN
*I lt_pp18_7_s2:Z O
*I vs_35_18:A I
*CAP
1 pgm_pp18_7_s2:1 1.030807e-02
*RES
1 lt_pp18_7_s2:Z pgm_pp18_7_s2:1 8.884846e+00
2 pgm_pp18_7_s2:1 vs_35_18:A 1.000000e-03
*END

*D_NET pgm_pp18_7_s3 3.830590e-03
*CONN
*I lt_pp18_7_s3:Z O
*I vs_55_18:A I
*CAP
1 pgm_pp18_7_s3:1 3.830590e-03
*RES
1 lt_pp18_7_s3:Z pgm_pp18_7_s3:1 4.346885e+00
2 pgm_pp18_7_s3:1 vs_55_18:A 1.000000e-03
*END

*D_NET pgm_pp18_8_s2 5.027464e-03
*CONN
*I lt_pp18_8_s2:Z O
*I vs_45_18:A I
*I vs_42_18:A I
*CAP
1 pgm_pp18_8_s2:1 5.027464e-03
*RES
1 lt_pp18_8_s2:Z pgm_pp18_8_s2:1 5.705076e+00
2 pgm_pp18_8_s2:1 vs_45_18:A 1.000000e-03
3 pgm_pp18_8_s2:1 vs_42_18:A 1.000000e-03
*END

*D_NET pgm_pp18_9_s1 1.419955e-02
*CONN
*I lt_pp18_9_s1:Z O
*I vs_16_18:A I
*CAP
1 pgm_pp18_9_s1:1 1.419955e-02
*RES
1 lt_pp18_9_s1:Z pgm_pp18_9_s1:1 1.611339e+01
2 pgm_pp18_9_s1:1 vs_16_18:A 1.000000e-03
*END

*D_NET pgm_pp18_9_s3 1.183907e-02
*CONN
*I lt_pp18_9_s3:Z O
*I vs_50_18:A I
*CAP
1 pgm_pp18_9_s3:1 1.183907e-02
*RES
1 lt_pp18_9_s3:Z pgm_pp18_9_s3:1 1.195023e+01
2 pgm_pp18_9_s3:1 vs_50_18:A 1.000000e-03
*END

*D_NET pgm_pp19_0_s0 8.420207e-03
*CONN
*I lt_pp19_0_s0:Z O
*I vs_5_19:A I
*CAP
1 pgm_pp19_0_s0:1 8.420207e-03
*RES
1 lt_pp19_0_s0:Z pgm_pp19_0_s0:1 7.838947e+00
2 pgm_pp19_0_s0:1 vs_5_19:A 1.000000e-03
*END

*D_NET pgm_pp19_0_s2 4.521478e-03
*CONN
*I lt_pp19_0_s2:Z O
*I vs_34_19:A I
*CAP
1 pgm_pp19_0_s2:1 4.521478e-03
*RES
1 lt_pp19_0_s2:Z pgm_pp19_0_s2:1 3.414739e+00
2 pgm_pp19_0_s2:1 vs_34_19:A 1.000000e-03
*END

*D_NET pgm_pp19_11_s0 1.613410e-02
*CONN
*I lt_pp19_11_s0:Z O
*I vs_1_19:A I
*CAP
1 pgm_pp19_11_s0:1 1.613410e-02
*RES
1 lt_pp19_11_s0:Z pgm_pp19_11_s0:1 1.830869e+01
2 pgm_pp19_11_s0:1 vs_1_19:A 1.000000e-03
*END

*D_NET pgm_pp19_11_s3 1.014381e-02
*CONN
*I lt_pp19_11_s3:Z O
*I vs_55_19:A I
*CAP
1 pgm_pp19_11_s3:1 1.014381e-02
*RES
1 lt_pp19_11_s3:Z pgm_pp19_11_s3:1 1.151101e+01
2 pgm_pp19_11_s3:1 vs_55_19:A 1.000000e-03
*END

*D_NET pgm_pp19_12_s0 1.709990e-02
*CONN
*I lt_pp19_12_s0:Z O
*I vs_10_19:A I
*I vs_3_19:A I
*CAP
1 pgm_pp19_12_s0:1 1.709990e-02
*RES
1 lt_pp19_12_s0:Z pgm_pp19_12_s0:1 1.940466e+01
2 pgm_pp19_12_s0:1 vs_10_19:A 1.000000e-03
3 pgm_pp19_12_s0:1 vs_3_19:A 1.000000e-03
*END

*D_NET pgm_pp19_12_s3 1.822036e-02
*CONN
*I lt_pp19_12_s3:Z O
*I vs_49_19:A I
*CAP
1 pgm_pp19_12_s3:1 1.822036e-02
*RES
1 lt_pp19_12_s3:Z pgm_pp19_12_s3:1 1.895998e+01
2 pgm_pp19_12_s3:1 vs_49_19:A 1.000000e-03
*END

*D_NET pgm_pp19_1_s1 1.353314e-02
*CONN
*I lt_pp19_1_s1:Z O
*I vs_26_19:A I
*CAP
1 pgm_pp19_1_s1:1 1.353314e-02
*RES
1 lt_pp19_1_s1:Z pgm_pp19_1_s1:1 1.349703e+01
2 pgm_pp19_1_s1:1 vs_26_19:A 1.000000e-03
*END

*D_NET pgm_pp19_2_s0 8.615124e-03
*CONN
*I lt_pp19_2_s0:Z O
*I vs_8_19:A I
*CAP
1 pgm_pp19_2_s0:1 8.615124e-03
*RES
1 lt_pp19_2_s0:Z pgm_pp19_2_s0:1 9.776289e+00
2 pgm_pp19_2_s0:1 vs_8_19:A 1.000000e-03
*END

*D_NET pgm_pp19_2_s1 1.817827e-02
*CONN
*I lt_pp19_2_s1:Z O
*I vs_28_19:A I
*I vs_16_19:A I
*CAP
1 pgm_pp19_2_s1:1 1.817827e-02
*RES
1 lt_pp19_2_s1:Z pgm_pp19_2_s1:1 2.062837e+01
2 pgm_pp19_2_s1:1 vs_28_19:A 1.000000e-03
3 pgm_pp19_2_s1:1 vs_16_19:A 1.000000e-03
*END

*D_NET pgm_pp19_2_s2 1.131909e-02
*CONN
*I lt_pp19_2_s2:Z O
*I vs_40_19:A I
*I vs_38_19:A I
*CAP
1 pgm_pp19_2_s2:1 1.131909e-02
*RES
1 lt_pp19_2_s2:Z pgm_pp19_2_s2:1 9.700350e+00
2 pgm_pp19_2_s2:1 vs_40_19:A 1.000000e-03
3 pgm_pp19_2_s2:1 vs_38_19:A 1.000000e-03
*END

*D_NET pgm_pp19_3_s1 7.889297e-03
*CONN
*I lt_pp19_3_s1:Z O
*I vs_25_19:A I
*CAP
1 pgm_pp19_3_s1:1 7.889297e-03
*RES
1 lt_pp19_3_s1:Z pgm_pp19_3_s1:1 8.952633e+00
2 pgm_pp19_3_s1:1 vs_25_19:A 1.000000e-03
*END

*D_NET pgm_pp19_3_s2 5.119304e-03
*CONN
*I lt_pp19_3_s2:Z O
*I vs_39_19:A I
*CAP
1 pgm_pp19_3_s2:1 5.119304e-03
*RES
1 lt_pp19_3_s2:Z pgm_pp19_3_s2:1 5.809294e+00
2 pgm_pp19_3_s2:1 vs_39_19:A 1.000000e-03
*END

*D_NET pgm_pp19_3_s3 1.238381e-02
*CONN
*I lt_pp19_3_s3:Z O
*I vs_60_19:A I
*CAP
1 pgm_pp19_3_s3:1 1.238381e-02
*RES
1 lt_pp19_3_s3:Z pgm_pp19_3_s3:1 1.320064e+01
2 pgm_pp19_3_s3:1 vs_60_19:A 1.000000e-03
*END

*D_NET pgm_pp19_4_s0 2.010689e-02
*CONN
*I lt_pp19_4_s0:Z O
*I vs_14_19:A I
*I vs_0_19:A I
*CAP
1 pgm_pp19_4_s0:1 2.010689e-02
*RES
1 lt_pp19_4_s0:Z pgm_pp19_4_s0:1 2.281694e+01
2 pgm_pp19_4_s0:1 vs_14_19:A 1.000000e-03
3 pgm_pp19_4_s0:1 vs_0_19:A 1.000000e-03
*END

*D_NET pgm_pp19_4_s1 2.056017e-03
*CONN
*I lt_pp19_4_s1:Z O
*I vs_20_19:A I
*CAP
1 pgm_pp19_4_s1:1 2.056017e-03
*RES
1 lt_pp19_4_s1:Z pgm_pp19_4_s1:1 2.333131e+00
2 pgm_pp19_4_s1:1 vs_20_19:A 1.000000e-03
*END

*D_NET pgm_pp19_4_s2 1.300564e-03
*CONN
*I lt_pp19_4_s2:Z O
*I vs_36_19:A I
*CAP
1 pgm_pp19_4_s2:1 1.300564e-03
*RES
1 lt_pp19_4_s2:Z pgm_pp19_4_s2:1 1.475857e+00
2 pgm_pp19_4_s2:1 vs_36_19:A 1.000000e-03
*END

*D_NET pgm_pp19_4_s3 1.350927e-03
*CONN
*I lt_pp19_4_s3:Z O
*I vs_52_19:A I
*CAP
1 pgm_pp19_4_s3:1 1.350927e-03
*RES
1 lt_pp19_4_s3:Z pgm_pp19_4_s3:1 1.533008e+00
2 pgm_pp19_4_s3:1 vs_52_19:A 1.000000e-03
*END

*D_NET pgm_pp19_5_s1 5.465923e-03
*CONN
*I lt_pp19_5_s1:Z O
*I vs_18_19:A I
*CAP
1 pgm_pp19_5_s1:1 5.465923e-03
*RES
1 lt_pp19_5_s1:Z pgm_pp19_5_s1:1 6.202632e+00
2 pgm_pp19_5_s1:1 vs_18_19:A 1.000000e-03
*END

*D_NET pgm_pp19_5_s3 1.150955e-02
*CONN
*I lt_pp19_5_s3:Z O
*I vs_63_19:A I
*CAP
1 pgm_pp19_5_s3:1 1.150955e-02
*RES
1 lt_pp19_5_s3:Z pgm_pp19_5_s3:1 1.306083e+01
2 pgm_pp19_5_s3:1 vs_63_19:A 1.000000e-03
*END

*D_NET pgm_pp19_6_s1 1.345002e-03
*CONN
*I lt_pp19_6_s1:Z O
*I vs_24_19:A I
*I vs_23_19:A I
*CAP
1 pgm_pp19_6_s1:1 1.345002e-03
*RES
1 lt_pp19_6_s1:Z pgm_pp19_6_s1:1 1.526284e+00
2 pgm_pp19_6_s1:1 vs_24_19:A 1.000000e-03
3 pgm_pp19_6_s1:1 vs_23_19:A 1.000000e-03
*END

*D_NET pgm_pp19_6_s2 1.606596e-02
*CONN
*I lt_pp19_6_s2:Z O
*I vs_46_19:A I
*I vs_43_19:A I
*I vs_35_19:A I
*CAP
1 pgm_pp19_6_s2:1 1.606596e-02
*RES
1 lt_pp19_6_s2:Z pgm_pp19_6_s2:1 1.823137e+01
2 pgm_pp19_6_s2:1 vs_46_19:A 1.000000e-03
3 pgm_pp19_6_s2:1 vs_43_19:A 1.000000e-03
4 pgm_pp19_6_s2:1 vs_35_19:A 1.000000e-03
*END

*D_NET pgm_pp19_8_s0 7.207908e-03
*CONN
*I lt_pp19_8_s0:Z O
*I vs_4_19:A I
*CAP
1 pgm_pp19_8_s0:1 7.207908e-03
*RES
1 lt_pp19_8_s0:Z pgm_pp19_8_s0:1 8.179405e+00
2 pgm_pp19_8_s0:1 vs_4_19:A 1.000000e-03
*END

*D_NET pgm_pp19_9_s2 1.447211e-02
*CONN
*I lt_pp19_9_s2:Z O
*I vs_32_19:A I
*CAP
1 pgm_pp19_9_s2:1 1.447211e-02
*RES
1 lt_pp19_9_s2:Z pgm_pp19_9_s2:1 1.642269e+01
2 pgm_pp19_9_s2:1 vs_32_19:A 1.000000e-03
*END

*D_NET pgm_pp1_0_s1 4.118569e-03
*CONN
*I lt_pp1_0_s1:Z O
*I vs_18_1:A I
*CAP
1 pgm_pp1_0_s1:1 4.118569e-03
*RES
1 lt_pp1_0_s1:Z pgm_pp1_0_s1:1 2.957526e+00
2 pgm_pp1_0_s1:1 vs_18_1:A 1.000000e-03
*END

*D_NET pgm_pp1_0_s2 3.246966e-03
*CONN
*I lt_pp1_0_s2:Z O
*I vs_33_1:A I
*CAP
1 pgm_pp1_0_s2:1 3.246966e-03
*RES
1 lt_pp1_0_s2:Z pgm_pp1_0_s2:1 3.684599e+00
2 pgm_pp1_0_s2:1 vs_33_1:A 1.000000e-03
*END

*D_NET pgm_pp1_11_s0 1.120440e-02
*CONN
*I lt_pp1_11_s0:Z O
*I vs_6_1:A I
*CAP
1 pgm_pp1_11_s0:1 1.120440e-02
*RES
1 lt_pp1_11_s0:Z pgm_pp1_11_s0:1 1.271455e+01
2 pgm_pp1_11_s0:1 vs_6_1:A 1.000000e-03
*END

*D_NET pgm_pp1_11_s1 1.981953e-03
*CONN
*I lt_pp1_11_s1:Z O
*I vs_30_1:A I
*CAP
1 pgm_pp1_11_s1:1 1.981953e-03
*RES
1 lt_pp1_11_s1:Z pgm_pp1_11_s1:1 2.249084e+00
2 pgm_pp1_11_s1:1 vs_30_1:A 1.000000e-03
*END

*D_NET pgm_pp1_12_s2 1.851600e-03
*CONN
*I lt_pp1_12_s2:Z O
*I vs_46_1:A I
*CAP
1 pgm_pp1_12_s2:1 1.851600e-03
*RES
1 lt_pp1_12_s2:Z pgm_pp1_12_s2:1 2.101163e+00
2 pgm_pp1_12_s2:1 vs_46_1:A 1.000000e-03
*END

*D_NET pgm_pp1_12_s3 8.812865e-03
*CONN
*I lt_pp1_12_s3:Z O
*I vs_57_1:A I
*CAP
1 pgm_pp1_12_s3:1 8.812865e-03
*RES
1 lt_pp1_12_s3:Z pgm_pp1_12_s3:1 8.553707e+00
2 pgm_pp1_12_s3:1 vs_57_1:A 1.000000e-03
*END

*D_NET pgm_pp1_1_s1 1.362778e-03
*CONN
*I lt_pp1_1_s1:Z O
*I vs_17_1:A I
*CAP
1 pgm_pp1_1_s1:1 1.362778e-03
*RES
1 lt_pp1_1_s1:Z pgm_pp1_1_s1:1 1.546456e+00
2 pgm_pp1_1_s1:1 vs_17_1:A 1.000000e-03
*END

*D_NET pgm_pp1_1_s3 1.349967e-02
*CONN
*I lt_pp1_1_s3:Z O
*I vs_58_1:A I
*CAP
1 pgm_pp1_1_s3:1 1.349967e-02
*RES
1 lt_pp1_1_s3:Z pgm_pp1_1_s3:1 1.317109e+01
2 pgm_pp1_1_s3:1 vs_58_1:A 1.000000e-03
*END

*D_NET pgm_pp1_2_s0 1.317096e-02
*CONN
*I lt_pp1_2_s0:Z O
*I vs_12_1:A I
*CAP
1 pgm_pp1_2_s0:1 1.317096e-02
*RES
1 lt_pp1_2_s0:Z pgm_pp1_2_s0:1 1.380594e+01
2 pgm_pp1_2_s0:1 vs_12_1:A 1.000000e-03
*END

*D_NET pgm_pp1_2_s2 4.269049e-03
*CONN
*I lt_pp1_2_s2:Z O
*I vs_32_1:A I
*CAP
1 pgm_pp1_2_s2:1 4.269049e-03
*RES
1 lt_pp1_2_s2:Z pgm_pp1_2_s2:1 4.844440e+00
2 pgm_pp1_2_s2:1 vs_32_1:A 1.000000e-03
*END

*D_NET pgm_pp1_2_s3 1.442767e-03
*CONN
*I lt_pp1_2_s3:Z O
*I vs_50_1:A I
*CAP
1 pgm_pp1_2_s3:1 1.442767e-03
*RES
1 lt_pp1_2_s3:Z pgm_pp1_2_s3:1 1.637226e+00
2 pgm_pp1_2_s3:1 vs_50_1:A 1.000000e-03
*END

*D_NET pgm_pp1_3_s0 1.220575e-03
*CONN
*I lt_pp1_3_s0:Z O
*I vs_3_1:A I
*CAP
1 pgm_pp1_3_s0:1 1.220575e-03
*RES
1 lt_pp1_3_s0:Z pgm_pp1_3_s0:1 1.385086e+00
2 pgm_pp1_3_s0:1 vs_3_1:A 1.000000e-03
*END

*D_NET pgm_pp1_3_s2 1.673846e-03
*CONN
*I lt_pp1_3_s2:Z O
*I vs_35_1:A I
*CAP
1 pgm_pp1_3_s2:1 1.673846e-03
*RES
1 lt_pp1_3_s2:Z pgm_pp1_3_s2:1 1.899451e+00
2 pgm_pp1_3_s2:1 vs_35_1:A 1.000000e-03
*END

*D_NET pgm_pp1_3_s3 3.996493e-03
*CONN
*I lt_pp1_3_s3:Z O
*I vs_49_1:A I
*CAP
1 pgm_pp1_3_s3:1 3.996493e-03
*RES
1 lt_pp1_3_s3:Z pgm_pp1_3_s3:1 4.535149e+00
2 pgm_pp1_3_s3:1 vs_49_1:A 1.000000e-03
*END

*D_NET pgm_pp1_4_s1 1.005197e-02
*CONN
*I lt_pp1_4_s1:Z O
*I vs_26_1:A I
*I vs_23_1:A I
*I vs_20_1:A I
*CAP
1 pgm_pp1_4_s1:1 1.005197e-02
*RES
1 lt_pp1_4_s1:Z pgm_pp1_4_s1:1 1.140679e+01
2 pgm_pp1_4_s1:1 vs_26_1:A 1.000000e-03
3 pgm_pp1_4_s1:1 vs_23_1:A 1.000000e-03
4 pgm_pp1_4_s1:1 vs_20_1:A 1.000000e-03
*END

*D_NET pgm_pp1_4_s3 1.380257e-02
*CONN
*I lt_pp1_4_s3:Z O
*I vs_63_1:A I
*CAP
1 pgm_pp1_4_s3:1 1.380257e-02
*RES
1 lt_pp1_4_s3:Z pgm_pp1_4_s3:1 1.566291e+01
2 pgm_pp1_4_s3:1 vs_63_1:A 1.000000e-03
*END

*D_NET pgm_pp1_5_s0 6.011034e-03
*CONN
*I lt_pp1_5_s0:Z O
*I vs_8_1:A I
*I vs_4_1:A I
*CAP
1 pgm_pp1_5_s0:1 6.011034e-03
*RES
1 lt_pp1_5_s0:Z pgm_pp1_5_s0:1 6.821214e+00
2 pgm_pp1_5_s0:1 vs_8_1:A 1.000000e-03
3 pgm_pp1_5_s0:1 vs_4_1:A 1.000000e-03
*END

*D_NET pgm_pp1_5_s1 1.890113e-03
*CONN
*I lt_pp1_5_s1:Z O
*I vs_22_1:A I
*CAP
1 pgm_pp1_5_s1:1 1.890113e-03
*RES
1 lt_pp1_5_s1:Z pgm_pp1_5_s1:1 2.144867e+00
2 pgm_pp1_5_s1:1 vs_22_1:A 1.000000e-03
*END

*D_NET pgm_pp1_6_s0 1.038867e-02
*CONN
*I lt_pp1_6_s0:Z O
*I vs_2_1:A I
*I vs_1_1:A I
*CAP
1 pgm_pp1_6_s0:1 1.038867e-02
*RES
1 lt_pp1_6_s0:Z pgm_pp1_6_s0:1 1.050467e+01
2 pgm_pp1_6_s0:1 vs_2_1:A 1.000000e-03
3 pgm_pp1_6_s0:1 vs_1_1:A 1.000000e-03
*END

*D_NET pgm_pp1_6_s3 8.471456e-03
*CONN
*I lt_pp1_6_s3:Z O
*I vs_60_1:A I
*CAP
1 pgm_pp1_6_s3:1 8.471456e-03
*RES
1 lt_pp1_6_s3:Z pgm_pp1_6_s3:1 8.185062e+00
2 pgm_pp1_6_s3:1 vs_60_1:A 1.000000e-03
*END

*D_NET pgm_pp1_7_s0 2.559652e-03
*CONN
*I lt_pp1_7_s0:Z O
*I vs_10_1:A I
*CAP
1 pgm_pp1_7_s0:1 2.559652e-03
*RES
1 lt_pp1_7_s0:Z pgm_pp1_7_s0:1 2.904647e+00
2 pgm_pp1_7_s0:1 vs_10_1:A 1.000000e-03
*END

*D_NET pgm_pp1_7_s2 2.752218e-03
*CONN
*I lt_pp1_7_s2:Z O
*I vs_42_1:A I
*CAP
1 pgm_pp1_7_s2:1 2.752218e-03
*RES
1 lt_pp1_7_s2:Z pgm_pp1_7_s2:1 3.123168e+00
2 pgm_pp1_7_s2:1 vs_42_1:A 1.000000e-03
*END

*D_NET pgm_pp1_8_s2 5.163742e-03
*CONN
*I lt_pp1_8_s2:Z O
*I vs_45_1:A I
*CAP
1 pgm_pp1_8_s2:1 5.163742e-03
*RES
1 lt_pp1_8_s2:Z pgm_pp1_8_s2:1 5.859722e+00
2 pgm_pp1_8_s2:1 vs_45_1:A 1.000000e-03
*END

*D_NET pgm_pp1_9_s0 1.506758e-02
*CONN
*I lt_pp1_9_s0:Z O
*I vs_0_1:A I
*CAP
1 pgm_pp1_9_s0:1 1.506758e-02
*RES
1 lt_pp1_9_s0:Z pgm_pp1_9_s0:1 1.709842e+01
2 pgm_pp1_9_s0:1 vs_0_1:A 1.000000e-03
*END

*D_NET pgm_pp1_9_s2 2.006246e-02
*CONN
*I lt_pp1_9_s2:Z O
*I vs_47_1:A I
*I vs_41_1:A I
*I vs_34_1:A I
*CAP
1 pgm_pp1_9_s2:1 2.006246e-02
*RES
1 lt_pp1_9_s2:Z pgm_pp1_9_s2:1 2.276652e+01
2 pgm_pp1_9_s2:1 vs_47_1:A 1.000000e-03
3 pgm_pp1_9_s2:1 vs_41_1:A 1.000000e-03
4 pgm_pp1_9_s2:1 vs_34_1:A 1.000000e-03
*END

*D_NET pgm_pp1_9_s3 1.354195e-03
*CONN
*I lt_pp1_9_s3:Z O
*I vs_59_1:A I
*CAP
1 pgm_pp1_9_s3:1 1.354195e-03
*RES
1 lt_pp1_9_s3:Z pgm_pp1_9_s3:1 6.844402e-01
2 pgm_pp1_9_s3:1 vs_59_1:A 1.000000e-03
*END

*D_NET pgm_pp20_0_s1 1.585371e-02
*CONN
*I lt_pp20_0_s1:Z O
*I vs_27_20:A I
*CAP
1 pgm_pp20_0_s1:1 1.585371e-02
*RES
1 lt_pp20_0_s1:Z pgm_pp20_0_s1:1 1.641834e+01
2 pgm_pp20_0_s1:1 vs_27_20:A 1.000000e-03
*END

*D_NET pgm_pp20_0_s2 1.506479e-02
*CONN
*I lt_pp20_0_s2:Z O
*I vs_42_20:A I
*CAP
1 pgm_pp20_0_s2:1 1.506479e-02
*RES
1 lt_pp20_0_s2:Z pgm_pp20_0_s2:1 1.523512e+01
2 pgm_pp20_0_s2:1 vs_42_20:A 1.000000e-03
*END

*D_NET pgm_pp20_0_s3 1.893668e-02
*CONN
*I lt_pp20_0_s3:Z O
*I vs_61_20:A I
*I vs_59_20:A I
*I vs_55_20:A I
*CAP
1 pgm_pp20_0_s3:1 1.893668e-02
*RES
1 lt_pp20_0_s3:Z pgm_pp20_0_s3:1 2.148901e+01
2 pgm_pp20_0_s3:1 vs_61_20:A 1.000000e-03
3 pgm_pp20_0_s3:1 vs_59_20:A 1.000000e-03
4 pgm_pp20_0_s3:1 vs_55_20:A 1.000000e-03
*END

*D_NET pgm_pp20_10_s0 4.988951e-03
*CONN
*I lt_pp20_10_s0:Z O
*I vs_15_20:A I
*CAP
1 pgm_pp20_10_s0:1 4.988951e-03
*RES
1 lt_pp20_10_s0:Z pgm_pp20_10_s0:1 5.661372e+00
2 pgm_pp20_10_s0:1 vs_15_20:A 1.000000e-03
*END

*D_NET pgm_pp20_11_s0 2.082680e-03
*CONN
*I lt_pp20_11_s0:Z O
*I vs_14_20:A I
*CAP
1 pgm_pp20_11_s0:1 2.082680e-03
*RES
1 lt_pp20_11_s0:Z pgm_pp20_11_s0:1 2.363388e+00
2 pgm_pp20_11_s0:1 vs_14_20:A 1.000000e-03
*END

*D_NET pgm_pp20_11_s3 5.277511e-03
*CONN
*I lt_pp20_11_s3:Z O
*I vs_58_20:A I
*CAP
1 pgm_pp20_11_s3:1 5.277511e-03
*RES
1 lt_pp20_11_s3:Z pgm_pp20_11_s3:1 5.424507e+00
2 pgm_pp20_11_s3:1 vs_58_20:A 1.000000e-03
*END

*D_NET pgm_pp20_12_s2 3.146239e-03
*CONN
*I lt_pp20_12_s2:Z O
*I vs_45_20:A I
*CAP
1 pgm_pp20_12_s2:1 3.146239e-03
*RES
1 lt_pp20_12_s2:Z pgm_pp20_12_s2:1 3.570295e+00
2 pgm_pp20_12_s2:1 vs_45_20:A 1.000000e-03
*END

*D_NET pgm_pp20_12_s3 1.696127e-02
*CONN
*I lt_pp20_12_s3:Z O
*I vs_50_20:A I
*CAP
1 pgm_pp20_12_s3:1 1.696127e-02
*RES
1 lt_pp20_12_s3:Z pgm_pp20_12_s3:1 1.753119e+01
2 pgm_pp20_12_s3:1 vs_50_20:A 1.000000e-03
*END

*D_NET pgm_pp20_1_s1 1.533421e-02
*CONN
*I lt_pp20_1_s1:Z O
*I vs_28_20:A I
*CAP
1 pgm_pp20_1_s1:1 1.533421e-02
*RES
1 lt_pp20_1_s1:Z pgm_pp20_1_s1:1 1.740099e+01
2 pgm_pp20_1_s1:1 vs_28_20:A 1.000000e-03
*END

*D_NET pgm_pp20_1_s2 8.748440e-03
*CONN
*I lt_pp20_1_s2:Z O
*I vs_38_20:A I
*I vs_36_20:A I
*CAP
1 pgm_pp20_1_s2:1 8.748440e-03
*RES
1 lt_pp20_1_s2:Z pgm_pp20_1_s2:1 9.927573e+00
2 pgm_pp20_1_s2:1 vs_38_20:A 1.000000e-03
3 pgm_pp20_1_s2:1 vs_36_20:A 1.000000e-03
*END

*D_NET pgm_pp20_1_s3 1.586736e-02
*CONN
*I lt_pp20_1_s3:Z O
*I vs_56_20:A I
*I vs_48_20:A I
*CAP
1 pgm_pp20_1_s3:1 1.586736e-02
*RES
1 lt_pp20_1_s3:Z pgm_pp20_1_s3:1 1.414176e+01
2 pgm_pp20_1_s3:1 vs_56_20:A 1.000000e-03
3 pgm_pp20_1_s3:1 vs_48_20:A 1.000000e-03
*END

*D_NET pgm_pp20_2_s0 1.515053e-02
*CONN
*I lt_pp20_2_s0:Z O
*I vs_12_20:A I
*I vs_8_20:A I
*I vs_6_20:A I
*I vs_5_20:A I
*CAP
1 pgm_pp20_2_s0:1 1.515053e-02
*RES
1 lt_pp20_2_s0:Z pgm_pp20_2_s0:1 1.719255e+01
2 pgm_pp20_2_s0:1 vs_12_20:A 1.000000e-03
3 pgm_pp20_2_s0:1 vs_8_20:A 1.000000e-03
4 pgm_pp20_2_s0:1 vs_6_20:A 1.000000e-03
5 pgm_pp20_2_s0:1 vs_5_20:A 1.000000e-03
*END

*D_NET pgm_pp20_2_s1 1.825233e-02
*CONN
*I lt_pp20_2_s1:Z O
*I vs_30_20:A I
*I vs_18_20:A I
*CAP
1 pgm_pp20_2_s1:1 1.825233e-02
*RES
1 lt_pp20_2_s1:Z pgm_pp20_2_s1:1 2.071242e+01
2 pgm_pp20_2_s1:1 vs_30_20:A 1.000000e-03
3 pgm_pp20_2_s1:1 vs_18_20:A 1.000000e-03
*END

*D_NET pgm_pp20_2_s2 1.680364e-02
*CONN
*I lt_pp20_2_s2:Z O
*I vs_47_20:A I
*CAP
1 pgm_pp20_2_s2:1 1.680364e-02
*RES
1 lt_pp20_2_s2:Z pgm_pp20_2_s2:1 1.906847e+01
2 pgm_pp20_2_s2:1 vs_47_20:A 1.000000e-03
*END

*D_NET pgm_pp20_3_s1 6.258423e-03
*CONN
*I lt_pp20_3_s1:Z O
*I vs_16_20:A I
*CAP
1 pgm_pp20_3_s1:1 6.258423e-03
*RES
1 lt_pp20_3_s1:Z pgm_pp20_3_s1:1 5.673753e+00
2 pgm_pp20_3_s1:1 vs_16_20:A 1.000000e-03
*END

*D_NET pgm_pp20_4_s1 1.690140e-02
*CONN
*I lt_pp20_4_s1:Z O
*I vs_31_20:A I
*I vs_19_20:A I
*CAP
1 pgm_pp20_4_s1:1 1.690140e-02
*RES
1 lt_pp20_4_s1:Z pgm_pp20_4_s1:1 1.917941e+01
2 pgm_pp20_4_s1:1 vs_31_20:A 1.000000e-03
3 pgm_pp20_4_s1:1 vs_19_20:A 1.000000e-03
*END

*D_NET pgm_pp20_4_s2 1.250200e-02
*CONN
*I lt_pp20_4_s2:Z O
*I vs_46_20:A I
*CAP
1 pgm_pp20_4_s2:1 1.250200e-02
*RES
1 lt_pp20_4_s2:Z pgm_pp20_4_s2:1 1.418705e+01
2 pgm_pp20_4_s2:1 vs_46_20:A 1.000000e-03
*END

*D_NET pgm_pp20_4_s3 1.346187e-02
*CONN
*I lt_pp20_4_s3:Z O
*I vs_62_20:A I
*I vs_54_20:A I
*CAP
1 pgm_pp20_4_s3:1 1.346187e-02
*RES
1 lt_pp20_4_s3:Z pgm_pp20_4_s3:1 1.527629e+01
2 pgm_pp20_4_s3:1 vs_62_20:A 1.000000e-03
3 pgm_pp20_4_s3:1 vs_54_20:A 1.000000e-03
*END

*D_NET pgm_pp20_5_s1 1.884188e-03
*CONN
*I lt_pp20_5_s1:Z O
*I vs_23_20:A I
*CAP
1 pgm_pp20_5_s1:1 1.884188e-03
*RES
1 lt_pp20_5_s1:Z pgm_pp20_5_s1:1 2.138143e+00
2 pgm_pp20_5_s1:1 vs_23_20:A 1.000000e-03
*END

*D_NET pgm_pp20_8_s1 5.670576e-03
*CONN
*I lt_pp20_8_s1:Z O
*I vs_22_20:A I
*CAP
1 pgm_pp20_8_s1:1 5.670576e-03
*RES
1 lt_pp20_8_s1:Z pgm_pp20_8_s1:1 4.806355e+00
2 pgm_pp20_8_s1:1 vs_22_20:A 1.000000e-03
*END

*D_NET pgm_pp20_8_s2 2.373011e-03
*CONN
*I lt_pp20_8_s2:Z O
*I vs_43_20:A I
*CAP
1 pgm_pp20_8_s2:1 2.373011e-03
*RES
1 lt_pp20_8_s2:Z pgm_pp20_8_s2:1 2.692850e+00
2 pgm_pp20_8_s2:1 vs_43_20:A 1.000000e-03
*END

*D_NET pgm_pp20_9_s0 3.098838e-03
*CONN
*I lt_pp20_9_s0:Z O
*I vs_13_20:A I
*CAP
1 pgm_pp20_9_s0:1 3.098838e-03
*RES
1 lt_pp20_9_s0:Z pgm_pp20_9_s0:1 3.516506e+00
2 pgm_pp20_9_s0:1 vs_13_20:A 1.000000e-03
*END

*D_NET pgm_pp20_9_s2 1.183246e-02
*CONN
*I lt_pp20_9_s2:Z O
*I vs_34_20:A I
*CAP
1 pgm_pp20_9_s2:1 1.183246e-02
*RES
1 lt_pp20_9_s2:Z pgm_pp20_9_s2:1 1.342727e+01
2 pgm_pp20_9_s2:1 vs_34_20:A 1.000000e-03
*END

*D_NET pgm_pp21_0_s0 1.869375e-02
*CONN
*I lt_pp21_0_s0:Z O
*I vs_15_21:A I
*I vs_11_21:A I
*I vs_9_21:A I
*I vs_8_21:A I
*I vs_1_21:A I
*CAP
1 pgm_pp21_0_s0:1 1.869375e-02
*RES
1 lt_pp21_0_s0:Z pgm_pp21_0_s0:1 2.121334e+01
2 pgm_pp21_0_s0:1 vs_15_21:A 1.000000e-03
3 pgm_pp21_0_s0:1 vs_11_21:A 1.000000e-03
4 pgm_pp21_0_s0:1 vs_9_21:A 1.000000e-03
5 pgm_pp21_0_s0:1 vs_8_21:A 1.000000e-03
6 pgm_pp21_0_s0:1 vs_1_21:A 1.000000e-03
*END

*D_NET pgm_pp21_0_s1 2.141754e-02
*CONN
*I lt_pp21_0_s1:Z O
*I vs_30_21:A I
*I vs_28_21:A I
*I vs_23_21:A I
*I vs_22_21:A I
*I vs_21_21:A I
*I vs_20_21:A I
*I vs_19_21:A I
*I vs_16_21:A I
*CAP
1 pgm_pp21_0_s1:1 2.141754e-02
*RES
1 lt_pp21_0_s1:Z pgm_pp21_0_s1:1 2.373992e+01
2 pgm_pp21_0_s1:1 vs_30_21:A 1.000000e-03
3 pgm_pp21_0_s1:1 vs_28_21:A 1.000000e-03
4 pgm_pp21_0_s1:1 vs_23_21:A 1.000000e-03
5 pgm_pp21_0_s1:1 vs_22_21:A 1.000000e-03
6 pgm_pp21_0_s1:1 vs_21_21:A 1.000000e-03
7 pgm_pp21_0_s1:1 vs_20_21:A 1.000000e-03
8 pgm_pp21_0_s1:1 vs_19_21:A 1.000000e-03
9 pgm_pp21_0_s1:1 vs_16_21:A 1.000000e-03
*END

*D_NET pgm_pp21_0_s2 1.667921e-02
*CONN
*I lt_pp21_0_s2:Z O
*I vs_46_21:A I
*I vs_39_21:A I
*I vs_38_21:A I
*I vs_34_21:A I
*CAP
1 pgm_pp21_0_s2:1 1.667921e-02
*RES
1 lt_pp21_0_s2:Z pgm_pp21_0_s2:1 1.892727e+01
2 pgm_pp21_0_s2:1 vs_46_21:A 1.000000e-03
3 pgm_pp21_0_s2:1 vs_39_21:A 1.000000e-03
4 pgm_pp21_0_s2:1 vs_38_21:A 1.000000e-03
5 pgm_pp21_0_s2:1 vs_34_21:A 1.000000e-03
*END

*D_NET pgm_pp21_0_s3 9.637208e-03
*CONN
*I lt_pp21_0_s3:Z O
*I vs_58_21:A I
*I vs_56_21:A I
*I vs_52_21:A I
*I vs_51_21:A I
*CAP
1 pgm_pp21_0_s3:1 9.637208e-03
*RES
1 lt_pp21_0_s3:Z pgm_pp21_0_s3:1 1.093613e+01
2 pgm_pp21_0_s3:1 vs_58_21:A 1.000000e-03
3 pgm_pp21_0_s3:1 vs_56_21:A 1.000000e-03
4 pgm_pp21_0_s3:1 vs_52_21:A 1.000000e-03
5 pgm_pp21_0_s3:1 vs_51_21:A 1.000000e-03
*END

*D_NET pgm_pp2_0_s0 1.406004e-02
*CONN
*I lt_pp2_0_s0:Z O
*I vs_8_2:A I
*I vs_3_2:A I
*I vs_1_2:A I
*CAP
1 pgm_pp2_0_s0:1 1.406004e-02
*RES
1 lt_pp2_0_s0:Z pgm_pp2_0_s0:1 1.395096e+01
2 pgm_pp2_0_s0:1 vs_8_2:A 1.000000e-03
3 pgm_pp2_0_s0:1 vs_3_2:A 1.000000e-03
4 pgm_pp2_0_s0:1 vs_1_2:A 1.000000e-03
*END

*D_NET pgm_pp2_0_s1 1.635333e-03
*CONN
*I lt_pp2_0_s1:Z O
*I vs_16_2:A I
*CAP
1 pgm_pp2_0_s1:1 1.635333e-03
*RES
1 lt_pp2_0_s1:Z pgm_pp2_0_s1:1 1.855747e+00
2 pgm_pp2_0_s1:1 vs_16_2:A 1.000000e-03
*END

*D_NET pgm_pp2_0_s3 1.103526e-02
*CONN
*I lt_pp2_0_s3:Z O
*I vs_55_2:A I
*CAP
1 pgm_pp2_0_s3:1 1.103526e-02
*RES
1 lt_pp2_0_s3:Z pgm_pp2_0_s3:1 1.051851e+01
2 pgm_pp2_0_s3:1 vs_55_2:A 1.000000e-03
*END

*D_NET pgm_pp2_12_s0 1.087113e-02
*CONN
*I lt_pp2_12_s0:Z O
*I vs_7_2:A I
*CAP
1 pgm_pp2_12_s0:1 1.087113e-02
*RES
1 lt_pp2_12_s0:Z pgm_pp2_12_s0:1 1.090817e+01
2 pgm_pp2_12_s0:1 vs_7_2:A 1.000000e-03
*END

*D_NET pgm_pp2_1_s0 2.559515e-03
*CONN
*I lt_pp2_1_s0:Z O
*I vs_2_2:A I
*CAP
1 pgm_pp2_1_s0:1 2.559515e-03
*RES
1 lt_pp2_1_s0:Z pgm_pp2_1_s0:1 1.908235e+00
2 pgm_pp2_1_s0:1 vs_2_2:A 1.000000e-03
*END

*D_NET pgm_pp2_1_s1 1.284079e-02
*CONN
*I lt_pp2_1_s1:Z O
*I vs_26_2:A I
*CAP
1 pgm_pp2_1_s1:1 1.284079e-02
*RES
1 lt_pp2_1_s1:Z pgm_pp2_1_s1:1 1.299932e+01
2 pgm_pp2_1_s1:1 vs_26_2:A 1.000000e-03
*END

*D_NET pgm_pp2_2_s1 1.830862e-02
*CONN
*I lt_pp2_2_s1:Z O
*I vs_29_2:A I
*I vs_23_2:A I
*I vs_17_2:A I
*CAP
1 pgm_pp2_2_s1:1 1.830862e-02
*RES
1 lt_pp2_2_s1:Z pgm_pp2_2_s1:1 2.077629e+01
2 pgm_pp2_2_s1:1 vs_29_2:A 1.000000e-03
3 pgm_pp2_2_s1:1 vs_23_2:A 1.000000e-03
4 pgm_pp2_2_s1:1 vs_17_2:A 1.000000e-03
*END

*D_NET pgm_pp2_2_s3 1.747348e-02
*CONN
*I lt_pp2_2_s3:Z O
*I vs_63_2:A I
*I vs_59_2:A I
*CAP
1 pgm_pp2_2_s3:1 1.747348e-02
*RES
1 lt_pp2_2_s3:Z pgm_pp2_2_s3:1 1.897632e+01
2 pgm_pp2_2_s3:1 vs_63_2:A 1.000000e-03
3 pgm_pp2_2_s3:1 vs_59_2:A 1.000000e-03
*END

*D_NET pgm_pp2_3_s0 1.291084e-02
*CONN
*I lt_pp2_3_s0:Z O
*I vs_13_2:A I
*I vs_11_2:A I
*I vs_10_2:A I
*CAP
1 pgm_pp2_3_s0:1 1.291084e-02
*RES
1 lt_pp2_3_s0:Z pgm_pp2_3_s0:1 1.465099e+01
2 pgm_pp2_3_s0:1 vs_13_2:A 1.000000e-03
3 pgm_pp2_3_s0:1 vs_11_2:A 1.000000e-03
4 pgm_pp2_3_s0:1 vs_10_2:A 1.000000e-03
*END

*D_NET pgm_pp2_3_s2 5.522212e-03
*CONN
*I lt_pp2_3_s2:Z O
*I vs_36_2:A I
*I vs_33_2:A I
*CAP
1 pgm_pp2_3_s2:1 5.522212e-03
*RES
1 lt_pp2_3_s2:Z pgm_pp2_3_s2:1 6.266507e+00
2 pgm_pp2_3_s2:1 vs_36_2:A 1.000000e-03
3 pgm_pp2_3_s2:1 vs_33_2:A 1.000000e-03
*END

*D_NET pgm_pp2_3_s3 1.270642e-02
*CONN
*I lt_pp2_3_s3:Z O
*I vs_60_2:A I
*I vs_56_2:A I
*CAP
1 pgm_pp2_3_s3:1 1.270642e-02
*RES
1 lt_pp2_3_s3:Z pgm_pp2_3_s3:1 1.441902e+01
2 pgm_pp2_3_s3:1 vs_60_2:A 1.000000e-03
3 pgm_pp2_3_s3:1 vs_56_2:A 1.000000e-03
*END

*D_NET pgm_pp2_5_s1 8.837484e-03
*CONN
*I lt_pp2_5_s1:Z O
*I vs_28_2:A I
*CAP
1 pgm_pp2_5_s1:1 8.837484e-03
*RES
1 lt_pp2_5_s1:Z pgm_pp2_5_s1:1 7.623868e+00
2 pgm_pp2_5_s1:1 vs_28_2:A 1.000000e-03
*END

*D_NET pgm_pp2_5_s3 1.952225e-02
*CONN
*I lt_pp2_5_s3:Z O
*I vs_62_2:A I
*I vs_61_2:A I
*I vs_50_2:A I
*CAP
1 pgm_pp2_5_s3:1 1.952225e-02
*RES
1 lt_pp2_5_s3:Z pgm_pp2_5_s3:1 2.086928e+01
2 pgm_pp2_5_s3:1 vs_62_2:A 1.000000e-03
3 pgm_pp2_5_s3:1 vs_61_2:A 1.000000e-03
4 pgm_pp2_5_s3:1 vs_50_2:A 1.000000e-03
*END

*D_NET pgm_pp2_6_s3 4.233498e-03
*CONN
*I lt_pp2_6_s3:Z O
*I vs_53_2:A I
*CAP
1 pgm_pp2_6_s3:1 4.233498e-03
*RES
1 lt_pp2_6_s3:Z pgm_pp2_6_s3:1 4.804098e+00
2 pgm_pp2_6_s3:1 vs_53_2:A 1.000000e-03
*END

*D_NET pgm_pp2_7_s3 7.673030e-03
*CONN
*I lt_pp2_7_s3:Z O
*I vs_51_2:A I
*CAP
1 pgm_pp2_7_s3:1 7.673030e-03
*RES
1 lt_pp2_7_s3:Z pgm_pp2_7_s3:1 8.707217e+00
2 pgm_pp2_7_s3:1 vs_51_2:A 1.000000e-03
*END

*D_NET pgm_pp2_8_s0 8.298131e-03
*CONN
*I lt_pp2_8_s0:Z O
*I vs_4_2:A I
*CAP
1 pgm_pp2_8_s0:1 8.298131e-03
*RES
1 lt_pp2_8_s0:Z pgm_pp2_8_s0:1 9.416570e+00
2 pgm_pp2_8_s0:1 vs_4_2:A 1.000000e-03
*END

*D_NET pgm_pp2_8_s1 6.855364e-03
*CONN
*I lt_pp2_8_s1:Z O
*I vs_31_2:A I
*CAP
1 pgm_pp2_8_s1:1 6.855364e-03
*RES
1 lt_pp2_8_s1:Z pgm_pp2_8_s1:1 7.779344e+00
2 pgm_pp2_8_s1:1 vs_31_2:A 1.000000e-03
*END

*D_NET pgm_pp2_8_s3 1.063559e-03
*CONN
*I lt_pp2_8_s3:Z O
*I vs_58_2:A I
*CAP
1 pgm_pp2_8_s3:1 1.063559e-03
*RES
1 lt_pp2_8_s3:Z pgm_pp2_8_s3:1 1.206908e+00
2 pgm_pp2_8_s3:1 vs_58_2:A 1.000000e-03
*END

*D_NET pgm_pp2_9_s2 1.183246e-02
*CONN
*I lt_pp2_9_s2:Z O
*I vs_34_2:A I
*CAP
1 pgm_pp2_9_s2:1 1.183246e-02
*RES
1 lt_pp2_9_s2:Z pgm_pp2_9_s2:1 1.342727e+01
2 pgm_pp2_9_s2:1 vs_34_2:A 1.000000e-03
*END

*D_NET pgm_pp2_9_s3 1.430028e-02
*CONN
*I lt_pp2_9_s3:Z O
*I vs_48_2:A I
*CAP
1 pgm_pp2_9_s3:1 1.430028e-02
*RES
1 lt_pp2_9_s3:Z pgm_pp2_9_s3:1 1.622770e+01
2 pgm_pp2_9_s3:1 vs_48_2:A 1.000000e-03
*END

*D_NET pgm_pp3_0_s0 9.498136e-03
*CONN
*I lt_pp3_0_s0:Z O
*I vs_6_3:A I
*CAP
1 pgm_pp3_0_s0:1 9.498136e-03
*RES
1 lt_pp3_0_s0:Z pgm_pp3_0_s0:1 8.918182e+00
2 pgm_pp3_0_s0:1 vs_6_3:A 1.000000e-03
*END

*D_NET pgm_pp3_0_s2 2.197317e-02
*CONN
*I lt_pp3_0_s2:Z O
*I vs_47_3:A I
*CAP
1 pgm_pp3_0_s2:1 2.197317e-02
*RES
1 lt_pp3_0_s2:Z pgm_pp3_0_s2:1 2.393850e+01
2 pgm_pp3_0_s2:1 vs_47_3:A 1.000000e-03
*END

*D_NET pgm_pp3_11_s1 1.406920e-02
*CONN
*I lt_pp3_11_s1:Z O
*I vs_19_3:A I
*CAP
1 pgm_pp3_11_s1:1 1.406920e-02
*RES
1 lt_pp3_11_s1:Z pgm_pp3_11_s1:1 1.596547e+01
2 pgm_pp3_11_s1:1 vs_19_3:A 1.000000e-03
*END

*D_NET pgm_pp3_11_s3 1.333731e-02
*CONN
*I lt_pp3_11_s3:Z O
*I vs_52_3:A I
*CAP
1 pgm_pp3_11_s3:1 1.333731e-02
*RES
1 lt_pp3_11_s3:Z pgm_pp3_11_s3:1 1.413868e+01
2 pgm_pp3_11_s3:1 vs_52_3:A 1.000000e-03
*END

*D_NET pgm_pp3_12_s0 3.993699e-03
*CONN
*I lt_pp3_12_s0:Z O
*I vs_13_3:A I
*CAP
1 pgm_pp3_12_s0:1 3.993699e-03
*RES
1 lt_pp3_12_s0:Z pgm_pp3_12_s0:1 2.671846e+00
2 pgm_pp3_12_s0:1 vs_13_3:A 1.000000e-03
*END

*D_NET pgm_pp3_12_s1 1.874412e-02
*CONN
*I lt_pp3_12_s1:Z O
*I vs_17_3:A I
*CAP
1 pgm_pp3_12_s1:1 1.874412e-02
*RES
1 lt_pp3_12_s1:Z pgm_pp3_12_s1:1 2.127049e+01
2 pgm_pp3_12_s1:1 vs_17_3:A 1.000000e-03
*END

*D_NET pgm_pp3_1_s2 9.226023e-03
*CONN
*I lt_pp3_1_s2:Z O
*I vs_39_3:A I
*I vs_38_3:A I
*I vs_37_3:A I
*CAP
1 pgm_pp3_1_s2:1 9.226023e-03
*RES
1 lt_pp3_1_s2:Z pgm_pp3_1_s2:1 8.753372e+00
2 pgm_pp3_1_s2:1 vs_39_3:A 1.000000e-03
3 pgm_pp3_1_s2:1 vs_38_3:A 1.000000e-03
4 pgm_pp3_1_s2:1 vs_37_3:A 1.000000e-03
*END

*D_NET pgm_pp3_2_s3 8.397835e-03
*CONN
*I lt_pp3_2_s3:Z O
*I vs_56_3:A I
*I vs_53_3:A I
*CAP
1 pgm_pp3_2_s3:1 8.397835e-03
*RES
1 lt_pp3_2_s3:Z pgm_pp3_2_s3:1 8.245497e+00
2 pgm_pp3_2_s3:1 vs_56_3:A 1.000000e-03
3 pgm_pp3_2_s3:1 vs_53_3:A 1.000000e-03
*END

*D_NET pgm_pp3_3_s1 4.538505e-03
*CONN
*I lt_pp3_3_s1:Z O
*I vs_22_3:A I
*I vs_21_3:A I
*CAP
1 pgm_pp3_3_s1:1 4.538505e-03
*RES
1 lt_pp3_3_s1:Z pgm_pp3_3_s1:1 4.153958e+00
2 pgm_pp3_3_s1:1 vs_22_3:A 1.000000e-03
3 pgm_pp3_3_s1:1 vs_21_3:A 1.000000e-03
*END

*D_NET pgm_pp3_3_s3 2.464850e-03
*CONN
*I lt_pp3_3_s3:Z O
*I vs_50_3:A I
*CAP
1 pgm_pp3_3_s3:1 2.464850e-03
*RES
1 lt_pp3_3_s3:Z pgm_pp3_3_s3:1 2.797068e+00
2 pgm_pp3_3_s3:1 vs_50_3:A 1.000000e-03
*END

*D_NET pgm_pp3_4_s1 1.412549e-02
*CONN
*I lt_pp3_4_s1:Z O
*I vs_31_3:A I
*CAP
1 pgm_pp3_4_s1:1 1.412549e-02
*RES
1 lt_pp3_4_s1:Z pgm_pp3_4_s1:1 1.602935e+01
2 pgm_pp3_4_s1:1 vs_31_3:A 1.000000e-03
*END

*D_NET pgm_pp3_4_s2 2.559652e-03
*CONN
*I lt_pp3_4_s2:Z O
*I vs_35_3:A I
*CAP
1 pgm_pp3_4_s2:1 2.559652e-03
*RES
1 lt_pp3_4_s2:Z pgm_pp3_4_s2:1 2.904647e+00
2 pgm_pp3_4_s2:1 vs_35_3:A 1.000000e-03
*END

*D_NET pgm_pp3_5_s1 8.837316e-03
*CONN
*I lt_pp3_5_s1:Z O
*I vs_16_3:A I
*CAP
1 pgm_pp3_5_s1:1 8.837316e-03
*RES
1 lt_pp3_5_s1:Z pgm_pp3_5_s1:1 1.002843e+01
2 pgm_pp3_5_s1:1 vs_16_3:A 1.000000e-03
*END

*D_NET pgm_pp3_5_s2 5.652564e-03
*CONN
*I lt_pp3_5_s2:Z O
*I vs_34_3:A I
*CAP
1 pgm_pp3_5_s2:1 5.652564e-03
*RES
1 lt_pp3_5_s2:Z pgm_pp3_5_s2:1 6.414429e+00
2 pgm_pp3_5_s2:1 vs_34_3:A 1.000000e-03
*END

*D_NET pgm_pp3_5_s3 1.531644e-03
*CONN
*I lt_pp3_5_s3:Z O
*I vs_55_3:A I
*CAP
1 pgm_pp3_5_s3:1 1.531644e-03
*RES
1 lt_pp3_5_s3:Z pgm_pp3_5_s3:1 1.738082e+00
2 pgm_pp3_5_s3:1 vs_55_3:A 1.000000e-03
*END

*D_NET pgm_pp3_6_s0 8.277393e-03
*CONN
*I lt_pp3_6_s0:Z O
*I vs_2_3:A I
*CAP
1 pgm_pp3_6_s0:1 8.277393e-03
*RES
1 lt_pp3_6_s0:Z pgm_pp3_6_s0:1 9.393037e+00
2 pgm_pp3_6_s0:1 vs_2_3:A 1.000000e-03
*END

*D_NET pgm_pp3_7_s0 1.022676e-02
*CONN
*I lt_pp3_7_s0:Z O
*I vs_5_3:A I
*I vs_1_3:A I
*CAP
1 pgm_pp3_7_s0:1 1.022676e-02
*RES
1 lt_pp3_7_s0:Z pgm_pp3_7_s0:1 1.160514e+01
2 pgm_pp3_7_s0:1 vs_5_3:A 1.000000e-03
3 pgm_pp3_7_s0:1 vs_1_3:A 1.000000e-03
*END

*D_NET pgm_pp3_7_s2 3.581735e-03
*CONN
*I lt_pp3_7_s2:Z O
*I vs_43_3:A I
*CAP
1 pgm_pp3_7_s2:1 3.581735e-03
*RES
1 lt_pp3_7_s2:Z pgm_pp3_7_s2:1 4.064489e+00
2 pgm_pp3_7_s2:1 vs_43_3:A 1.000000e-03
*END

*D_NET pgm_pp3_9_s1 2.188309e-03
*CONN
*I lt_pp3_9_s1:Z O
*I vs_27_3:A I
*CAP
1 pgm_pp3_9_s1:1 2.188309e-03
*RES
1 lt_pp3_9_s1:Z pgm_pp3_9_s1:1 1.199039e+00
2 pgm_pp3_9_s1:1 vs_27_3:A 1.000000e-03
*END

*D_NET pgm_pp4_0_s1 2.793694e-03
*CONN
*I lt_pp4_0_s1:Z O
*I vs_17_4:A I
*CAP
1 pgm_pp4_0_s1:1 2.793694e-03
*RES
1 lt_pp4_0_s1:Z pgm_pp4_0_s1:1 3.170234e+00
2 pgm_pp4_0_s1:1 vs_17_4:A 1.000000e-03
*END

*D_NET pgm_pp4_0_s2 1.595931e-02
*CONN
*I lt_pp4_0_s2:Z O
*I vs_43_4:A I
*CAP
1 pgm_pp4_0_s2:1 1.595931e-02
*RES
1 lt_pp4_0_s2:Z pgm_pp4_0_s2:1 1.811034e+01
2 pgm_pp4_0_s2:1 vs_43_4:A 1.000000e-03
*END

*D_NET pgm_pp4_0_s3 1.807151e-02
*CONN
*I lt_pp4_0_s3:Z O
*I vs_59_4:A I
*CAP
1 pgm_pp4_0_s3:1 1.807151e-02
*RES
1 lt_pp4_0_s3:Z pgm_pp4_0_s3:1 1.664298e+01
2 pgm_pp4_0_s3:1 vs_59_4:A 1.000000e-03
*END

*D_NET pgm_pp4_10_s0 4.479391e-03
*CONN
*I lt_pp4_10_s0:Z O
*I vs_9_4:A I
*CAP
1 pgm_pp4_10_s0:1 4.479391e-03
*RES
1 lt_pp4_10_s0:Z pgm_pp4_10_s0:1 5.083132e+00
2 pgm_pp4_10_s0:1 vs_9_4:A 1.000000e-03
*END

*D_NET pgm_pp4_10_s1 3.371393e-03
*CONN
*I lt_pp4_10_s1:Z O
*I vs_26_4:A I
*CAP
1 pgm_pp4_10_s1:1 3.371393e-03
*RES
1 lt_pp4_10_s1:Z pgm_pp4_10_s1:1 3.825797e+00
2 pgm_pp4_10_s1:1 vs_26_4:A 1.000000e-03
*END

*D_NET pgm_pp4_10_s3 9.154310e-03
*CONN
*I lt_pp4_10_s3:Z O
*I vs_54_4:A I
*CAP
1 pgm_pp4_10_s3:1 9.154310e-03
*RES
1 lt_pp4_10_s3:Z pgm_pp4_10_s3:1 1.038815e+01
2 pgm_pp4_10_s3:1 vs_54_4:A 1.000000e-03
*END

*D_NET pgm_pp4_11_s1 1.188174e-02
*CONN
*I lt_pp4_11_s1:Z O
*I vs_21_4:A I
*CAP
1 pgm_pp4_11_s1:1 1.188174e-02
*RES
1 lt_pp4_11_s1:Z pgm_pp4_11_s1:1 1.142273e+01
2 pgm_pp4_11_s1:1 vs_21_4:A 1.000000e-03
*END

*D_NET pgm_pp4_12_s0 5.991350e-03
*CONN
*I lt_pp4_12_s0:Z O
*I vs_11_4:A I
*CAP
1 pgm_pp4_12_s0:1 5.991350e-03
*RES
1 lt_pp4_12_s0:Z pgm_pp4_12_s0:1 5.226703e+00
2 pgm_pp4_12_s0:1 vs_11_4:A 1.000000e-03
*END

*D_NET pgm_pp4_12_s1 1.485533e-02
*CONN
*I lt_pp4_12_s1:Z O
*I vs_20_4:A I
*CAP
1 pgm_pp4_12_s1:1 1.485533e-02
*RES
1 lt_pp4_12_s1:Z pgm_pp4_12_s1:1 1.528539e+01
2 pgm_pp4_12_s1:1 vs_20_4:A 1.000000e-03
*END

*D_NET pgm_pp4_1_s2 7.451892e-03
*CONN
*I lt_pp4_1_s2:Z O
*I vs_37_4:A I
*CAP
1 pgm_pp4_1_s2:1 7.451892e-03
*RES
1 lt_pp4_1_s2:Z pgm_pp4_1_s2:1 6.884100e+00
2 pgm_pp4_1_s2:1 vs_37_4:A 1.000000e-03
*END

*D_NET pgm_pp4_1_s3 1.044071e-02
*CONN
*I lt_pp4_1_s3:Z O
*I vs_56_4:A I
*CAP
1 pgm_pp4_1_s3:1 1.044071e-02
*RES
1 lt_pp4_1_s3:Z pgm_pp4_1_s3:1 9.975274e+00
2 pgm_pp4_1_s3:1 vs_56_4:A 1.000000e-03
*END

*D_NET pgm_pp4_2_s0 1.883997e-02
*CONN
*I lt_pp4_2_s0:Z O
*I vs_14_4:A I
*I vs_5_4:A I
*CAP
1 pgm_pp4_2_s0:1 1.883997e-02
*RES
1 lt_pp4_2_s0:Z pgm_pp4_2_s0:1 1.980709e+01
2 pgm_pp4_2_s0:1 vs_14_4:A 1.000000e-03
3 pgm_pp4_2_s0:1 vs_5_4:A 1.000000e-03
*END

*D_NET pgm_pp4_2_s1 1.821974e-02
*CONN
*I lt_pp4_2_s1:Z O
*I vs_27_4:A I
*I vs_22_4:A I
*I vs_16_4:A I
*CAP
1 pgm_pp4_2_s1:1 1.821974e-02
*RES
1 lt_pp4_2_s1:Z pgm_pp4_2_s1:1 2.067544e+01
2 pgm_pp4_2_s1:1 vs_27_4:A 1.000000e-03
3 pgm_pp4_2_s1:1 vs_22_4:A 1.000000e-03
4 pgm_pp4_2_s1:1 vs_16_4:A 1.000000e-03
*END

*D_NET pgm_pp4_2_s2 1.798839e-02
*CONN
*I lt_pp4_2_s2:Z O
*I vs_46_4:A I
*CAP
1 pgm_pp4_2_s2:1 1.798839e-02
*RES
1 lt_pp4_2_s2:Z pgm_pp4_2_s2:1 1.840879e+01
2 pgm_pp4_2_s2:1 vs_46_4:A 1.000000e-03
*END

*D_NET pgm_pp4_2_s3 4.778609e-03
*CONN
*I lt_pp4_2_s3:Z O
*I vs_48_4:A I
*CAP
1 pgm_pp4_2_s3:1 4.778609e-03
*RES
1 lt_pp4_2_s3:Z pgm_pp4_2_s3:1 5.422680e+00
2 pgm_pp4_2_s3:1 vs_48_4:A 1.000000e-03
*END

*D_NET pgm_pp4_3_s1 1.156583e-02
*CONN
*I lt_pp4_3_s1:Z O
*I vs_28_4:A I
*CAP
1 pgm_pp4_3_s1:1 1.156583e-02
*RES
1 lt_pp4_3_s1:Z pgm_pp4_3_s1:1 1.312470e+01
2 pgm_pp4_3_s1:1 vs_28_4:A 1.000000e-03
*END

*D_NET pgm_pp4_3_s2 7.536753e-03
*CONN
*I lt_pp4_3_s2:Z O
*I vs_41_4:A I
*CAP
1 pgm_pp4_3_s2:1 7.536753e-03
*RES
1 lt_pp4_3_s2:Z pgm_pp4_3_s2:1 8.552572e+00
2 pgm_pp4_3_s2:1 vs_41_4:A 1.000000e-03
*END

*D_NET pgm_pp4_5_s0 9.982056e-03
*CONN
*I lt_pp4_5_s0:Z O
*I vs_13_4:A I
*I vs_12_4:A I
*CAP
1 pgm_pp4_5_s0:1 9.982056e-03
*RES
1 lt_pp4_5_s0:Z pgm_pp4_5_s0:1 1.076314e+01
2 pgm_pp4_5_s0:1 vs_13_4:A 1.000000e-03
3 pgm_pp4_5_s0:1 vs_12_4:A 1.000000e-03
*END

*D_NET pgm_pp4_6_s0 6.608754e-03
*CONN
*I lt_pp4_6_s0:Z O
*I vs_4_4:A I
*CAP
1 pgm_pp4_6_s0:1 6.608754e-03
*RES
1 lt_pp4_6_s0:Z pgm_pp4_6_s0:1 5.363004e+00
2 pgm_pp4_6_s0:1 vs_4_4:A 1.000000e-03
*END

*D_NET pgm_pp4_7_s0 1.129920e-02
*CONN
*I lt_pp4_7_s0:Z O
*I vs_0_4:A I
*CAP
1 pgm_pp4_7_s0:1 1.129920e-02
*RES
1 lt_pp4_7_s0:Z pgm_pp4_7_s0:1 1.282213e+01
2 pgm_pp4_7_s0:1 vs_0_4:A 1.000000e-03
*END

*D_NET pgm_pp4_7_s2 2.968485e-03
*CONN
*I lt_pp4_7_s2:Z O
*I vs_39_4:A I
*CAP
1 pgm_pp4_7_s2:1 2.968485e-03
*RES
1 lt_pp4_7_s2:Z pgm_pp4_7_s2:1 3.368584e+00
2 pgm_pp4_7_s2:1 vs_39_4:A 1.000000e-03
*END

*D_NET pgm_pp4_7_s3 7.667105e-03
*CONN
*I lt_pp4_7_s3:Z O
*I vs_62_4:A I
*CAP
1 pgm_pp4_7_s3:1 7.667105e-03
*RES
1 lt_pp4_7_s3:Z pgm_pp4_7_s3:1 8.700494e+00
2 pgm_pp4_7_s3:1 vs_62_4:A 1.000000e-03
*END

*D_NET pgm_pp4_8_s2 2.423374e-03
*CONN
*I lt_pp4_8_s2:Z O
*I vs_40_4:A I
*CAP
1 pgm_pp4_8_s2:1 2.423374e-03
*RES
1 lt_pp4_8_s2:Z pgm_pp4_8_s2:1 2.750001e+00
2 pgm_pp4_8_s2:1 vs_40_4:A 1.000000e-03
*END

*D_NET pgm_pp4_8_s3 4.126846e-03
*CONN
*I lt_pp4_8_s3:Z O
*I vs_55_4:A I
*CAP
1 pgm_pp4_8_s3:1 4.126846e-03
*RES
1 lt_pp4_8_s3:Z pgm_pp4_8_s3:1 4.683071e+00
2 pgm_pp4_8_s3:1 vs_55_4:A 1.000000e-03
*END

*D_NET pgm_pp4_9_s3 2.240444e-03
*CONN
*I lt_pp4_9_s3:Z O
*I vs_60_4:A I
*CAP
1 pgm_pp4_9_s3:1 2.240444e-03
*RES
1 lt_pp4_9_s3:Z pgm_pp4_9_s3:1 1.834118e+00
2 pgm_pp4_9_s3:1 vs_60_4:A 1.000000e-03
*END

*D_NET pgm_pp5_0_s0 1.781745e-02
*CONN
*I lt_pp5_0_s0:Z O
*I vs_13_5:A I
*CAP
1 pgm_pp5_0_s0:1 1.781745e-02
*RES
1 lt_pp5_0_s0:Z pgm_pp5_0_s0:1 1.850277e+01
2 pgm_pp5_0_s0:1 vs_13_5:A 1.000000e-03
*END

*D_NET pgm_pp5_0_s3 6.938927e-03
*CONN
*I lt_pp5_0_s3:Z O
*I vs_52_5:A I
*CAP
1 pgm_pp5_0_s3:1 6.938927e-03
*RES
1 lt_pp5_0_s3:Z pgm_pp5_0_s3:1 6.158017e+00
2 pgm_pp5_0_s3:1 vs_52_5:A 1.000000e-03
*END

*D_NET pgm_pp5_10_s1 1.654886e-02
*CONN
*I lt_pp5_10_s1:Z O
*I vs_26_5:A I
*I vs_18_5:A I
*I vs_17_5:A I
*CAP
1 pgm_pp5_10_s1:1 1.654886e-02
*RES
1 lt_pp5_10_s1:Z pgm_pp5_10_s1:1 1.877935e+01
2 pgm_pp5_10_s1:1 vs_26_5:A 1.000000e-03
3 pgm_pp5_10_s1:1 vs_18_5:A 1.000000e-03
4 pgm_pp5_10_s1:1 vs_17_5:A 1.000000e-03
*END

*D_NET pgm_pp5_11_s0 9.654983e-03
*CONN
*I lt_pp5_11_s0:Z O
*I vs_15_5:A I
*I vs_9_5:A I
*CAP
1 pgm_pp5_11_s0:1 9.654983e-03
*RES
1 lt_pp5_11_s0:Z pgm_pp5_11_s0:1 1.095630e+01
2 pgm_pp5_11_s0:1 vs_15_5:A 1.000000e-03
3 pgm_pp5_11_s0:1 vs_9_5:A 1.000000e-03
*END

*D_NET pgm_pp5_11_s1 1.285856e-02
*CONN
*I lt_pp5_11_s1:Z O
*I vs_21_5:A I
*CAP
1 pgm_pp5_11_s1:1 1.285856e-02
*RES
1 lt_pp5_11_s1:Z pgm_pp5_11_s1:1 1.301949e+01
2 pgm_pp5_11_s1:1 vs_21_5:A 1.000000e-03
*END

*D_NET pgm_pp5_12_s2 1.353597e-02
*CONN
*I lt_pp5_12_s2:Z O
*I vs_46_5:A I
*I vs_40_5:A I
*CAP
1 pgm_pp5_12_s2:1 1.353597e-02
*RES
1 lt_pp5_12_s2:Z pgm_pp5_12_s2:1 1.250399e+01
2 pgm_pp5_12_s2:1 vs_46_5:A 1.000000e-03
3 pgm_pp5_12_s2:1 vs_40_5:A 1.000000e-03
*END

*D_NET pgm_pp5_1_s3 3.780227e-03
*CONN
*I lt_pp5_1_s3:Z O
*I vs_51_5:A I
*CAP
1 pgm_pp5_1_s3:1 3.780227e-03
*RES
1 lt_pp5_1_s3:Z pgm_pp5_1_s3:1 4.289733e+00
2 pgm_pp5_1_s3:1 vs_51_5:A 1.000000e-03
*END

*D_NET pgm_pp5_2_s1 8.664465e-03
*CONN
*I lt_pp5_2_s1:Z O
*I vs_24_5:A I
*CAP
1 pgm_pp5_2_s1:1 8.664465e-03
*RES
1 lt_pp5_2_s1:Z pgm_pp5_2_s1:1 8.548065e+00
2 pgm_pp5_2_s1:1 vs_24_5:A 1.000000e-03
*END

*D_NET pgm_pp5_2_s2 1.618249e-02
*CONN
*I lt_pp5_2_s2:Z O
*I vs_42_5:A I
*I vs_32_5:A I
*CAP
1 pgm_pp5_2_s2:1 1.618249e-02
*RES
1 lt_pp5_2_s2:Z pgm_pp5_2_s2:1 1.602679e+01
2 pgm_pp5_2_s2:1 vs_42_5:A 1.000000e-03
3 pgm_pp5_2_s2:1 vs_32_5:A 1.000000e-03
*END

*D_NET pgm_pp5_2_s3 1.073145e-02
*CONN
*I lt_pp5_2_s3:Z O
*I vs_57_5:A I
*CAP
1 pgm_pp5_2_s3:1 1.073145e-02
*RES
1 lt_pp5_2_s3:Z pgm_pp5_2_s3:1 1.060568e+01
2 pgm_pp5_2_s3:1 vs_57_5:A 1.000000e-03
*END

*D_NET pgm_pp5_3_s1 5.249656e-03
*CONN
*I lt_pp5_3_s1:Z O
*I vs_16_5:A I
*CAP
1 pgm_pp5_3_s1:1 5.249656e-03
*RES
1 lt_pp5_3_s1:Z pgm_pp5_3_s1:1 5.957216e+00
2 pgm_pp5_3_s1:1 vs_16_5:A 1.000000e-03
*END

*D_NET pgm_pp5_3_s2 1.415511e-02
*CONN
*I lt_pp5_3_s2:Z O
*I vs_44_5:A I
*I vs_37_5:A I
*CAP
1 pgm_pp5_3_s2:1 1.415511e-02
*RES
1 lt_pp5_3_s2:Z pgm_pp5_3_s2:1 1.606297e+01
2 pgm_pp5_3_s2:1 vs_44_5:A 1.000000e-03
3 pgm_pp5_3_s2:1 vs_37_5:A 1.000000e-03
*END

*D_NET pgm_pp5_3_s3 1.600967e-02
*CONN
*I lt_pp5_3_s3:Z O
*I vs_60_5:A I
*I vs_50_5:A I
*CAP
1 pgm_pp5_3_s3:1 1.600967e-02
*RES
1 lt_pp5_3_s3:Z pgm_pp5_3_s3:1 1.816749e+01
2 pgm_pp5_3_s3:1 vs_60_5:A 1.000000e-03
3 pgm_pp5_3_s3:1 vs_50_5:A 1.000000e-03
*END

*D_NET pgm_pp5_4_s2 2.429299e-03
*CONN
*I lt_pp5_4_s2:Z O
*I vs_38_5:A I
*CAP
1 pgm_pp5_4_s2:1 2.429299e-03
*RES
1 lt_pp5_4_s2:Z pgm_pp5_4_s2:1 2.756725e+00
2 pgm_pp5_4_s2:1 vs_38_5:A 1.000000e-03
*END

*D_NET pgm_pp5_5_s1 7.258272e-04
*CONN
*I lt_pp5_5_s1:Z O
*I vs_22_5:A I
*CAP
1 pgm_pp5_5_s1:1 7.258272e-04
*RES
1 lt_pp5_5_s1:Z pgm_pp5_5_s1:1 8.236557e-01
2 pgm_pp5_5_s1:1 vs_22_5:A 1.000000e-03
*END

*D_NET pgm_pp5_6_s0 1.251208e-02
*CONN
*I lt_pp5_6_s0:Z O
*I vs_10_5:A I
*I vs_2_5:A I
*CAP
1 pgm_pp5_6_s0:1 1.251208e-02
*RES
1 lt_pp5_6_s0:Z pgm_pp5_6_s0:1 1.363417e+01
2 pgm_pp5_6_s0:1 vs_10_5:A 1.000000e-03
3 pgm_pp5_6_s0:1 vs_2_5:A 1.000000e-03
*END

*D_NET pgm_pp5_7_s1 6.049548e-03
*CONN
*I lt_pp5_7_s1:Z O
*I vs_20_5:A I
*CAP
1 pgm_pp5_7_s1:1 6.049548e-03
*RES
1 lt_pp5_7_s1:Z pgm_pp5_7_s1:1 6.864918e+00
2 pgm_pp5_7_s1:1 vs_20_5:A 1.000000e-03
*END

*D_NET pgm_pp5_7_s2 8.603274e-03
*CONN
*I lt_pp5_7_s2:Z O
*I vs_36_5:A I
*I vs_34_5:A I
*CAP
1 pgm_pp5_7_s2:1 8.603274e-03
*RES
1 lt_pp5_7_s2:Z pgm_pp5_7_s2:1 9.762841e+00
2 pgm_pp5_7_s2:1 vs_36_5:A 1.000000e-03
3 pgm_pp5_7_s2:1 vs_34_5:A 1.000000e-03
*END

*D_NET pgm_pp6_0_s0 2.125180e-02
*CONN
*I lt_pp6_0_s0:Z O
*I vs_13_6:A I
*I vs_5_6:A I
*CAP
1 pgm_pp6_0_s0:1 2.125180e-02
*RES
1 lt_pp6_0_s0:Z pgm_pp6_0_s0:1 2.168011e+01
2 pgm_pp6_0_s0:1 vs_13_6:A 1.000000e-03
3 pgm_pp6_0_s0:1 vs_5_6:A 1.000000e-03
*END

*D_NET pgm_pp6_0_s3 1.109792e-02
*CONN
*I lt_pp6_0_s3:Z O
*I vs_55_6:A I
*I vs_54_6:A I
*CAP
1 pgm_pp6_0_s3:1 1.109792e-02
*RES
1 lt_pp6_0_s3:Z pgm_pp6_0_s3:1 1.073359e+01
2 pgm_pp6_0_s3:1 vs_55_6:A 1.000000e-03
3 pgm_pp6_0_s3:1 vs_54_6:A 1.000000e-03
*END

*D_NET pgm_pp6_10_s0 9.814961e-03
*CONN
*I lt_pp6_10_s0:Z O
*I vs_12_6:A I
*I vs_6_6:A I
*CAP
1 pgm_pp6_10_s0:1 9.814961e-03
*RES
1 lt_pp6_10_s0:Z pgm_pp6_10_s0:1 1.113784e+01
2 pgm_pp6_10_s0:1 vs_12_6:A 1.000000e-03
3 pgm_pp6_10_s0:1 vs_6_6:A 1.000000e-03
*END

*D_NET pgm_pp6_11_s1 1.788201e-02
*CONN
*I lt_pp6_11_s1:Z O
*I vs_16_6:A I
*CAP
1 pgm_pp6_11_s1:1 1.788201e-02
*RES
1 lt_pp6_11_s1:Z pgm_pp6_11_s1:1 2.029219e+01
2 pgm_pp6_11_s1:1 vs_16_6:A 1.000000e-03
*END

*D_NET pgm_pp6_12_s1 1.372850e-02
*CONN
*I lt_pp6_12_s1:Z O
*I vs_21_6:A I
*CAP
1 pgm_pp6_12_s1:1 1.372850e-02
*RES
1 lt_pp6_12_s1:Z pgm_pp6_12_s1:1 1.557886e+01
2 pgm_pp6_12_s1:1 vs_21_6:A 1.000000e-03
*END

*D_NET pgm_pp6_12_s3 1.851600e-03
*CONN
*I lt_pp6_12_s3:Z O
*I vs_63_6:A I
*CAP
1 pgm_pp6_12_s3:1 1.851600e-03
*RES
1 lt_pp6_12_s3:Z pgm_pp6_12_s3:1 2.101163e+00
2 pgm_pp6_12_s3:1 vs_63_6:A 1.000000e-03
*END

*D_NET pgm_pp6_1_s0 1.828492e-02
*CONN
*I lt_pp6_1_s0:Z O
*I vs_15_6:A I
*CAP
1 pgm_pp6_1_s0:1 1.828492e-02
*RES
1 lt_pp6_1_s0:Z pgm_pp6_1_s0:1 2.074940e+01
2 pgm_pp6_1_s0:1 vs_15_6:A 1.000000e-03
*END

*D_NET pgm_pp6_1_s1 1.111021e-02
*CONN
*I lt_pp6_1_s1:Z O
*I vs_24_6:A I
*CAP
1 pgm_pp6_1_s1:1 1.111021e-02
*RES
1 lt_pp6_1_s1:Z pgm_pp6_1_s1:1 1.089152e+01
2 pgm_pp6_1_s1:1 vs_24_6:A 1.000000e-03
*END

*D_NET pgm_pp6_2_s1 1.201911e-02
*CONN
*I lt_pp6_2_s1:Z O
*I vs_27_6:A I
*CAP
1 pgm_pp6_2_s1:1 1.201911e-02
*RES
1 lt_pp6_2_s1:Z pgm_pp6_2_s1:1 1.363907e+01
2 pgm_pp6_2_s1:1 vs_27_6:A 1.000000e-03
*END

*D_NET pgm_pp6_3_s0 1.376109e-02
*CONN
*I lt_pp6_3_s0:Z O
*I vs_14_6:A I
*CAP
1 pgm_pp6_3_s0:1 1.376109e-02
*RES
1 lt_pp6_3_s0:Z pgm_pp6_3_s0:1 1.561584e+01
2 pgm_pp6_3_s0:1 vs_14_6:A 1.000000e-03
*END

*D_NET pgm_pp6_3_s3 2.814738e-03
*CONN
*I lt_pp6_3_s3:Z O
*I vs_53_6:A I
*CAP
1 pgm_pp6_3_s3:1 2.814738e-03
*RES
1 lt_pp6_3_s3:Z pgm_pp6_3_s3:1 2.341837e+00
2 pgm_pp6_3_s3:1 vs_53_6:A 1.000000e-03
*END

*D_NET pgm_pp6_4_s1 5.658490e-03
*CONN
*I lt_pp6_4_s1:Z O
*I vs_18_6:A I
*CAP
1 pgm_pp6_4_s1:1 5.658490e-03
*RES
1 lt_pp6_4_s1:Z pgm_pp6_4_s1:1 6.421153e+00
2 pgm_pp6_4_s1:1 vs_18_6:A 1.000000e-03
*END

*D_NET pgm_pp6_4_s3 7.603869e-03
*CONN
*I lt_pp6_4_s3:Z O
*I vs_57_6:A I
*CAP
1 pgm_pp6_4_s3:1 7.603869e-03
*RES
1 lt_pp6_4_s3:Z pgm_pp6_4_s3:1 7.344519e+00
2 pgm_pp6_4_s3:1 vs_57_6:A 1.000000e-03
*END

*D_NET pgm_pp6_5_s2 5.107453e-03
*CONN
*I lt_pp6_5_s2:Z O
*I vs_34_6:A I
*CAP
1 pgm_pp6_5_s2:1 5.107453e-03
*RES
1 lt_pp6_5_s2:Z pgm_pp6_5_s2:1 5.795847e+00
2 pgm_pp6_5_s2:1 vs_34_6:A 1.000000e-03
*END

*D_NET pgm_pp6_5_s3 6.588733e-03
*CONN
*I lt_pp6_5_s3:Z O
*I vs_49_6:A I
*CAP
1 pgm_pp6_5_s3:1 6.588733e-03
*RES
1 lt_pp6_5_s3:Z pgm_pp6_5_s3:1 7.476777e+00
2 pgm_pp6_5_s3:1 vs_49_6:A 1.000000e-03
*END

*D_NET pgm_pp6_7_s3 2.100455e-03
*CONN
*I lt_pp6_7_s3:Z O
*I vs_58_6:A I
*CAP
1 pgm_pp6_7_s3:1 2.100455e-03
*RES
1 lt_pp6_7_s3:Z pgm_pp6_7_s3:1 2.383559e+00
2 pgm_pp6_7_s3:1 vs_58_6:A 1.000000e-03
*END

*D_NET pgm_pp6_8_s1 3.229190e-03
*CONN
*I lt_pp6_8_s1:Z O
*I vs_28_6:A I
*CAP
1 pgm_pp6_8_s1:1 3.229190e-03
*RES
1 lt_pp6_8_s1:Z pgm_pp6_8_s1:1 3.664427e+00
2 pgm_pp6_8_s1:1 vs_28_6:A 1.000000e-03
*END

*D_NET pgm_pp6_8_s2 6.357654e-03
*CONN
*I lt_pp6_8_s2:Z O
*I vs_37_6:A I
*CAP
1 pgm_pp6_8_s2:1 6.357654e-03
*RES
1 lt_pp6_8_s2:Z pgm_pp6_8_s2:1 7.214552e+00
2 pgm_pp6_8_s2:1 vs_37_6:A 1.000000e-03
*END

*D_NET pgm_pp6_8_s3 2.020466e-03
*CONN
*I lt_pp6_8_s3:Z O
*I vs_59_6:A I
*CAP
1 pgm_pp6_8_s3:1 2.020466e-03
*RES
1 lt_pp6_8_s3:Z pgm_pp6_8_s3:1 2.292789e+00
2 pgm_pp6_8_s3:1 vs_59_6:A 1.000000e-03
*END

*D_NET pgm_pp6_9_s2 1.387071e-02
*CONN
*I lt_pp6_9_s2:Z O
*I vs_47_6:A I
*I vs_38_6:A I
*CAP
1 pgm_pp6_9_s2:1 1.387071e-02
*RES
1 lt_pp6_9_s2:Z pgm_pp6_9_s2:1 1.574023e+01
2 pgm_pp6_9_s2:1 vs_47_6:A 1.000000e-03
3 pgm_pp6_9_s2:1 vs_38_6:A 1.000000e-03
*END

*D_NET pgm_pp7_0_s0 7.817921e-03
*CONN
*I lt_pp7_0_s0:Z O
*I vs_4_7:A I
*CAP
1 pgm_pp7_0_s0:1 7.817921e-03
*RES
1 lt_pp7_0_s0:Z pgm_pp7_0_s0:1 6.867525e+00
2 pgm_pp7_0_s0:1 vs_4_7:A 1.000000e-03
*END

*D_NET pgm_pp7_0_s1 1.974730e-02
*CONN
*I lt_pp7_0_s1:Z O
*I vs_26_7:A I
*I vs_23_7:A I
*CAP
1 pgm_pp7_0_s1:1 1.974730e-02
*RES
1 lt_pp7_0_s1:Z pgm_pp7_0_s1:1 1.724882e+01
2 pgm_pp7_0_s1:1 vs_26_7:A 1.000000e-03
3 pgm_pp7_0_s1:1 vs_23_7:A 1.000000e-03
*END

*D_NET pgm_pp7_0_s2 4.521478e-03
*CONN
*I lt_pp7_0_s2:Z O
*I vs_34_7:A I
*CAP
1 pgm_pp7_0_s2:1 4.521478e-03
*RES
1 lt_pp7_0_s2:Z pgm_pp7_0_s2:1 3.414739e+00
2 pgm_pp7_0_s2:1 vs_34_7:A 1.000000e-03
*END

*D_NET pgm_pp7_0_s3 1.027707e-02
*CONN
*I lt_pp7_0_s3:Z O
*I vs_54_7:A I
*CAP
1 pgm_pp7_0_s3:1 1.027707e-02
*RES
1 lt_pp7_0_s3:Z pgm_pp7_0_s3:1 9.730110e+00
2 pgm_pp7_0_s3:1 vs_54_7:A 1.000000e-03
*END

*D_NET pgm_pp7_10_s1 5.516080e-03
*CONN
*I lt_pp7_10_s1:Z O
*I vs_25_7:A I
*CAP
1 pgm_pp7_10_s1:1 5.516080e-03
*RES
1 lt_pp7_10_s1:Z pgm_pp7_10_s1:1 4.487056e+00
2 pgm_pp7_10_s1:1 vs_25_7:A 1.000000e-03
*END

*D_NET pgm_pp7_10_s2 3.690548e-03
*CONN
*I lt_pp7_10_s2:Z O
*I vs_46_7:A I
*CAP
1 pgm_pp7_10_s2:1 3.690548e-03
*RES
1 lt_pp7_10_s2:Z pgm_pp7_10_s2:1 2.975743e+00
2 pgm_pp7_10_s2:1 vs_46_7:A 1.000000e-03
*END

*D_NET pgm_pp7_11_s0 1.747910e-02
*CONN
*I lt_pp7_11_s0:Z O
*I vs_0_7:A I
*CAP
1 pgm_pp7_11_s0:1 1.747910e-02
*RES
1 lt_pp7_11_s0:Z pgm_pp7_11_s0:1 1.983497e+01
2 pgm_pp7_11_s0:1 vs_0_7:A 1.000000e-03
*END

*D_NET pgm_pp7_2_s2 2.134524e-02
*CONN
*I lt_pp7_2_s2:Z O
*I vs_47_7:A I
*I vs_45_7:A I
*I vs_36_7:A I
*I vs_32_7:A I
*CAP
1 pgm_pp7_2_s2:1 2.134524e-02
*RES
1 lt_pp7_2_s2:Z pgm_pp7_2_s2:1 2.422220e+01
2 pgm_pp7_2_s2:1 vs_47_7:A 1.000000e-03
3 pgm_pp7_2_s2:1 vs_45_7:A 1.000000e-03
4 pgm_pp7_2_s2:1 vs_36_7:A 1.000000e-03
5 pgm_pp7_2_s2:1 vs_32_7:A 1.000000e-03
*END

*D_NET pgm_pp7_2_s3 1.036303e-02
*CONN
*I lt_pp7_2_s3:Z O
*I vs_55_7:A I
*I vs_48_7:A I
*CAP
1 pgm_pp7_2_s3:1 1.036303e-02
*RES
1 lt_pp7_2_s3:Z pgm_pp7_2_s3:1 1.175979e+01
2 pgm_pp7_2_s3:1 vs_55_7:A 1.000000e-03
3 pgm_pp7_2_s3:1 vs_48_7:A 1.000000e-03
*END

*D_NET pgm_pp7_4_s3 5.498271e-03
*CONN
*I lt_pp7_4_s3:Z O
*I vs_56_7:A I
*CAP
1 pgm_pp7_4_s3:1 5.498271e-03
*RES
1 lt_pp7_4_s3:Z pgm_pp7_4_s3:1 4.078728e+00
2 pgm_pp7_4_s3:1 vs_56_7:A 1.000000e-03
*END

*D_NET pgm_pp7_6_s0 1.294639e-03
*CONN
*I lt_pp7_6_s0:Z O
*I vs_6_7:A I
*CAP
1 pgm_pp7_6_s0:1 1.294639e-03
*RES
1 lt_pp7_6_s0:Z pgm_pp7_6_s0:1 1.469133e+00
2 pgm_pp7_6_s0:1 vs_6_7:A 1.000000e-03
*END

*D_NET pgm_pp7_6_s1 1.201941e-02
*CONN
*I lt_pp7_6_s1:Z O
*I vs_31_7:A I
*CAP
1 pgm_pp7_6_s1:1 1.201941e-02
*RES
1 lt_pp7_6_s1:Z pgm_pp7_6_s1:1 1.278714e+01
2 pgm_pp7_6_s1:1 vs_31_7:A 1.000000e-03
*END

*D_NET pgm_pp7_6_s3 8.079172e-03
*CONN
*I lt_pp7_6_s3:Z O
*I vs_50_7:A I
*CAP
1 pgm_pp7_6_s3:1 8.079172e-03
*RES
1 lt_pp7_6_s3:Z pgm_pp7_6_s3:1 7.927705e+00
2 pgm_pp7_6_s3:1 vs_50_7:A 1.000000e-03
*END

*D_NET pgm_pp7_7_s1 3.860216e-03
*CONN
*I lt_pp7_7_s1:Z O
*I vs_24_7:A I
*I vs_22_7:A I
*CAP
1 pgm_pp7_7_s1:1 3.860216e-03
*RES
1 lt_pp7_7_s1:Z pgm_pp7_7_s1:1 4.380504e+00
2 pgm_pp7_7_s1:1 vs_24_7:A 1.000000e-03
3 pgm_pp7_7_s1:1 vs_22_7:A 1.000000e-03
*END

*D_NET pgm_pp7_7_s2 7.853747e-03
*CONN
*I lt_pp7_7_s2:Z O
*I vs_35_7:A I
*CAP
1 pgm_pp7_7_s2:1 7.853747e-03
*RES
1 lt_pp7_7_s2:Z pgm_pp7_7_s2:1 8.912291e+00
2 pgm_pp7_7_s2:1 vs_35_7:A 1.000000e-03
*END

*D_NET pgm_pp7_8_s0 1.142956e-02
*CONN
*I lt_pp7_8_s0:Z O
*I vs_1_7:A I
*CAP
1 pgm_pp7_8_s0:1 1.142956e-02
*RES
1 lt_pp7_8_s0:Z pgm_pp7_8_s0:1 1.297006e+01
2 pgm_pp7_8_s0:1 vs_1_7:A 1.000000e-03
*END

*D_NET pgm_pp7_8_s2 2.832207e-03
*CONN
*I lt_pp7_8_s2:Z O
*I vs_40_7:A I
*CAP
1 pgm_pp7_8_s2:1 2.832207e-03
*RES
1 lt_pp7_8_s2:Z pgm_pp7_8_s2:1 3.213938e+00
2 pgm_pp7_8_s2:1 vs_40_7:A 1.000000e-03
*END

*D_NET pgm_pp7_8_s3 2.227952e-02
*CONN
*I lt_pp7_8_s3:Z O
*I vs_61_7:A I
*I vs_49_7:A I
*CAP
1 pgm_pp7_8_s3:1 2.227952e-02
*RES
1 lt_pp7_8_s3:Z pgm_pp7_8_s3:1 2.037587e+01
2 pgm_pp7_8_s3:1 vs_61_7:A 1.000000e-03
3 pgm_pp7_8_s3:1 vs_49_7:A 1.000000e-03
*END

*D_NET pgm_pp7_9_s0 8.478847e-03
*CONN
*I lt_pp7_9_s0:Z O
*I vs_11_7:A I
*I vs_5_7:A I
*CAP
1 pgm_pp7_9_s0:1 8.478847e-03
*RES
1 lt_pp7_9_s0:Z pgm_pp7_9_s0:1 9.621643e+00
2 pgm_pp7_9_s0:1 vs_11_7:A 1.000000e-03
3 pgm_pp7_9_s0:1 vs_5_7:A 1.000000e-03
*END

*D_NET pgm_pp7_9_s2 9.715425e-03
*CONN
*I lt_pp7_9_s2:Z O
*I vs_39_7:A I
*I vs_37_7:A I
*CAP
1 pgm_pp7_9_s2:1 9.715425e-03
*RES
1 lt_pp7_9_s2:Z pgm_pp7_9_s2:1 1.046057e+01
2 pgm_pp7_9_s2:1 vs_39_7:A 1.000000e-03
3 pgm_pp7_9_s2:1 vs_37_7:A 1.000000e-03
*END

*D_NET pgm_pp7_9_s3 9.278738e-03
*CONN
*I lt_pp7_9_s3:Z O
*I vs_52_7:A I
*CAP
1 pgm_pp7_9_s3:1 9.278738e-03
*RES
1 lt_pp7_9_s3:Z pgm_pp7_9_s3:1 1.052935e+01
2 pgm_pp7_9_s3:1 vs_52_7:A 1.000000e-03
*END

*D_NET pgm_pp8_0_s3 9.356376e-03
*CONN
*I lt_pp8_0_s3:Z O
*I vs_54_8:A I
*CAP
1 pgm_pp8_0_s3:1 9.356376e-03
*RES
1 lt_pp8_0_s3:Z pgm_pp8_0_s3:1 8.901294e+00
2 pgm_pp8_0_s3:1 vs_54_8:A 1.000000e-03
*END

*D_NET pgm_pp8_10_s0 8.772446e-03
*CONN
*I lt_pp8_10_s0:Z O
*I vs_13_8:A I
*I vs_9_8:A I
*CAP
1 pgm_pp8_10_s0:1 8.772446e-03
*RES
1 lt_pp8_10_s0:Z pgm_pp8_10_s0:1 9.102538e+00
2 pgm_pp8_10_s0:1 vs_13_8:A 1.000000e-03
3 pgm_pp8_10_s0:1 vs_9_8:A 1.000000e-03
*END

*D_NET pgm_pp8_10_s3 3.321030e-03
*CONN
*I lt_pp8_10_s3:Z O
*I vs_60_8:A I
*CAP
1 pgm_pp8_10_s3:1 3.321030e-03
*RES
1 lt_pp8_10_s3:Z pgm_pp8_10_s3:1 3.768645e+00
2 pgm_pp8_10_s3:1 vs_60_8:A 1.000000e-03
*END

*D_NET pgm_pp8_12_s3 9.113888e-03
*CONN
*I lt_pp8_12_s3:Z O
*I vs_57_8:A I
*CAP
1 pgm_pp8_12_s3:1 9.113888e-03
*RES
1 lt_pp8_12_s3:Z pgm_pp8_12_s3:1 8.770104e+00
2 pgm_pp8_12_s3:1 vs_57_8:A 1.000000e-03
*END

*D_NET pgm_pp8_1_s0 1.712656e-02
*CONN
*I lt_pp8_1_s0:Z O
*I vs_14_8:A I
*CAP
1 pgm_pp8_1_s0:1 1.712656e-02
*RES
1 lt_pp8_1_s0:Z pgm_pp8_1_s0:1 1.943491e+01
2 pgm_pp8_1_s0:1 vs_14_8:A 1.000000e-03
*END

*D_NET pgm_pp8_1_s1 1.414452e-02
*CONN
*I lt_pp8_1_s1:Z O
*I vs_26_8:A I
*I vs_22_8:A I
*CAP
1 pgm_pp8_1_s1:1 1.414452e-02
*RES
1 lt_pp8_1_s1:Z pgm_pp8_1_s1:1 1.246214e+01
2 pgm_pp8_1_s1:1 vs_26_8:A 1.000000e-03
3 pgm_pp8_1_s1:1 vs_22_8:A 1.000000e-03
*END

*D_NET pgm_pp8_1_s2 1.636460e-02
*CONN
*I lt_pp8_1_s2:Z O
*I vs_45_8:A I
*CAP
1 pgm_pp8_1_s2:1 1.636460e-02
*RES
1 lt_pp8_1_s2:Z pgm_pp8_1_s2:1 1.743002e+01
2 pgm_pp8_1_s2:1 vs_45_8:A 1.000000e-03
*END

*D_NET pgm_pp8_2_s0 3.457308e-03
*CONN
*I lt_pp8_2_s0:Z O
*I vs_0_8:A I
*CAP
1 pgm_pp8_2_s0:1 3.457308e-03
*RES
1 lt_pp8_2_s0:Z pgm_pp8_2_s0:1 3.923291e+00
2 pgm_pp8_2_s0:1 vs_0_8:A 1.000000e-03
*END

*D_NET pgm_pp8_2_s1 2.056885e-02
*CONN
*I lt_pp8_2_s1:Z O
*I vs_29_8:A I
*I vs_23_8:A I
*I vs_17_8:A I
*CAP
1 pgm_pp8_2_s1:1 2.056885e-02
*RES
1 lt_pp8_2_s1:Z pgm_pp8_2_s1:1 2.156867e+01
2 pgm_pp8_2_s1:1 vs_29_8:A 1.000000e-03
3 pgm_pp8_2_s1:1 vs_23_8:A 1.000000e-03
4 pgm_pp8_2_s1:1 vs_17_8:A 1.000000e-03
*END

*D_NET pgm_pp8_2_s2 1.309632e-02
*CONN
*I lt_pp8_2_s2:Z O
*I vs_42_8:A I
*I vs_37_8:A I
*CAP
1 pgm_pp8_2_s2:1 1.309632e-02
*RES
1 lt_pp8_2_s2:Z pgm_pp8_2_s2:1 1.258100e+01
2 pgm_pp8_2_s2:1 vs_42_8:A 1.000000e-03
3 pgm_pp8_2_s2:1 vs_37_8:A 1.000000e-03
*END

*D_NET pgm_pp8_2_s3 4.263124e-03
*CONN
*I lt_pp8_2_s3:Z O
*I vs_53_8:A I
*CAP
1 pgm_pp8_2_s3:1 4.263124e-03
*RES
1 lt_pp8_2_s3:Z pgm_pp8_2_s3:1 4.837717e+00
2 pgm_pp8_2_s3:1 vs_53_8:A 1.000000e-03
*END

*D_NET pgm_pp8_3_s0 3.638024e-03
*CONN
*I lt_pp8_3_s0:Z O
*I vs_1_8:A I
*CAP
1 pgm_pp8_3_s0:1 3.638024e-03
*RES
1 lt_pp8_3_s0:Z pgm_pp8_3_s0:1 4.128364e+00
2 pgm_pp8_3_s0:1 vs_1_8:A 1.000000e-03
*END

*D_NET pgm_pp8_4_s0 4.846748e-03
*CONN
*I lt_pp8_4_s0:Z O
*I vs_8_8:A I
*I vs_7_8:A I
*CAP
1 pgm_pp8_4_s0:1 4.846748e-03
*RES
1 lt_pp8_4_s0:Z pgm_pp8_4_s0:1 5.500003e+00
2 pgm_pp8_4_s0:1 vs_8_8:A 1.000000e-03
3 pgm_pp8_4_s0:1 vs_7_8:A 1.000000e-03
*END

*D_NET pgm_pp8_5_s0 2.725555e-04
*CONN
*I lt_pp8_5_s0:Z O
*I vs_6_8:A I
*CAP
1 pgm_pp8_5_s0:1 2.725555e-04
*RES
1 lt_pp8_5_s0:Z pgm_pp8_5_s0:1 3.092911e-01
2 pgm_pp8_5_s0:1 vs_6_8:A 1.000000e-03
*END

*D_NET pgm_pp8_6_s1 4.846748e-03
*CONN
*I lt_pp8_6_s1:Z O
*I vs_20_8:A I
*CAP
1 pgm_pp8_6_s1:1 4.846748e-03
*RES
1 lt_pp8_6_s1:Z pgm_pp8_6_s1:1 5.500003e+00
2 pgm_pp8_6_s1:1 vs_20_8:A 1.000000e-03
*END

*D_NET pgm_pp8_6_s2 7.910035e-03
*CONN
*I lt_pp8_6_s2:Z O
*I vs_44_8:A I
*CAP
1 pgm_pp8_6_s2:1 7.910035e-03
*RES
1 lt_pp8_6_s2:Z pgm_pp8_6_s2:1 8.976166e+00
2 pgm_pp8_6_s2:1 vs_44_8:A 1.000000e-03
*END

*D_NET pgm_pp8_6_s3 9.420941e-04
*CONN
*I lt_pp8_6_s3:Z O
*I vs_56_8:A I
*CAP
1 pgm_pp8_6_s3:1 9.420941e-04
*RES
1 lt_pp8_6_s3:Z pgm_pp8_6_s3:1 1.069071e+00
2 pgm_pp8_6_s3:1 vs_56_8:A 1.000000e-03
*END

*D_NET pgm_pp8_7_s0 7.127919e-03
*CONN
*I lt_pp8_7_s0:Z O
*I vs_3_8:A I
*CAP
1 pgm_pp8_7_s0:1 7.127919e-03
*RES
1 lt_pp8_7_s0:Z pgm_pp8_7_s0:1 8.088635e+00
2 pgm_pp8_7_s0:1 vs_3_8:A 1.000000e-03
*END

*D_NET pgm_pp8_7_s2 1.392587e-02
*CONN
*I lt_pp8_7_s2:Z O
*I vs_32_8:A I
*CAP
1 pgm_pp8_7_s2:1 1.392587e-02
*RES
1 lt_pp8_7_s2:Z pgm_pp8_7_s2:1 1.335426e+01
2 pgm_pp8_7_s2:1 vs_32_8:A 1.000000e-03
*END

*D_NET pgm_pp8_7_s3 6.855364e-03
*CONN
*I lt_pp8_7_s3:Z O
*I vs_51_8:A I
*CAP
1 pgm_pp8_7_s3:1 6.855364e-03
*RES
1 lt_pp8_7_s3:Z pgm_pp8_7_s3:1 7.779344e+00
2 pgm_pp8_7_s3:1 vs_51_8:A 1.000000e-03
*END

*D_NET pgm_pp8_8_s2 5.880682e-03
*CONN
*I lt_pp8_8_s2:Z O
*I vs_38_8:A I
*CAP
1 pgm_pp8_8_s2:1 5.880682e-03
*RES
1 lt_pp8_8_s2:Z pgm_pp8_8_s2:1 6.673292e+00
2 pgm_pp8_8_s2:1 vs_38_8:A 1.000000e-03
*END

*D_NET pgm_pp8_8_s3 1.088445e-02
*CONN
*I lt_pp8_8_s3:Z O
*I vs_49_8:A I
*CAP
1 pgm_pp8_8_s3:1 1.088445e-02
*RES
1 lt_pp8_8_s3:Z pgm_pp8_8_s3:1 1.235147e+01
2 pgm_pp8_8_s3:1 vs_49_8:A 1.000000e-03
*END

*D_NET pgm_pp8_9_s0 1.990840e-03
*CONN
*I lt_pp8_9_s0:Z O
*I vs_11_8:A I
*CAP
1 pgm_pp8_9_s0:1 1.990840e-03
*RES
1 lt_pp8_9_s0:Z pgm_pp8_9_s0:1 2.259170e+00
2 pgm_pp8_9_s0:1 vs_11_8:A 1.000000e-03
*END

*D_NET pgm_pp8_9_s1 3.854291e-03
*CONN
*I lt_pp8_9_s1:Z O
*I vs_24_8:A I
*CAP
1 pgm_pp8_9_s1:1 3.854291e-03
*RES
1 lt_pp8_9_s1:Z pgm_pp8_9_s1:1 4.373780e+00
2 pgm_pp8_9_s1:1 vs_24_8:A 1.000000e-03
*END

*D_NET pgm_pp8_9_s2 5.039315e-03
*CONN
*I lt_pp8_9_s2:Z O
*I vs_40_8:A I
*CAP
1 pgm_pp8_9_s2:1 5.039315e-03
*RES
1 lt_pp8_9_s2:Z pgm_pp8_9_s2:1 5.718524e+00
2 pgm_pp8_9_s2:1 vs_40_8:A 1.000000e-03
*END

*D_NET pgm_pp9_0_s1 6.470231e-03
*CONN
*I lt_pp9_0_s1:Z O
*I vs_20_9:A I
*CAP
1 pgm_pp9_0_s1:1 6.470231e-03
*RES
1 lt_pp9_0_s1:Z pgm_pp9_0_s1:1 7.342302e+00
2 pgm_pp9_0_s1:1 vs_20_9:A 1.000000e-03
*END

*D_NET pgm_pp9_10_s3 1.106502e-02
*CONN
*I lt_pp9_10_s3:Z O
*I vs_52_9:A I
*CAP
1 pgm_pp9_10_s3:1 1.106502e-02
*RES
1 lt_pp9_10_s3:Z pgm_pp9_10_s3:1 1.156014e+01
2 pgm_pp9_10_s3:1 vs_52_9:A 1.000000e-03
*END

*D_NET pgm_pp9_11_s1 1.629408e-03
*CONN
*I lt_pp9_11_s1:Z O
*I vs_29_9:A I
*CAP
1 pgm_pp9_11_s1:1 1.629408e-03
*RES
1 lt_pp9_11_s1:Z pgm_pp9_11_s1:1 1.849023e+00
2 pgm_pp9_11_s1:1 vs_29_9:A 1.000000e-03
*END

*D_NET pgm_pp9_11_s2 8.924727e-03
*CONN
*I lt_pp9_11_s2:Z O
*I vs_41_9:A I
*CAP
1 pgm_pp9_11_s2:1 8.924727e-03
*RES
1 lt_pp9_11_s2:Z pgm_pp9_11_s2:1 8.699427e+00
2 pgm_pp9_11_s2:1 vs_41_9:A 1.000000e-03
*END

*D_NET pgm_pp9_12_s0 1.375666e-02
*CONN
*I lt_pp9_12_s0:Z O
*I vs_13_9:A I
*I vs_12_9:A I
*I vs_7_9:A I
*CAP
1 pgm_pp9_12_s0:1 1.375666e-02
*RES
1 lt_pp9_12_s0:Z pgm_pp9_12_s0:1 1.418262e+01
2 pgm_pp9_12_s0:1 vs_13_9:A 1.000000e-03
3 pgm_pp9_12_s0:1 vs_12_9:A 1.000000e-03
4 pgm_pp9_12_s0:1 vs_7_9:A 1.000000e-03
*END

*D_NET pgm_pp9_12_s1 1.901964e-03
*CONN
*I lt_pp9_12_s1:Z O
*I vs_31_9:A I
*CAP
1 pgm_pp9_12_s1:1 1.901964e-03
*RES
1 lt_pp9_12_s1:Z pgm_pp9_12_s1:1 2.158314e+00
2 pgm_pp9_12_s1:1 vs_31_9:A 1.000000e-03
*END

*D_NET pgm_pp9_12_s3 1.643570e-02
*CONN
*I lt_pp9_12_s3:Z O
*I vs_63_9:A I
*I vs_53_9:A I
*CAP
1 pgm_pp9_12_s3:1 1.643570e-02
*RES
1 lt_pp9_12_s3:Z pgm_pp9_12_s3:1 1.751071e+01
2 pgm_pp9_12_s3:1 vs_63_9:A 1.000000e-03
3 pgm_pp9_12_s3:1 vs_53_9:A 1.000000e-03
*END

*D_NET pgm_pp9_1_s0 2.564997e-03
*CONN
*I lt_pp9_1_s0:Z O
*I vs_2_9:A I
*CAP
1 pgm_pp9_1_s0:1 2.564997e-03
*RES
1 lt_pp9_1_s0:Z pgm_pp9_1_s0:1 1.770477e+00
2 pgm_pp9_1_s0:1 vs_2_9:A 1.000000e-03
*END

*D_NET pgm_pp9_1_s1 2.768085e-03
*CONN
*I lt_pp9_1_s1:Z O
*I vs_18_9:A I
*CAP
1 pgm_pp9_1_s1:1 2.768085e-03
*RES
1 lt_pp9_1_s1:Z pgm_pp9_1_s1:1 1.569000e+00
2 pgm_pp9_1_s1:1 vs_18_9:A 1.000000e-03
*END

*D_NET pgm_pp9_2_s0 1.006531e-02
*CONN
*I lt_pp9_2_s0:Z O
*I vs_9_9:A I
*CAP
1 pgm_pp9_2_s0:1 1.006531e-02
*RES
1 lt_pp9_2_s0:Z pgm_pp9_2_s0:1 9.993743e+00
2 pgm_pp9_2_s0:1 vs_9_9:A 1.000000e-03
*END

*D_NET pgm_pp9_2_s1 6.686498e-03
*CONN
*I lt_pp9_2_s1:Z O
*I vs_22_9:A I
*CAP
1 pgm_pp9_2_s1:1 6.686498e-03
*RES
1 lt_pp9_2_s1:Z pgm_pp9_2_s1:1 7.587718e+00
2 pgm_pp9_2_s1:1 vs_22_9:A 1.000000e-03
*END

*D_NET pgm_pp9_3_s2 7.240497e-03
*CONN
*I lt_pp9_3_s2:Z O
*I vs_39_9:A I
*CAP
1 pgm_pp9_3_s2:1 7.240497e-03
*RES
1 lt_pp9_3_s2:Z pgm_pp9_3_s2:1 8.216386e+00
2 pgm_pp9_3_s2:1 vs_39_9:A 1.000000e-03
*END

*D_NET pgm_pp9_4_s3 3.718013e-03
*CONN
*I lt_pp9_4_s3:Z O
*I vs_50_9:A I
*CAP
1 pgm_pp9_4_s3:1 3.718013e-03
*RES
1 lt_pp9_4_s3:Z pgm_pp9_4_s3:1 4.219134e+00
2 pgm_pp9_4_s3:1 vs_50_9:A 1.000000e-03
*END

*D_NET pgm_pp9_5_s1 9.290008e-03
*CONN
*I lt_pp9_5_s1:Z O
*I vs_16_9:A I
*CAP
1 pgm_pp9_5_s1:1 9.290008e-03
*RES
1 lt_pp9_5_s1:Z pgm_pp9_5_s1:1 9.401899e+00
2 pgm_pp9_5_s1:1 vs_16_9:A 1.000000e-03
*END

*D_NET pgm_pp9_6_s0 1.115138e-02
*CONN
*I lt_pp9_6_s0:Z O
*I vs_8_9:A I
*I vs_1_9:A I
*CAP
1 pgm_pp9_6_s0:1 1.115138e-02
*RES
1 lt_pp9_6_s0:Z pgm_pp9_6_s0:1 1.180211e+01
2 pgm_pp9_6_s0:1 vs_8_9:A 1.000000e-03
3 pgm_pp9_6_s0:1 vs_1_9:A 1.000000e-03
*END

*D_NET pgm_pp9_6_s1 1.334041e-02
*CONN
*I lt_pp9_6_s1:Z O
*I vs_27_9:A I
*I vs_19_9:A I
*CAP
1 pgm_pp9_6_s1:1 1.334041e-02
*RES
1 lt_pp9_6_s1:Z pgm_pp9_6_s1:1 1.513846e+01
2 pgm_pp9_6_s1:1 vs_27_9:A 1.000000e-03
3 pgm_pp9_6_s1:1 vs_19_9:A 1.000000e-03
*END

*D_NET pgm_pp9_8_s1 1.161027e-02
*CONN
*I lt_pp9_8_s1:Z O
*I vs_17_9:A I
*CAP
1 pgm_pp9_8_s1:1 1.161027e-02
*RES
1 lt_pp9_8_s1:Z pgm_pp9_8_s1:1 1.317513e+01
2 pgm_pp9_8_s1:1 vs_17_9:A 1.000000e-03
*END

*D_NET pgm_pp9_9_s2 1.341676e-02
*CONN
*I lt_pp9_9_s2:Z O
*I vs_37_9:A I
*CAP
1 pgm_pp9_9_s2:1 1.341676e-02
*RES
1 lt_pp9_9_s2:Z pgm_pp9_9_s2:1 1.013077e+01
2 pgm_pp9_9_s2:1 vs_37_9:A 1.000000e-03
*END

