*SPEF "ieee 1481-1999"
*DESIGN "top"
*DATE "r3"
*VENDOR "r3_prog_spef"
*PROGRAM "r3_prog_spef.py"
*VERSION "1"
*DESIGN_FLOW "NAME_SCOPE LOCAL" "PIN_CAP NONE"
*DIVIDER /
*DELIMITER :
*BUS_DELIMITER []
*T_UNIT 1 NS
*C_UNIT 1 PF
*R_UNIT 1 OHM
*L_UNIT 1 HENRY

*D_NET pgm_pn0_0_s0 8.953467e-03
*CONN
*I lt_pn0_0_s0:Z O
*I vs_6_0:A I
*CAP
1 pgm_pn0_0_s0:1 8.953467e-03
*RES
1 lt_pn0_0_s0:Z pgm_pn0_0_s0:1 8.444081e+00
2 pgm_pn0_0_s0:1 vs_6_0:A 1.000000e-03
*END

*D_NET pgm_pn0_0_s1 1.485577e-02
*CONN
*I lt_pn0_0_s1:Z O
*I vs_26_0:A I
*I vs_25_0:A I
*CAP
1 pgm_pn0_0_s1:1 1.485577e-02
*RES
1 lt_pn0_0_s1:Z pgm_pn0_0_s1:1 1.542987e+01
2 pgm_pn0_0_s1:1 vs_26_0:A 1.000000e-03
3 pgm_pn0_0_s1:1 vs_25_0:A 1.000000e-03
*END

*D_NET pgm_pn0_0_s2 1.922701e-02
*CONN
*I lt_pn0_0_s2:Z O
*I vs_46_0:A I
*CAP
1 pgm_pn0_0_s2:1 1.922701e-02
*RES
1 lt_pn0_0_s2:Z pgm_pn0_0_s2:1 2.181847e+01
2 pgm_pn0_0_s2:1 vs_46_0:A 1.000000e-03
*END

*D_NET pgm_pn0_11_s0 5.339281e-03
*CONN
*I lt_pn0_11_s0:Z O
*I vs_11_0:A I
*CAP
1 pgm_pn0_11_s0:1 5.339281e-03
*RES
1 lt_pn0_11_s0:Z pgm_pn0_11_s0:1 5.350624e+00
2 pgm_pn0_11_s0:1 vs_11_0:A 1.000000e-03
*END

*D_NET pgm_pn0_12_s0 1.913221e-02
*CONN
*I lt_pn0_12_s0:Z O
*I vs_4_0:A I
*CAP
1 pgm_pn0_12_s0:1 1.913221e-02
*RES
1 lt_pn0_12_s0:Z pgm_pn0_12_s0:1 2.171089e+01
2 pgm_pn0_12_s0:1 vs_4_0:A 1.000000e-03
*END

*D_NET pgm_pn0_1_s0 1.661553e-02
*CONN
*I lt_pn0_1_s0:Z O
*I vs_12_0:A I
*I vs_3_0:A I
*I vs_2_0:A I
*CAP
1 pgm_pn0_1_s0:1 1.661553e-02
*RES
1 lt_pn0_1_s0:Z pgm_pn0_1_s0:1 1.742682e+01
2 pgm_pn0_1_s0:1 vs_12_0:A 1.000000e-03
3 pgm_pn0_1_s0:1 vs_3_0:A 1.000000e-03
4 pgm_pn0_1_s0:1 vs_2_0:A 1.000000e-03
*END

*D_NET pgm_pn0_1_s1 2.168594e-03
*CONN
*I lt_pn0_1_s1:Z O
*I vs_17_0:A I
*CAP
1 pgm_pn0_1_s1:1 2.168594e-03
*RES
1 lt_pn0_1_s1:Z pgm_pn0_1_s1:1 2.460882e+00
2 pgm_pn0_1_s1:1 vs_17_0:A 1.000000e-03
*END

*D_NET pgm_pn0_1_s2 1.089630e-02
*CONN
*I lt_pn0_1_s2:Z O
*I vs_41_0:A I
*CAP
1 pgm_pn0_1_s2:1 1.089630e-02
*RES
1 lt_pn0_1_s2:Z pgm_pn0_1_s2:1 1.236492e+01
2 pgm_pn0_1_s2:1 vs_41_0:A 1.000000e-03
*END

*D_NET pgm_pn0_1_s3 2.066763e-02
*CONN
*I lt_pn0_1_s3:Z O
*I vs_63_0:A I
*I vs_55_0:A I
*CAP
1 pgm_pn0_1_s3:1 2.066763e-02
*RES
1 lt_pn0_1_s3:Z pgm_pn0_1_s3:1 1.972047e+01
2 pgm_pn0_1_s3:1 vs_63_0:A 1.000000e-03
3 pgm_pn0_1_s3:1 vs_55_0:A 1.000000e-03
*END

*D_NET pgm_pn0_2_s1 1.797385e-02
*CONN
*I lt_pn0_2_s1:Z O
*I vs_31_0:A I
*CAP
1 pgm_pn0_2_s1:1 1.797385e-02
*RES
1 lt_pn0_2_s1:Z pgm_pn0_2_s1:1 2.039640e+01
2 pgm_pn0_2_s1:1 vs_31_0:A 1.000000e-03
*END

*D_NET pgm_pn0_2_s2 1.149770e-02
*CONN
*I lt_pn0_2_s2:Z O
*I vs_42_0:A I
*I vs_38_0:A I
*I vs_35_0:A I
*CAP
1 pgm_pn0_2_s2:1 1.149770e-02
*RES
1 lt_pn0_2_s2:Z pgm_pn0_2_s2:1 1.304738e+01
2 pgm_pn0_2_s2:1 vs_42_0:A 1.000000e-03
3 pgm_pn0_2_s2:1 vs_38_0:A 1.000000e-03
4 pgm_pn0_2_s2:1 vs_35_0:A 1.000000e-03
*END

*D_NET pgm_pn0_3_s3 1.360350e-02
*CONN
*I lt_pn0_3_s3:Z O
*I vs_60_0:A I
*CAP
1 pgm_pn0_3_s3:1 1.360350e-02
*RES
1 lt_pn0_3_s3:Z pgm_pn0_3_s3:1 1.429677e+01
2 pgm_pn0_3_s3:1 vs_60_0:A 1.000000e-03
*END

*D_NET pgm_pn0_4_s0 8.262580e-03
*CONN
*I lt_pn0_4_s0:Z O
*I vs_0_0:A I
*CAP
1 pgm_pn0_4_s0:1 8.262580e-03
*RES
1 lt_pn0_4_s0:Z pgm_pn0_4_s0:1 9.376228e+00
2 pgm_pn0_4_s0:1 vs_0_0:A 1.000000e-03
*END

*D_NET pgm_pn0_5_s2 9.874212e-03
*CONN
*I lt_pn0_5_s2:Z O
*I vs_45_0:A I
*CAP
1 pgm_pn0_5_s2:1 9.874212e-03
*RES
1 lt_pn0_5_s2:Z pgm_pn0_5_s2:1 1.120508e+01
2 pgm_pn0_5_s2:1 vs_45_0:A 1.000000e-03
*END

*D_NET pgm_pn0_5_s3 5.975484e-03
*CONN
*I lt_pn0_5_s3:Z O
*I vs_52_0:A I
*I vs_51_0:A I
*CAP
1 pgm_pn0_5_s3:1 5.975484e-03
*RES
1 lt_pn0_5_s3:Z pgm_pn0_5_s3:1 6.780872e+00
2 pgm_pn0_5_s3:1 vs_52_0:A 1.000000e-03
3 pgm_pn0_5_s3:1 vs_51_0:A 1.000000e-03
*END

*D_NET pgm_pn0_6_s1 4.790460e-03
*CONN
*I lt_pn0_6_s1:Z O
*I vs_27_0:A I
*CAP
1 pgm_pn0_6_s1:1 4.790460e-03
*RES
1 lt_pn0_6_s1:Z pgm_pn0_6_s1:1 5.436128e+00
2 pgm_pn0_6_s1:1 vs_27_0:A 1.000000e-03
*END

*D_NET pgm_pn0_7_s1 1.128810e-02
*CONN
*I lt_pn0_7_s1:Z O
*I vs_18_0:A I
*CAP
1 pgm_pn0_7_s1:1 1.128810e-02
*RES
1 lt_pn0_7_s1:Z pgm_pn0_7_s1:1 1.210124e+01
2 pgm_pn0_7_s1:1 vs_18_0:A 1.000000e-03
*END

*D_NET pgm_pn0_7_s2 8.336644e-03
*CONN
*I lt_pn0_7_s2:Z O
*I vs_47_0:A I
*I vs_43_0:A I
*CAP
1 pgm_pn0_7_s2:1 8.336644e-03
*RES
1 lt_pn0_7_s2:Z pgm_pn0_7_s2:1 9.460274e+00
2 pgm_pn0_7_s2:1 vs_47_0:A 1.000000e-03
3 pgm_pn0_7_s2:1 vs_43_0:A 1.000000e-03
*END

*D_NET pgm_pn0_8_s2 9.228374e-03
*CONN
*I lt_pn0_8_s2:Z O
*I vs_36_0:A I
*CAP
1 pgm_pn0_8_s2:1 9.228374e-03
*RES
1 lt_pn0_8_s2:Z pgm_pn0_8_s2:1 1.047219e+01
2 pgm_pn0_8_s2:1 vs_36_0:A 1.000000e-03
*END

*D_NET pgm_pn0_9_s2 1.486909e-02
*CONN
*I lt_pn0_9_s2:Z O
*I vs_33_0:A I
*CAP
1 pgm_pn0_9_s2:1 1.486909e-02
*RES
1 lt_pn0_9_s2:Z pgm_pn0_9_s2:1 1.687318e+01
2 pgm_pn0_9_s2:1 vs_33_0:A 1.000000e-03
*END

*D_NET pgm_pn10_0_s0 1.630862e-02
*CONN
*I lt_pn10_0_s0:Z O
*I vs_11_10:A I
*CAP
1 pgm_pn10_0_s0:1 1.630862e-02
*RES
1 lt_pn10_0_s0:Z pgm_pn10_0_s0:1 1.650262e+01
2 pgm_pn10_0_s0:1 vs_11_10:A 1.000000e-03
*END

*D_NET pgm_pn10_0_s3 5.152060e-03
*CONN
*I lt_pn10_0_s3:Z O
*I vs_51_10:A I
*CAP
1 pgm_pn10_0_s3:1 5.152060e-03
*RES
1 lt_pn10_0_s3:Z pgm_pn10_0_s3:1 3.986333e+00
2 pgm_pn10_0_s3:1 vs_51_10:A 1.000000e-03
*END

*D_NET pgm_pn10_10_s2 2.102296e-02
*CONN
*I lt_pn10_10_s2:Z O
*I vs_46_10:A I
*I vs_33_10:A I
*CAP
1 pgm_pn10_10_s2:1 2.102296e-02
*RES
1 lt_pn10_10_s2:Z pgm_pn10_10_s2:1 1.381456e+01
2 pgm_pn10_10_s2:1 vs_46_10:A 1.000000e-03
3 pgm_pn10_10_s2:1 vs_33_10:A 1.000000e-03
*END

*D_NET pgm_pn10_11_s0 1.842120e-02
*CONN
*I lt_pn10_11_s0:Z O
*I vs_1_10:A I
*CAP
1 pgm_pn10_11_s0:1 1.842120e-02
*RES
1 lt_pn10_11_s0:Z pgm_pn10_11_s0:1 2.090405e+01
2 pgm_pn10_11_s0:1 vs_1_10:A 1.000000e-03
*END

*D_NET pgm_pn10_12_s0 4.541604e-03
*CONN
*I lt_pn10_12_s0:Z O
*I vs_13_10:A I
*CAP
1 pgm_pn10_12_s0:1 4.541604e-03
*RES
1 lt_pn10_12_s0:Z pgm_pn10_12_s0:1 5.153731e+00
2 pgm_pn10_12_s0:1 vs_13_10:A 1.000000e-03
*END

*D_NET pgm_pn10_12_s1 1.941593e-02
*CONN
*I lt_pn10_12_s1:Z O
*I vs_20_10:A I
*CAP
1 pgm_pn10_12_s1:1 1.941593e-02
*RES
1 lt_pn10_12_s1:Z pgm_pn10_12_s1:1 1.701677e+01
2 pgm_pn10_12_s1:1 vs_20_10:A 1.000000e-03
*END

*D_NET pgm_pn10_12_s2 1.849884e-02
*CONN
*I lt_pn10_12_s2:Z O
*I vs_35_10:A I
*CAP
1 pgm_pn10_12_s2:1 1.849884e-02
*RES
1 lt_pn10_12_s2:Z pgm_pn10_12_s2:1 1.927599e+01
2 pgm_pn10_12_s2:1 vs_35_10:A 1.000000e-03
*END

*D_NET pgm_pn10_12_s3 4.541604e-03
*CONN
*I lt_pn10_12_s3:Z O
*I vs_61_10:A I
*CAP
1 pgm_pn10_12_s3:1 4.541604e-03
*RES
1 lt_pn10_12_s3:Z pgm_pn10_12_s3:1 5.153731e+00
2 pgm_pn10_12_s3:1 vs_61_10:A 1.000000e-03
*END

*D_NET pgm_pn10_1_s2 1.273887e-02
*CONN
*I lt_pn10_1_s2:Z O
*I vs_42_10:A I
*CAP
1 pgm_pn10_1_s2:1 1.273887e-02
*RES
1 lt_pn10_1_s2:Z pgm_pn10_1_s2:1 1.345959e+01
2 pgm_pn10_1_s2:1 vs_42_10:A 1.000000e-03
*END

*D_NET pgm_pn10_1_s3 5.799227e-03
*CONN
*I lt_pn10_1_s3:Z O
*I vs_53_10:A I
*CAP
1 pgm_pn10_1_s3:1 5.799227e-03
*RES
1 lt_pn10_1_s3:Z pgm_pn10_1_s3:1 5.152664e+00
2 pgm_pn10_1_s3:1 vs_53_10:A 1.000000e-03
*END

*D_NET pgm_pn10_3_s2 1.637053e-02
*CONN
*I lt_pn10_3_s2:Z O
*I vs_45_10:A I
*I vs_36_10:A I
*CAP
1 pgm_pn10_3_s2:1 1.637053e-02
*RES
1 lt_pn10_3_s2:Z pgm_pn10_3_s2:1 1.743674e+01
2 pgm_pn10_3_s2:1 vs_45_10:A 1.000000e-03
3 pgm_pn10_3_s2:1 vs_36_10:A 1.000000e-03
*END

*D_NET pgm_pn10_4_s1 6.458381e-03
*CONN
*I lt_pn10_4_s1:Z O
*I vs_17_10:A I
*CAP
1 pgm_pn10_4_s1:1 6.458381e-03
*RES
1 lt_pn10_4_s1:Z pgm_pn10_4_s1:1 7.328855e+00
2 pgm_pn10_4_s1:1 vs_17_10:A 1.000000e-03
*END

*D_NET pgm_pn10_4_s3 4.977101e-03
*CONN
*I lt_pn10_4_s3:Z O
*I vs_50_10:A I
*CAP
1 pgm_pn10_4_s3:1 4.977101e-03
*RES
1 lt_pn10_4_s3:Z pgm_pn10_4_s3:1 5.647925e+00
2 pgm_pn10_4_s3:1 vs_50_10:A 1.000000e-03
*END

*D_NET pgm_pn10_5_s2 8.917306e-04
*CONN
*I lt_pn10_5_s2:Z O
*I vs_38_10:A I
*CAP
1 pgm_pn10_5_s2:1 8.917306e-04
*RES
1 lt_pn10_5_s2:Z pgm_pn10_5_s2:1 1.011920e+00
2 pgm_pn10_5_s2:1 vs_38_10:A 1.000000e-03
*END

*D_NET pgm_pn10_5_s3 5.249656e-03
*CONN
*I lt_pn10_5_s3:Z O
*I vs_58_10:A I
*CAP
1 pgm_pn10_5_s3:1 5.249656e-03
*RES
1 lt_pn10_5_s3:Z pgm_pn10_5_s3:1 5.957216e+00
2 pgm_pn10_5_s3:1 vs_58_10:A 1.000000e-03
*END

*D_NET pgm_pn10_6_s0 3.098838e-03
*CONN
*I lt_pn10_6_s0:Z O
*I vs_6_10:A I
*CAP
1 pgm_pn10_6_s0:1 3.098838e-03
*RES
1 lt_pn10_6_s0:Z pgm_pn10_6_s0:1 3.516506e+00
2 pgm_pn10_6_s0:1 vs_6_10:A 1.000000e-03
*END

*D_NET pgm_pn10_6_s1 9.773485e-03
*CONN
*I lt_pn10_6_s1:Z O
*I vs_30_10:A I
*CAP
1 pgm_pn10_6_s1:1 9.773485e-03
*RES
1 lt_pn10_6_s1:Z pgm_pn10_6_s1:1 1.109078e+01
2 pgm_pn10_6_s1:1 vs_30_10:A 1.000000e-03
*END

*D_NET pgm_pn10_6_s2 4.165359e-03
*CONN
*I lt_pn10_6_s2:Z O
*I vs_37_10:A I
*CAP
1 pgm_pn10_6_s2:1 4.165359e-03
*RES
1 lt_pn10_6_s2:Z pgm_pn10_6_s2:1 4.726775e+00
2 pgm_pn10_6_s2:1 vs_37_10:A 1.000000e-03
*END

*D_NET pgm_pn10_8_s2 1.350927e-03
*CONN
*I lt_pn10_8_s2:Z O
*I vs_43_10:A I
*CAP
1 pgm_pn10_8_s2:1 1.350927e-03
*RES
1 lt_pn10_8_s2:Z pgm_pn10_8_s2:1 1.533008e+00
2 pgm_pn10_8_s2:1 vs_43_10:A 1.000000e-03
*END

*D_NET pgm_pn10_9_s1 7.578228e-03
*CONN
*I lt_pn10_9_s1:Z O
*I vs_23_10:A I
*CAP
1 pgm_pn10_9_s1:1 7.578228e-03
*RES
1 lt_pn10_9_s1:Z pgm_pn10_9_s1:1 8.599638e+00
2 pgm_pn10_9_s1:1 vs_23_10:A 1.000000e-03
*END

*D_NET pgm_pn10_9_s3 1.092119e-02
*CONN
*I lt_pn10_9_s3:Z O
*I vs_60_10:A I
*I vs_54_10:A I
*CAP
1 pgm_pn10_9_s3:1 1.092119e-02
*RES
1 lt_pn10_9_s3:Z pgm_pn10_9_s3:1 1.182885e+01
2 pgm_pn10_9_s3:1 vs_60_10:A 1.000000e-03
3 pgm_pn10_9_s3:1 vs_54_10:A 1.000000e-03
*END

*D_NET pgm_pn11_0_s0 2.241177e-02
*CONN
*I lt_pn11_0_s0:Z O
*I vs_15_11:A I
*I vs_13_11:A I
*CAP
1 pgm_pn11_0_s0:1 2.241177e-02
*RES
1 lt_pn11_0_s0:Z pgm_pn11_0_s0:1 2.543247e+01
2 pgm_pn11_0_s0:1 vs_15_11:A 1.000000e-03
3 pgm_pn11_0_s0:1 vs_13_11:A 1.000000e-03
*END

*D_NET pgm_pn11_10_s0 2.031293e-03
*CONN
*I lt_pn11_10_s0:Z O
*I vs_12_11:A I
*CAP
1 pgm_pn11_10_s0:1 2.031293e-03
*RES
1 lt_pn11_10_s0:Z pgm_pn11_10_s0:1 1.020860e+00
2 pgm_pn11_10_s0:1 vs_12_11:A 1.000000e-03
*END

*D_NET pgm_pn11_11_s1 4.294246e-03
*CONN
*I lt_pn11_11_s1:Z O
*I vs_28_11:A I
*CAP
1 pgm_pn11_11_s1:1 4.294246e-03
*RES
1 lt_pn11_11_s1:Z pgm_pn11_11_s1:1 3.444839e+00
2 pgm_pn11_11_s1:1 vs_28_11:A 1.000000e-03
*END

*D_NET pgm_pn11_12_s2 1.662885e-02
*CONN
*I lt_pn11_12_s2:Z O
*I vs_36_11:A I
*CAP
1 pgm_pn11_12_s2:1 1.662885e-02
*RES
1 lt_pn11_12_s2:Z pgm_pn11_12_s2:1 1.887012e+01
2 pgm_pn11_12_s2:1 vs_36_11:A 1.000000e-03
*END

*D_NET pgm_pn11_1_s0 7.052832e-03
*CONN
*I lt_pn11_1_s0:Z O
*I vs_6_11:A I
*CAP
1 pgm_pn11_1_s0:1 7.052832e-03
*RES
1 lt_pn11_1_s0:Z pgm_pn11_1_s0:1 6.719213e+00
2 pgm_pn11_1_s0:1 vs_6_11:A 1.000000e-03
*END

*D_NET pgm_pn11_1_s1 1.086371e-02
*CONN
*I lt_pn11_1_s1:Z O
*I vs_24_11:A I
*CAP
1 pgm_pn11_1_s1:1 1.086371e-02
*RES
1 lt_pn11_1_s1:Z pgm_pn11_1_s1:1 1.232794e+01
2 pgm_pn11_1_s1:1 vs_24_11:A 1.000000e-03
*END

*D_NET pgm_pn11_1_s2 1.420993e-02
*CONN
*I lt_pn11_1_s2:Z O
*I vs_43_11:A I
*CAP
1 pgm_pn11_1_s2:1 1.420993e-02
*RES
1 lt_pn11_1_s2:Z pgm_pn11_1_s2:1 1.469698e+01
2 pgm_pn11_1_s2:1 vs_43_11:A 1.000000e-03
*END

*D_NET pgm_pn11_2_s0 3.507671e-03
*CONN
*I lt_pn11_2_s0:Z O
*I vs_1_11:A I
*CAP
1 pgm_pn11_2_s0:1 3.507671e-03
*RES
1 lt_pn11_2_s0:Z pgm_pn11_2_s0:1 3.980442e+00
2 pgm_pn11_2_s0:1 vs_1_11:A 1.000000e-03
*END

*D_NET pgm_pn11_2_s1 2.888496e-03
*CONN
*I lt_pn11_2_s1:Z O
*I vs_19_11:A I
*I vs_18_11:A I
*CAP
1 pgm_pn11_2_s1:1 2.888496e-03
*RES
1 lt_pn11_2_s1:Z pgm_pn11_2_s1:1 3.277813e+00
2 pgm_pn11_2_s1:1 vs_19_11:A 1.000000e-03
3 pgm_pn11_2_s1:1 vs_18_11:A 1.000000e-03
*END

*D_NET pgm_pn11_3_s1 1.277456e-02
*CONN
*I lt_pn11_3_s1:Z O
*I vs_29_11:A I
*CAP
1 pgm_pn11_3_s1:1 1.277456e-02
*RES
1 lt_pn11_3_s1:Z pgm_pn11_3_s1:1 1.449634e+01
2 pgm_pn11_3_s1:1 vs_29_11:A 1.000000e-03
*END

*D_NET pgm_pn11_3_s2 1.505573e-02
*CONN
*I lt_pn11_3_s2:Z O
*I vs_47_11:A I
*I vs_45_11:A I
*CAP
1 pgm_pn11_3_s2:1 1.505573e-02
*RES
1 lt_pn11_3_s2:Z pgm_pn11_3_s2:1 1.708497e+01
2 pgm_pn11_3_s2:1 vs_47_11:A 1.000000e-03
3 pgm_pn11_3_s2:1 vs_45_11:A 1.000000e-03
*END

*D_NET pgm_pn11_4_s3 8.256655e-03
*CONN
*I lt_pn11_4_s3:Z O
*I vs_59_11:A I
*CAP
1 pgm_pn11_4_s3:1 8.256655e-03
*RES
1 lt_pn11_4_s3:Z pgm_pn11_4_s3:1 9.369504e+00
2 pgm_pn11_4_s3:1 vs_59_11:A 1.000000e-03
*END

*D_NET pgm_pn11_5_s3 4.574193e-03
*CONN
*I lt_pn11_5_s3:Z O
*I vs_57_11:A I
*I vs_54_11:A I
*CAP
1 pgm_pn11_5_s3:1 4.574193e-03
*RES
1 lt_pn11_5_s3:Z pgm_pn11_5_s3:1 5.190712e+00
2 pgm_pn11_5_s3:1 vs_57_11:A 1.000000e-03
3 pgm_pn11_5_s3:1 vs_54_11:A 1.000000e-03
*END

*D_NET pgm_pn11_6_s0 1.731616e-02
*CONN
*I lt_pn11_6_s0:Z O
*I vs_11_11:A I
*I vs_0_11:A I
*CAP
1 pgm_pn11_6_s0:1 1.731616e-02
*RES
1 lt_pn11_6_s0:Z pgm_pn11_6_s0:1 1.965007e+01
2 pgm_pn11_6_s0:1 vs_11_11:A 1.000000e-03
3 pgm_pn11_6_s0:1 vs_0_11:A 1.000000e-03
*END

*D_NET pgm_pn11_6_s2 1.362778e-04
*CONN
*I lt_pn11_6_s2:Z O
*I vs_40_11:A I
*CAP
1 pgm_pn11_6_s2:1 1.362778e-04
*RES
1 lt_pn11_6_s2:Z pgm_pn11_6_s2:1 1.546456e-01
2 pgm_pn11_6_s2:1 vs_40_11:A 1.000000e-03
*END

*D_NET pgm_pn11_7_s2 1.054375e-02
*CONN
*I lt_pn11_7_s2:Z O
*I vs_34_11:A I
*CAP
1 pgm_pn11_7_s2:1 1.054375e-02
*RES
1 lt_pn11_7_s2:Z pgm_pn11_7_s2:1 1.196486e+01
2 pgm_pn11_7_s2:1 vs_34_11:A 1.000000e-03
*END

*D_NET pgm_pn11_8_s1 1.317747e-02
*CONN
*I lt_pn11_8_s1:Z O
*I vs_17_11:A I
*CAP
1 pgm_pn11_8_s1:1 1.317747e-02
*RES
1 lt_pn11_8_s1:Z pgm_pn11_8_s1:1 1.495355e+01
2 pgm_pn11_8_s1:1 vs_17_11:A 1.000000e-03
*END

*D_NET pgm_pn11_8_s2 2.559652e-03
*CONN
*I lt_pn11_8_s2:Z O
*I vs_44_11:A I
*CAP
1 pgm_pn11_8_s2:1 2.559652e-03
*RES
1 lt_pn11_8_s2:Z pgm_pn11_8_s2:1 2.904647e+00
2 pgm_pn11_8_s2:1 vs_44_11:A 1.000000e-03
*END

*D_NET pgm_pn11_8_s3 1.154111e-02
*CONN
*I lt_pn11_8_s3:Z O
*I vs_51_11:A I
*CAP
1 pgm_pn11_8_s3:1 1.154111e-02
*RES
1 lt_pn11_8_s3:Z pgm_pn11_8_s3:1 1.181243e+01
2 pgm_pn11_8_s3:1 vs_51_11:A 1.000000e-03
*END

*D_NET pgm_pn11_9_s0 4.023462e-03
*CONN
*I lt_pn11_9_s0:Z O
*I vs_14_11:A I
*CAP
1 pgm_pn11_9_s0:1 4.023462e-03
*RES
1 lt_pn11_9_s0:Z pgm_pn11_9_s0:1 3.713476e+00
2 pgm_pn11_9_s0:1 vs_14_11:A 1.000000e-03
*END

*D_NET pgm_pn11_9_s2 7.924848e-03
*CONN
*I lt_pn11_9_s2:Z O
*I vs_39_11:A I
*CAP
1 pgm_pn11_9_s2:1 7.924848e-03
*RES
1 lt_pn11_9_s2:Z pgm_pn11_9_s2:1 8.992975e+00
2 pgm_pn11_9_s2:1 vs_39_11:A 1.000000e-03
*END

*D_NET pgm_pn11_9_s3 5.522212e-03
*CONN
*I lt_pn11_9_s3:Z O
*I vs_56_11:A I
*CAP
1 pgm_pn11_9_s3:1 5.522212e-03
*RES
1 lt_pn11_9_s3:Z pgm_pn11_9_s3:1 6.266507e+00
2 pgm_pn11_9_s3:1 vs_56_11:A 1.000000e-03
*END

*D_NET pgm_pn12_0_s0 1.313408e-02
*CONN
*I lt_pn12_0_s0:Z O
*I vs_8_12:A I
*CAP
1 pgm_pn12_0_s0:1 1.313408e-02
*RES
1 lt_pn12_0_s0:Z pgm_pn12_0_s0:1 1.333215e+01
2 pgm_pn12_0_s0:1 vs_8_12:A 1.000000e-03
*END

*D_NET pgm_pn12_0_s1 2.175408e-02
*CONN
*I lt_pn12_0_s1:Z O
*I vs_30_12:A I
*I vs_16_12:A I
*CAP
1 pgm_pn12_0_s1:1 2.175408e-02
*RES
1 lt_pn12_0_s1:Z pgm_pn12_0_s1:1 2.468614e+01
2 pgm_pn12_0_s1:1 vs_30_12:A 1.000000e-03
3 pgm_pn12_0_s1:1 vs_16_12:A 1.000000e-03
*END

*D_NET pgm_pn12_0_s3 2.441149e-03
*CONN
*I lt_pn12_0_s3:Z O
*I vs_49_12:A I
*CAP
1 pgm_pn12_0_s3:1 2.441149e-03
*RES
1 lt_pn12_0_s3:Z pgm_pn12_0_s3:1 2.770173e+00
2 pgm_pn12_0_s3:1 vs_49_12:A 1.000000e-03
*END

*D_NET pgm_pn12_11_s1 8.328810e-03
*CONN
*I lt_pn12_11_s1:Z O
*I vs_27_12:A I
*I vs_25_12:A I
*CAP
1 pgm_pn12_11_s1:1 8.328810e-03
*RES
1 lt_pn12_11_s1:Z pgm_pn12_11_s1:1 7.879211e+00
2 pgm_pn12_11_s1:1 vs_27_12:A 1.000000e-03
3 pgm_pn12_11_s1:1 vs_25_12:A 1.000000e-03
*END

*D_NET pgm_pn12_12_s0 2.108175e-02
*CONN
*I lt_pn12_12_s0:Z O
*I vs_1_12:A I
*CAP
1 pgm_pn12_12_s0:1 2.108175e-02
*RES
1 lt_pn12_12_s0:Z pgm_pn12_12_s0:1 2.206305e+01
2 pgm_pn12_12_s0:1 vs_1_12:A 1.000000e-03
*END

*D_NET pgm_pn12_12_s1 1.440397e-02
*CONN
*I lt_pn12_12_s1:Z O
*I vs_31_12:A I
*I vs_22_12:A I
*CAP
1 pgm_pn12_12_s1:1 1.440397e-02
*RES
1 lt_pn12_12_s1:Z pgm_pn12_12_s1:1 1.634536e+01
2 pgm_pn12_12_s1:1 vs_31_12:A 1.000000e-03
3 pgm_pn12_12_s1:1 vs_22_12:A 1.000000e-03
*END

*D_NET pgm_pn12_1_s0 1.677343e-02
*CONN
*I lt_pn12_1_s0:Z O
*I vs_13_12:A I
*CAP
1 pgm_pn12_1_s0:1 1.677343e-02
*RES
1 lt_pn12_1_s0:Z pgm_pn12_1_s0:1 1.789396e+01
2 pgm_pn12_1_s0:1 vs_13_12:A 1.000000e-03
*END

*D_NET pgm_pn12_1_s3 3.206544e-03
*CONN
*I lt_pn12_1_s3:Z O
*I vs_51_12:A I
*CAP
1 pgm_pn12_1_s3:1 3.206544e-03
*RES
1 lt_pn12_1_s3:Z pgm_pn12_1_s3:1 2.066555e+00
2 pgm_pn12_1_s3:1 vs_51_12:A 1.000000e-03
*END

*D_NET pgm_pn12_2_s1 1.452247e-02
*CONN
*I lt_pn12_2_s1:Z O
*I vs_29_12:A I
*I vs_28_12:A I
*CAP
1 pgm_pn12_2_s1:1 1.452247e-02
*RES
1 lt_pn12_2_s1:Z pgm_pn12_2_s1:1 1.647984e+01
2 pgm_pn12_2_s1:1 vs_29_12:A 1.000000e-03
3 pgm_pn12_2_s1:1 vs_28_12:A 1.000000e-03
*END

*D_NET pgm_pn12_2_s2 2.349310e-03
*CONN
*I lt_pn12_2_s2:Z O
*I vs_36_12:A I
*CAP
1 pgm_pn12_2_s2:1 2.349310e-03
*RES
1 lt_pn12_2_s2:Z pgm_pn12_2_s2:1 2.665955e+00
2 pgm_pn12_2_s2:1 vs_36_12:A 1.000000e-03
*END

*D_NET pgm_pn12_2_s3 5.068940e-03
*CONN
*I lt_pn12_2_s3:Z O
*I vs_54_12:A I
*CAP
1 pgm_pn12_2_s3:1 5.068940e-03
*RES
1 lt_pn12_2_s3:Z pgm_pn12_2_s3:1 5.752142e+00
2 pgm_pn12_2_s3:1 vs_54_12:A 1.000000e-03
*END

*D_NET pgm_pn12_3_s0 1.586747e-02
*CONN
*I lt_pn12_3_s0:Z O
*I vs_15_12:A I
*I vs_5_12:A I
*CAP
1 pgm_pn12_3_s0:1 1.586747e-02
*RES
1 lt_pn12_3_s0:Z pgm_pn12_3_s0:1 1.800612e+01
2 pgm_pn12_3_s0:1 vs_15_12:A 1.000000e-03
3 pgm_pn12_3_s0:1 vs_5_12:A 1.000000e-03
*END

*D_NET pgm_pn12_5_s0 8.434576e-03
*CONN
*I lt_pn12_5_s0:Z O
*I vs_12_12:A I
*CAP
1 pgm_pn12_5_s0:1 8.434576e-03
*RES
1 lt_pn12_5_s0:Z pgm_pn12_5_s0:1 7.166655e+00
2 pgm_pn12_5_s0:1 vs_12_12:A 1.000000e-03
*END

*D_NET pgm_pn12_5_s1 2.423374e-03
*CONN
*I lt_pn12_5_s1:Z O
*I vs_21_12:A I
*CAP
1 pgm_pn12_5_s1:1 2.423374e-03
*RES
1 lt_pn12_5_s1:Z pgm_pn12_5_s1:1 2.750001e+00
2 pgm_pn12_5_s1:1 vs_21_12:A 1.000000e-03
*END

*D_NET pgm_pn12_5_s3 4.171284e-03
*CONN
*I lt_pn12_5_s3:Z O
*I vs_52_12:A I
*CAP
1 pgm_pn12_5_s3:1 4.171284e-03
*RES
1 lt_pn12_5_s3:Z pgm_pn12_5_s3:1 4.733499e+00
2 pgm_pn12_5_s3:1 vs_52_12:A 1.000000e-03
*END

*D_NET pgm_pn12_6_s2 1.637703e-02
*CONN
*I lt_pn12_6_s2:Z O
*I vs_45_12:A I
*I vs_34_12:A I
*CAP
1 pgm_pn12_6_s2:1 1.637703e-02
*RES
1 lt_pn12_6_s2:Z pgm_pn12_6_s2:1 1.858436e+01
2 pgm_pn12_6_s2:1 vs_45_12:A 1.000000e-03
3 pgm_pn12_6_s2:1 vs_34_12:A 1.000000e-03
*END

*D_NET pgm_pn12_7_s0 9.862362e-03
*CONN
*I lt_pn12_7_s0:Z O
*I vs_2_12:A I
*CAP
1 pgm_pn12_7_s0:1 9.862362e-03
*RES
1 lt_pn12_7_s0:Z pgm_pn12_7_s0:1 1.119163e+01
2 pgm_pn12_7_s0:1 vs_2_12:A 1.000000e-03
*END

*D_NET pgm_pn12_7_s2 4.579980e-03
*CONN
*I lt_pn12_7_s2:Z O
*I vs_39_12:A I
*CAP
1 pgm_pn12_7_s2:1 4.579980e-03
*RES
1 lt_pn12_7_s2:Z pgm_pn12_7_s2:1 4.201024e+00
2 pgm_pn12_7_s2:1 vs_39_12:A 1.000000e-03
*END

*D_NET pgm_pn12_8_s0 1.686585e-02
*CONN
*I lt_pn12_8_s0:Z O
*I vs_10_12:A I
*I vs_0_12:A I
*CAP
1 pgm_pn12_8_s0:1 1.686585e-02
*RES
1 lt_pn12_8_s0:Z pgm_pn12_8_s0:1 1.913907e+01
2 pgm_pn12_8_s0:1 vs_10_12:A 1.000000e-03
3 pgm_pn12_8_s0:1 vs_0_12:A 1.000000e-03
*END

*D_NET pgm_pn12_8_s1 1.210502e-02
*CONN
*I lt_pn12_8_s1:Z O
*I vs_18_12:A I
*CAP
1 pgm_pn12_8_s1:1 1.210502e-02
*RES
1 lt_pn12_8_s1:Z pgm_pn12_8_s1:1 1.373656e+01
2 pgm_pn12_8_s1:1 vs_18_12:A 1.000000e-03
*END

*D_NET pgm_pn12_9_s0 8.495599e-03
*CONN
*I lt_pn12_9_s0:Z O
*I vs_9_12:A I
*I vs_7_12:A I
*CAP
1 pgm_pn12_9_s0:1 8.495599e-03
*RES
1 lt_pn12_9_s0:Z pgm_pn12_9_s0:1 8.356439e+00
2 pgm_pn12_9_s0:1 vs_9_12:A 1.000000e-03
3 pgm_pn12_9_s0:1 vs_7_12:A 1.000000e-03
*END

*D_NET pgm_pn12_9_s3 3.510496e-03
*CONN
*I lt_pn12_9_s3:Z O
*I vs_58_12:A I
*CAP
1 pgm_pn12_9_s3:1 3.510496e-03
*RES
1 lt_pn12_9_s3:Z pgm_pn12_9_s3:1 2.987392e+00
2 pgm_pn12_9_s3:1 vs_58_12:A 1.000000e-03
*END

*D_NET pgm_pn13_0_s0 1.694584e-02
*CONN
*I lt_pn13_0_s0:Z O
*I vs_12_13:A I
*CAP
1 pgm_pn13_0_s0:1 1.694584e-02
*RES
1 lt_pn13_0_s0:Z pgm_pn13_0_s0:1 1.922984e+01
2 pgm_pn13_0_s0:1 vs_12_13:A 1.000000e-03
*END

*D_NET pgm_pn13_10_s3 1.819901e-02
*CONN
*I lt_pn13_10_s3:Z O
*I vs_48_13:A I
*CAP
1 pgm_pn13_10_s3:1 1.819901e-02
*RES
1 lt_pn13_10_s3:Z pgm_pn13_10_s3:1 2.065191e+01
2 pgm_pn13_10_s3:1 vs_48_13:A 1.000000e-03
*END

*D_NET pgm_pn13_11_s0 3.137519e-03
*CONN
*I lt_pn13_11_s0:Z O
*I vs_13_13:A I
*CAP
1 pgm_pn13_11_s0:1 3.137519e-03
*RES
1 lt_pn13_11_s0:Z pgm_pn13_11_s0:1 1.700268e+00
2 pgm_pn13_11_s0:1 vs_13_13:A 1.000000e-03
*END

*D_NET pgm_pn13_12_s2 5.032672e-03
*CONN
*I lt_pn13_12_s2:Z O
*I vs_45_13:A I
*CAP
1 pgm_pn13_12_s2:1 5.032672e-03
*RES
1 lt_pn13_12_s2:Z pgm_pn13_12_s2:1 3.562895e+00
2 pgm_pn13_12_s2:1 vs_45_13:A 1.000000e-03
*END

*D_NET pgm_pn13_12_s3 6.569798e-03
*CONN
*I lt_pn13_12_s3:Z O
*I vs_60_13:A I
*CAP
1 pgm_pn13_12_s3:1 6.569798e-03
*RES
1 lt_pn13_12_s3:Z pgm_pn13_12_s3:1 5.163218e+00
2 pgm_pn13_12_s3:1 vs_60_13:A 1.000000e-03
*END

*D_NET pgm_pn13_1_s0 2.138845e-02
*CONN
*I lt_pn13_1_s0:Z O
*I vs_15_13:A I
*I vs_4_13:A I
*CAP
1 pgm_pn13_1_s0:1 2.138845e-02
*RES
1 lt_pn13_1_s0:Z pgm_pn13_1_s0:1 2.121453e+01
2 pgm_pn13_1_s0:1 vs_15_13:A 1.000000e-03
3 pgm_pn13_1_s0:1 vs_4_13:A 1.000000e-03
*END

*D_NET pgm_pn13_1_s1 7.720431e-03
*CONN
*I lt_pn13_1_s1:Z O
*I vs_22_13:A I
*I vs_18_13:A I
*CAP
1 pgm_pn13_1_s1:1 7.720431e-03
*RES
1 lt_pn13_1_s1:Z pgm_pn13_1_s1:1 8.761007e+00
2 pgm_pn13_1_s1:1 vs_22_13:A 1.000000e-03
3 pgm_pn13_1_s1:1 vs_18_13:A 1.000000e-03
*END

*D_NET pgm_pn13_1_s2 1.506758e-02
*CONN
*I lt_pn13_1_s2:Z O
*I vs_44_13:A I
*I vs_43_13:A I
*CAP
1 pgm_pn13_1_s2:1 1.506758e-02
*RES
1 lt_pn13_1_s2:Z pgm_pn13_1_s2:1 1.709842e+01
2 pgm_pn13_1_s2:1 vs_44_13:A 1.000000e-03
3 pgm_pn13_1_s2:1 vs_43_13:A 1.000000e-03
*END

*D_NET pgm_pn13_1_s3 5.880682e-03
*CONN
*I lt_pn13_1_s3:Z O
*I vs_53_13:A I
*CAP
1 pgm_pn13_1_s3:1 5.880682e-03
*RES
1 lt_pn13_1_s3:Z pgm_pn13_1_s3:1 6.673292e+00
2 pgm_pn13_1_s3:1 vs_53_13:A 1.000000e-03
*END

*D_NET pgm_pn13_2_s2 4.311273e-03
*CONN
*I lt_pn13_2_s2:Z O
*I vs_37_13:A I
*CAP
1 pgm_pn13_2_s2:1 4.311273e-03
*RES
1 lt_pn13_2_s2:Z pgm_pn13_2_s2:1 4.184058e+00
2 pgm_pn13_2_s2:1 vs_37_13:A 1.000000e-03
*END

*D_NET pgm_pn13_2_s3 1.619039e-02
*CONN
*I lt_pn13_2_s3:Z O
*I vs_62_13:A I
*I vs_61_13:A I
*I vs_59_13:A I
*CAP
1 pgm_pn13_2_s3:1 1.619039e-02
*RES
1 lt_pn13_2_s3:Z pgm_pn13_2_s3:1 1.837256e+01
2 pgm_pn13_2_s3:1 vs_62_13:A 1.000000e-03
3 pgm_pn13_2_s3:1 vs_61_13:A 1.000000e-03
4 pgm_pn13_2_s3:1 vs_59_13:A 1.000000e-03
*END

*D_NET pgm_pn13_3_s0 6.646519e-03
*CONN
*I lt_pn13_3_s0:Z O
*I vs_7_13:A I
*CAP
1 pgm_pn13_3_s0:1 6.646519e-03
*RES
1 lt_pn13_3_s0:Z pgm_pn13_3_s0:1 6.114156e+00
2 pgm_pn13_3_s0:1 vs_7_13:A 1.000000e-03
*END

*D_NET pgm_pn13_3_s3 1.573712e-02
*CONN
*I lt_pn13_3_s3:Z O
*I vs_63_13:A I
*I vs_55_13:A I
*CAP
1 pgm_pn13_3_s3:1 1.573712e-02
*RES
1 lt_pn13_3_s3:Z pgm_pn13_3_s3:1 1.785820e+01
2 pgm_pn13_3_s3:1 vs_63_13:A 1.000000e-03
3 pgm_pn13_3_s3:1 vs_55_13:A 1.000000e-03
*END

*D_NET pgm_pn13_4_s1 3.587660e-03
*CONN
*I lt_pn13_4_s1:Z O
*I vs_19_13:A I
*CAP
1 pgm_pn13_4_s1:1 3.587660e-03
*RES
1 lt_pn13_4_s1:Z pgm_pn13_4_s1:1 4.071212e+00
2 pgm_pn13_4_s1:1 vs_19_13:A 1.000000e-03
*END

*D_NET pgm_pn13_4_s3 8.262580e-03
*CONN
*I lt_pn13_4_s3:Z O
*I vs_56_13:A I
*I vs_51_13:A I
*CAP
1 pgm_pn13_4_s3:1 8.262580e-03
*RES
1 lt_pn13_4_s3:Z pgm_pn13_4_s3:1 9.376228e+00
2 pgm_pn13_4_s3:1 vs_56_13:A 1.000000e-03
3 pgm_pn13_4_s3:1 vs_51_13:A 1.000000e-03
*END

*D_NET pgm_pn13_5_s0 3.537297e-03
*CONN
*I lt_pn13_5_s0:Z O
*I vs_5_13:A I
*CAP
1 pgm_pn13_5_s0:1 3.537297e-03
*RES
1 lt_pn13_5_s0:Z pgm_pn13_5_s0:1 4.014061e+00
2 pgm_pn13_5_s0:1 vs_5_13:A 1.000000e-03
*END

*D_NET pgm_pn13_7_s1 8.715852e-03
*CONN
*I lt_pn13_7_s1:Z O
*I vs_23_13:A I
*I vs_20_13:A I
*CAP
1 pgm_pn13_7_s1:1 8.715852e-03
*RES
1 lt_pn13_7_s1:Z pgm_pn13_7_s1:1 9.890592e+00
2 pgm_pn13_7_s1:1 vs_23_13:A 1.000000e-03
3 pgm_pn13_7_s1:1 vs_20_13:A 1.000000e-03
*END

*D_NET pgm_pn13_8_s1 1.990840e-03
*CONN
*I lt_pn13_8_s1:Z O
*I vs_26_13:A I
*CAP
1 pgm_pn13_8_s1:1 1.990840e-03
*RES
1 lt_pn13_8_s1:Z pgm_pn13_8_s1:1 2.259170e+00
2 pgm_pn13_8_s1:1 vs_26_13:A 1.000000e-03
*END

*D_NET pgm_pn13_8_s2 9.018033e-03
*CONN
*I lt_pn13_8_s2:Z O
*I vs_47_13:A I
*I vs_41_13:A I
*CAP
1 pgm_pn13_8_s2:1 9.018033e-03
*RES
1 lt_pn13_8_s2:Z pgm_pn13_8_s2:1 1.023350e+01
2 pgm_pn13_8_s2:1 vs_47_13:A 1.000000e-03
3 pgm_pn13_8_s2:1 vs_41_13:A 1.000000e-03
*END

*D_NET pgm_pn13_8_s3 1.304119e-02
*CONN
*I lt_pn13_8_s3:Z O
*I vs_49_13:A I
*CAP
1 pgm_pn13_8_s3:1 1.304119e-02
*RES
1 lt_pn13_8_s3:Z pgm_pn13_8_s3:1 1.479891e+01
2 pgm_pn13_8_s3:1 vs_49_13:A 1.000000e-03
*END

*D_NET pgm_pn14_0_s0 4.918903e-03
*CONN
*I lt_pn14_0_s0:Z O
*I vs_3_14:A I
*CAP
1 pgm_pn14_0_s0:1 4.918903e-03
*RES
1 lt_pn14_0_s0:Z pgm_pn14_0_s0:1 4.009710e+00
2 pgm_pn14_0_s0:1 vs_3_14:A 1.000000e-03
*END

*D_NET pgm_pn14_0_s1 2.192356e-02
*CONN
*I lt_pn14_0_s1:Z O
*I vs_31_14:A I
*I vs_29_14:A I
*CAP
1 pgm_pn14_0_s1:1 2.192356e-02
*RES
1 lt_pn14_0_s1:Z pgm_pn14_0_s1:1 2.316810e+01
2 pgm_pn14_0_s1:1 vs_31_14:A 1.000000e-03
3 pgm_pn14_0_s1:1 vs_29_14:A 1.000000e-03
*END

*D_NET pgm_pn14_10_s3 4.046857e-03
*CONN
*I lt_pn14_10_s3:Z O
*I vs_63_14:A I
*CAP
1 pgm_pn14_10_s3:1 4.046857e-03
*RES
1 lt_pn14_10_s3:Z pgm_pn14_10_s3:1 4.592301e+00
2 pgm_pn14_10_s3:1 vs_63_14:A 1.000000e-03
*END

*D_NET pgm_pn14_11_s1 1.971584e-02
*CONN
*I lt_pn14_11_s1:Z O
*I vs_16_14:A I
*CAP
1 pgm_pn14_11_s1:1 1.971584e-02
*RES
1 lt_pn14_11_s1:Z pgm_pn14_11_s1:1 2.237318e+01
2 pgm_pn14_11_s1:1 vs_16_14:A 1.000000e-03
*END

*D_NET pgm_pn14_11_s3 4.446971e-03
*CONN
*I lt_pn14_11_s3:Z O
*I vs_60_14:A I
*CAP
1 pgm_pn14_11_s3:1 4.446971e-03
*RES
1 lt_pn14_11_s3:Z pgm_pn14_11_s3:1 3.186210e+00
2 pgm_pn14_11_s3:1 vs_60_14:A 1.000000e-03
*END

*D_NET pgm_pn14_12_s0 2.030539e-02
*CONN
*I lt_pn14_12_s0:Z O
*I vs_1_14:A I
*CAP
1 pgm_pn14_12_s0:1 2.030539e-02
*RES
1 lt_pn14_12_s0:Z pgm_pn14_12_s0:1 2.304219e+01
2 pgm_pn14_12_s0:1 vs_1_14:A 1.000000e-03
*END

*D_NET pgm_pn14_12_s2 6.269388e-03
*CONN
*I lt_pn14_12_s2:Z O
*I vs_44_14:A I
*CAP
1 pgm_pn14_12_s2:1 6.269388e-03
*RES
1 lt_pn14_12_s2:Z pgm_pn14_12_s2:1 5.398236e+00
2 pgm_pn14_12_s2:1 vs_44_14:A 1.000000e-03
*END

*D_NET pgm_pn14_1_s0 1.398819e-02
*CONN
*I lt_pn14_1_s0:Z O
*I vs_11_14:A I
*I vs_9_14:A I
*CAP
1 pgm_pn14_1_s0:1 1.398819e-02
*RES
1 lt_pn14_1_s0:Z pgm_pn14_1_s0:1 1.458933e+01
2 pgm_pn14_1_s0:1 vs_11_14:A 1.000000e-03
3 pgm_pn14_1_s0:1 vs_9_14:A 1.000000e-03
*END

*D_NET pgm_pn14_1_s2 1.476601e-02
*CONN
*I lt_pn14_1_s2:Z O
*I vs_43_14:A I
*CAP
1 pgm_pn14_1_s2:1 1.476601e-02
*RES
1 lt_pn14_1_s2:Z pgm_pn14_1_s2:1 1.504005e+01
2 pgm_pn14_1_s2:1 vs_43_14:A 1.000000e-03
*END

*D_NET pgm_pn14_1_s3 1.331374e-02
*CONN
*I lt_pn14_1_s3:Z O
*I vs_59_14:A I
*CAP
1 pgm_pn14_1_s3:1 1.331374e-02
*RES
1 lt_pn14_1_s3:Z pgm_pn14_1_s3:1 1.510820e+01
2 pgm_pn14_1_s3:1 vs_59_14:A 1.000000e-03
*END

*D_NET pgm_pn14_2_s0 4.580118e-03
*CONN
*I lt_pn14_2_s0:Z O
*I vs_0_14:A I
*CAP
1 pgm_pn14_2_s0:1 4.580118e-03
*RES
1 lt_pn14_2_s0:Z pgm_pn14_2_s0:1 5.197436e+00
2 pgm_pn14_2_s0:1 vs_0_14:A 1.000000e-03
*END

*D_NET pgm_pn14_3_s2 1.693696e-02
*CONN
*I lt_pn14_3_s2:Z O
*I vs_46_14:A I
*I vs_37_14:A I
*CAP
1 pgm_pn14_3_s2:1 1.693696e-02
*RES
1 lt_pn14_3_s2:Z pgm_pn14_3_s2:1 1.921975e+01
2 pgm_pn14_3_s2:1 vs_46_14:A 1.000000e-03
3 pgm_pn14_3_s2:1 vs_37_14:A 1.000000e-03
*END

*D_NET pgm_pn14_3_s3 1.084297e-03
*CONN
*I lt_pn14_3_s3:Z O
*I vs_52_14:A I
*CAP
1 pgm_pn14_3_s3:1 1.084297e-03
*RES
1 lt_pn14_3_s3:Z pgm_pn14_3_s3:1 1.230441e+00
2 pgm_pn14_3_s3:1 vs_52_14:A 1.000000e-03
*END

*D_NET pgm_pn14_4_s0 6.861289e-03
*CONN
*I lt_pn14_4_s0:Z O
*I vs_10_14:A I
*CAP
1 pgm_pn14_4_s0:1 6.861289e-03
*RES
1 lt_pn14_4_s0:Z pgm_pn14_4_s0:1 7.786068e+00
2 pgm_pn14_4_s0:1 vs_10_14:A 1.000000e-03
*END

*D_NET pgm_pn14_4_s1 1.050738e-02
*CONN
*I lt_pn14_4_s1:Z O
*I vs_27_14:A I
*CAP
1 pgm_pn14_4_s1:1 1.050738e-02
*RES
1 lt_pn14_4_s1:Z pgm_pn14_4_s1:1 8.611139e+00
2 pgm_pn14_4_s1:1 vs_27_14:A 1.000000e-03
*END

*D_NET pgm_pn14_4_s2 6.384317e-03
*CONN
*I lt_pn14_4_s2:Z O
*I vs_34_14:A I
*CAP
1 pgm_pn14_4_s2:1 6.384317e-03
*RES
1 lt_pn14_4_s2:Z pgm_pn14_4_s2:1 7.244808e+00
2 pgm_pn14_4_s2:1 vs_34_14:A 1.000000e-03
*END

*D_NET pgm_pn14_5_s1 9.326139e-03
*CONN
*I lt_pn14_5_s1:Z O
*I vs_17_14:A I
*CAP
1 pgm_pn14_5_s1:1 9.326139e-03
*RES
1 lt_pn14_5_s1:Z pgm_pn14_5_s1:1 1.058314e+01
2 pgm_pn14_5_s1:1 vs_17_14:A 1.000000e-03
*END

*D_NET pgm_pn14_5_s2 3.359543e-03
*CONN
*I lt_pn14_5_s2:Z O
*I vs_41_14:A I
*I vs_40_14:A I
*CAP
1 pgm_pn14_5_s2:1 3.359543e-03
*RES
1 lt_pn14_5_s2:Z pgm_pn14_5_s2:1 3.812349e+00
2 pgm_pn14_5_s2:1 vs_41_14:A 1.000000e-03
3 pgm_pn14_5_s2:1 vs_40_14:A 1.000000e-03
*END

*D_NET pgm_pn14_5_s3 1.123106e-02
*CONN
*I lt_pn14_5_s3:Z O
*I vs_48_14:A I
*CAP
1 pgm_pn14_5_s3:1 1.123106e-02
*RES
1 lt_pn14_5_s3:Z pgm_pn14_5_s3:1 1.274481e+01
2 pgm_pn14_5_s3:1 vs_48_14:A 1.000000e-03
*END

*D_NET pgm_pn14_6_s0 7.753020e-03
*CONN
*I lt_pn14_6_s0:Z O
*I vs_12_14:A I
*I vs_7_14:A I
*CAP
1 pgm_pn14_6_s0:1 7.753020e-03
*RES
1 lt_pn14_6_s0:Z pgm_pn14_6_s0:1 8.797988e+00
2 pgm_pn14_6_s0:1 vs_12_14:A 1.000000e-03
3 pgm_pn14_6_s0:1 vs_7_14:A 1.000000e-03
*END

*D_NET pgm_pn14_6_s1 8.959255e-03
*CONN
*I lt_pn14_6_s1:Z O
*I vs_19_14:A I
*CAP
1 pgm_pn14_6_s1:1 8.959255e-03
*RES
1 lt_pn14_6_s1:Z pgm_pn14_6_s1:1 7.454393e+00
2 pgm_pn14_6_s1:1 vs_19_14:A 1.000000e-03
*END

*D_NET pgm_pn14_6_s2 3.006998e-03
*CONN
*I lt_pn14_6_s2:Z O
*I vs_42_14:A I
*CAP
1 pgm_pn14_6_s2:1 3.006998e-03
*RES
1 lt_pn14_6_s2:Z pgm_pn14_6_s2:1 3.412288e+00
2 pgm_pn14_6_s2:1 vs_42_14:A 1.000000e-03
*END

*D_NET pgm_pn14_7_s0 7.127919e-03
*CONN
*I lt_pn14_7_s0:Z O
*I vs_14_14:A I
*CAP
1 pgm_pn14_7_s0:1 7.127919e-03
*RES
1 lt_pn14_7_s0:Z pgm_pn14_7_s0:1 8.088635e+00
2 pgm_pn14_7_s0:1 vs_14_14:A 1.000000e-03
*END

*D_NET pgm_pn14_7_s1 6.299594e-03
*CONN
*I lt_pn14_7_s1:Z O
*I vs_21_14:A I
*CAP
1 pgm_pn14_7_s1:1 6.299594e-03
*RES
1 lt_pn14_7_s1:Z pgm_pn14_7_s1:1 6.584348e+00
2 pgm_pn14_7_s1:1 vs_21_14:A 1.000000e-03
*END

*D_NET pgm_pn14_7_s3 8.268505e-03
*CONN
*I lt_pn14_7_s3:Z O
*I vs_62_14:A I
*I vs_61_14:A I
*CAP
1 pgm_pn14_7_s3:1 8.268505e-03
*RES
1 lt_pn14_7_s3:Z pgm_pn14_7_s3:1 9.382951e+00
2 pgm_pn14_7_s3:1 vs_62_14:A 1.000000e-03
3 pgm_pn14_7_s3:1 vs_61_14:A 1.000000e-03
*END

*D_NET pgm_pn14_8_s1 1.237758e-02
*CONN
*I lt_pn14_8_s1:Z O
*I vs_18_14:A I
*CAP
1 pgm_pn14_8_s1:1 1.237758e-02
*RES
1 lt_pn14_8_s1:Z pgm_pn14_8_s1:1 1.404585e+01
2 pgm_pn14_8_s1:1 vs_18_14:A 1.000000e-03
*END

*D_NET pgm_pn14_8_s2 6.725011e-03
*CONN
*I lt_pn14_8_s2:Z O
*I vs_47_14:A I
*CAP
1 pgm_pn14_8_s2:1 6.725011e-03
*RES
1 lt_pn14_8_s2:Z pgm_pn14_8_s2:1 7.631422e+00
2 pgm_pn14_8_s2:1 vs_47_14:A 1.000000e-03
*END

*D_NET pgm_pn14_8_s3 5.658490e-03
*CONN
*I lt_pn14_8_s3:Z O
*I vs_55_14:A I
*CAP
1 pgm_pn14_8_s3:1 5.658490e-03
*RES
1 lt_pn14_8_s3:Z pgm_pn14_8_s3:1 6.421153e+00
2 pgm_pn14_8_s3:1 vs_55_14:A 1.000000e-03
*END

*D_NET pgm_pn15_0_s2 7.336352e-03
*CONN
*I lt_pn15_0_s2:Z O
*I vs_37_15:A I
*CAP
1 pgm_pn15_0_s2:1 7.336352e-03
*RES
1 lt_pn15_0_s2:Z pgm_pn15_0_s2:1 6.752988e+00
2 pgm_pn15_0_s2:1 vs_37_15:A 1.000000e-03
*END

*D_NET pgm_pn15_10_s0 1.292122e-02
*CONN
*I lt_pn15_10_s0:Z O
*I vs_4_15:A I
*CAP
1 pgm_pn15_10_s0:1 1.292122e-02
*RES
1 lt_pn15_10_s0:Z pgm_pn15_10_s0:1 1.323458e+01
2 pgm_pn15_10_s0:1 vs_4_15:A 1.000000e-03
*END

*D_NET pgm_pn15_11_s1 7.909012e-03
*CONN
*I lt_pn15_11_s1:Z O
*I vs_25_15:A I
*CAP
1 pgm_pn15_11_s1:1 7.909012e-03
*RES
1 lt_pn15_11_s1:Z pgm_pn15_11_s1:1 7.690791e+00
2 pgm_pn15_11_s1:1 vs_25_15:A 1.000000e-03
*END

*D_NET pgm_pn15_11_s2 7.504164e-03
*CONN
*I lt_pn15_11_s2:Z O
*I vs_45_15:A I
*I vs_42_15:A I
*CAP
1 pgm_pn15_11_s2:1 7.504164e-03
*RES
1 lt_pn15_11_s2:Z pgm_pn15_11_s2:1 8.515591e+00
2 pgm_pn15_11_s2:1 vs_45_15:A 1.000000e-03
3 pgm_pn15_11_s2:1 vs_42_15:A 1.000000e-03
*END

*D_NET pgm_pn15_11_s3 1.350692e-02
*CONN
*I lt_pn15_11_s3:Z O
*I vs_54_15:A I
*CAP
1 pgm_pn15_11_s3:1 1.350692e-02
*RES
1 lt_pn15_11_s3:Z pgm_pn15_11_s3:1 1.361126e+01
2 pgm_pn15_11_s3:1 vs_54_15:A 1.000000e-03
*END

*D_NET pgm_pn15_1_s0 1.775166e-02
*CONN
*I lt_pn15_1_s0:Z O
*I vs_14_15:A I
*CAP
1 pgm_pn15_1_s0:1 1.775166e-02
*RES
1 lt_pn15_1_s0:Z pgm_pn15_1_s0:1 2.014427e+01
2 pgm_pn15_1_s0:1 vs_14_15:A 1.000000e-03
*END

*D_NET pgm_pn15_2_s1 2.550764e-03
*CONN
*I lt_pn15_2_s1:Z O
*I vs_19_15:A I
*CAP
1 pgm_pn15_2_s1:1 2.550764e-03
*RES
1 lt_pn15_2_s1:Z pgm_pn15_2_s1:1 2.894561e+00
2 pgm_pn15_2_s1:1 vs_19_15:A 1.000000e-03
*END

*D_NET pgm_pn15_3_s0 1.936625e-02
*CONN
*I lt_pn15_3_s0:Z O
*I vs_15_15:A I
*I vs_6_15:A I
*I vs_3_15:A I
*CAP
1 pgm_pn15_3_s0:1 1.936625e-02
*RES
1 lt_pn15_3_s0:Z pgm_pn15_3_s0:1 2.197648e+01
2 pgm_pn15_3_s0:1 vs_15_15:A 1.000000e-03
3 pgm_pn15_3_s0:1 vs_6_15:A 1.000000e-03
4 pgm_pn15_3_s0:1 vs_3_15:A 1.000000e-03
*END

*D_NET pgm_pn15_3_s1 1.156379e-02
*CONN
*I lt_pn15_3_s1:Z O
*I vs_26_15:A I
*I vs_21_15:A I
*CAP
1 pgm_pn15_3_s1:1 1.156379e-02
*RES
1 lt_pn15_3_s1:Z pgm_pn15_3_s1:1 1.055395e+01
2 pgm_pn15_3_s1:1 vs_26_15:A 1.000000e-03
3 pgm_pn15_3_s1:1 vs_21_15:A 1.000000e-03
*END

*D_NET pgm_pn15_3_s2 1.491945e-02
*CONN
*I lt_pn15_3_s2:Z O
*I vs_47_15:A I
*CAP
1 pgm_pn15_3_s2:1 1.491945e-02
*RES
1 lt_pn15_3_s2:Z pgm_pn15_3_s2:1 1.693033e+01
2 pgm_pn15_3_s2:1 vs_47_15:A 1.000000e-03
*END

*D_NET pgm_pn15_3_s3 1.220575e-03
*CONN
*I lt_pn15_3_s3:Z O
*I vs_52_15:A I
*CAP
1 pgm_pn15_3_s3:1 1.220575e-03
*RES
1 lt_pn15_3_s3:Z pgm_pn15_3_s3:1 1.385086e+00
2 pgm_pn15_3_s3:1 vs_52_15:A 1.000000e-03
*END

*D_NET pgm_pn15_5_s1 2.244732e-02
*CONN
*I lt_pn15_5_s1:Z O
*I vs_31_15:A I
*I vs_16_15:A I
*CAP
1 pgm_pn15_5_s1:1 2.244732e-02
*RES
1 lt_pn15_5_s1:Z pgm_pn15_5_s1:1 2.547281e+01
2 pgm_pn15_5_s1:1 vs_31_15:A 1.000000e-03
3 pgm_pn15_5_s1:1 vs_16_15:A 1.000000e-03
*END

*D_NET pgm_pn15_6_s0 1.130366e-02
*CONN
*I lt_pn15_6_s0:Z O
*I vs_2_15:A I
*CAP
1 pgm_pn15_6_s0:1 1.130366e-02
*RES
1 lt_pn15_6_s0:Z pgm_pn15_6_s0:1 1.139900e+01
2 pgm_pn15_6_s0:1 vs_2_15:A 1.000000e-03
*END

*D_NET pgm_pn15_6_s2 1.747910e-03
*CONN
*I lt_pn15_6_s2:Z O
*I vs_41_15:A I
*CAP
1 pgm_pn15_6_s2:1 1.747910e-03
*RES
1 lt_pn15_6_s2:Z pgm_pn15_6_s2:1 1.983497e+00
2 pgm_pn15_6_s2:1 vs_41_15:A 1.000000e-03
*END

*D_NET pgm_pn15_6_s3 1.077187e-02
*CONN
*I lt_pn15_6_s3:Z O
*I vs_55_15:A I
*I vs_49_15:A I
*CAP
1 pgm_pn15_6_s3:1 1.077187e-02
*RES
1 lt_pn15_6_s3:Z pgm_pn15_6_s3:1 1.222372e+01
2 pgm_pn15_6_s3:1 vs_55_15:A 1.000000e-03
3 pgm_pn15_6_s3:1 vs_49_15:A 1.000000e-03
*END

*D_NET pgm_pn15_7_s1 1.269474e-02
*CONN
*I lt_pn15_7_s1:Z O
*I vs_18_15:A I
*CAP
1 pgm_pn15_7_s1:1 1.269474e-02
*RES
1 lt_pn15_7_s1:Z pgm_pn15_7_s1:1 1.254563e+01
2 pgm_pn15_7_s1:1 vs_18_15:A 1.000000e-03
*END

*D_NET pgm_pn15_7_s3 1.406017e-02
*CONN
*I lt_pn15_7_s3:Z O
*I vs_58_15:A I
*I vs_50_15:A I
*CAP
1 pgm_pn15_7_s3:1 1.406017e-02
*RES
1 lt_pn15_7_s3:Z pgm_pn15_7_s3:1 1.495898e+01
2 pgm_pn15_7_s3:1 vs_58_15:A 1.000000e-03
3 pgm_pn15_7_s3:1 vs_50_15:A 1.000000e-03
*END

*D_NET pgm_pn15_8_s1 1.317747e-02
*CONN
*I lt_pn15_8_s1:Z O
*I vs_17_15:A I
*CAP
1 pgm_pn15_8_s1:1 1.317747e-02
*RES
1 lt_pn15_8_s1:Z pgm_pn15_8_s1:1 1.495355e+01
2 pgm_pn15_8_s1:1 vs_17_15:A 1.000000e-03
*END

*D_NET pgm_pn15_8_s2 1.386478e-02
*CONN
*I lt_pn15_8_s2:Z O
*I vs_44_15:A I
*I vs_35_15:A I
*CAP
1 pgm_pn15_8_s2:1 1.386478e-02
*RES
1 lt_pn15_8_s2:Z pgm_pn15_8_s2:1 1.573350e+01
2 pgm_pn15_8_s2:1 vs_44_15:A 1.000000e-03
3 pgm_pn15_8_s2:1 vs_35_15:A 1.000000e-03
*END

*D_NET pgm_pn15_8_s3 9.068396e-03
*CONN
*I lt_pn15_8_s3:Z O
*I vs_62_15:A I
*I vs_56_15:A I
*CAP
1 pgm_pn15_8_s3:1 9.068396e-03
*RES
1 lt_pn15_8_s3:Z pgm_pn15_8_s3:1 1.029065e+01
2 pgm_pn15_8_s3:1 vs_62_15:A 1.000000e-03
3 pgm_pn15_8_s3:1 vs_56_15:A 1.000000e-03
*END

*D_NET pgm_pn15_9_s0 1.623483e-03
*CONN
*I lt_pn15_9_s0:Z O
*I vs_12_15:A I
*CAP
1 pgm_pn15_9_s0:1 1.623483e-03
*RES
1 lt_pn15_9_s0:Z pgm_pn15_9_s0:1 1.842299e+00
2 pgm_pn15_9_s0:1 vs_12_15:A 1.000000e-03
*END

*D_NET pgm_pn15_9_s3 9.551293e-03
*CONN
*I lt_pn15_9_s3:Z O
*I vs_53_15:A I
*CAP
1 pgm_pn15_9_s3:1 9.551293e-03
*RES
1 lt_pn15_9_s3:Z pgm_pn15_9_s3:1 1.083864e+01
2 pgm_pn15_9_s3:1 vs_53_15:A 1.000000e-03
*END

*D_NET pgm_pn16_0_s2 2.084457e-02
*CONN
*I lt_pn16_0_s2:Z O
*I vs_47_16:A I
*CAP
1 pgm_pn16_0_s2:1 2.084457e-02
*RES
1 lt_pn16_0_s2:Z pgm_pn16_0_s2:1 2.365405e+01
2 pgm_pn16_0_s2:1 vs_47_16:A 1.000000e-03
*END

*D_NET pgm_pn16_10_s1 1.490760e-02
*CONN
*I lt_pn16_10_s1:Z O
*I vs_20_16:A I
*CAP
1 pgm_pn16_10_s1:1 1.490760e-02
*RES
1 lt_pn16_10_s1:Z pgm_pn16_10_s1:1 1.691688e+01
2 pgm_pn16_10_s1:1 vs_20_16:A 1.000000e-03
*END

*D_NET pgm_pn16_10_s3 1.304224e-02
*CONN
*I lt_pn16_10_s3:Z O
*I vs_59_16:A I
*I vs_54_16:A I
*CAP
1 pgm_pn16_10_s3:1 1.304224e-02
*RES
1 lt_pn16_10_s3:Z pgm_pn16_10_s3:1 1.323953e+01
2 pgm_pn16_10_s3:1 vs_59_16:A 1.000000e-03
3 pgm_pn16_10_s3:1 vs_54_16:A 1.000000e-03
*END

*D_NET pgm_pn16_11_s3 1.910259e-02
*CONN
*I lt_pn16_11_s3:Z O
*I vs_49_16:A I
*CAP
1 pgm_pn16_11_s3:1 1.910259e-02
*RES
1 lt_pn16_11_s3:Z pgm_pn16_11_s3:1 2.167727e+01
2 pgm_pn16_11_s3:1 vs_49_16:A 1.000000e-03
*END

*D_NET pgm_pn16_12_s3 1.196949e-02
*CONN
*I lt_pn16_12_s3:Z O
*I vs_56_16:A I
*CAP
1 pgm_pn16_12_s3:1 1.196949e-02
*RES
1 lt_pn16_12_s3:Z pgm_pn16_12_s3:1 1.287447e+01
2 pgm_pn16_12_s3:1 vs_56_16:A 1.000000e-03
*END

*D_NET pgm_pn16_1_s1 2.168594e-03
*CONN
*I lt_pn16_1_s1:Z O
*I vs_17_16:A I
*CAP
1 pgm_pn16_1_s1:1 2.168594e-03
*RES
1 lt_pn16_1_s1:Z pgm_pn16_1_s1:1 2.460882e+00
2 pgm_pn16_1_s1:1 vs_17_16:A 1.000000e-03
*END

*D_NET pgm_pn16_2_s1 1.123571e-02
*CONN
*I lt_pn16_2_s1:Z O
*I vs_26_16:A I
*CAP
1 pgm_pn16_2_s1:1 1.123571e-02
*RES
1 lt_pn16_2_s1:Z pgm_pn16_2_s1:1 1.100576e+01
2 pgm_pn16_2_s1:1 vs_26_16:A 1.000000e-03
*END

*D_NET pgm_pn16_2_s2 1.304711e-02
*CONN
*I lt_pn16_2_s2:Z O
*I vs_44_16:A I
*CAP
1 pgm_pn16_2_s2:1 1.304711e-02
*RES
1 lt_pn16_2_s2:Z pgm_pn16_2_s2:1 1.480563e+01
2 pgm_pn16_2_s2:1 vs_44_16:A 1.000000e-03
*END

*D_NET pgm_pn16_3_s3 1.490464e-02
*CONN
*I lt_pn16_3_s3:Z O
*I vs_62_16:A I
*CAP
1 pgm_pn16_3_s3:1 1.490464e-02
*RES
1 lt_pn16_3_s3:Z pgm_pn16_3_s3:1 1.691352e+01
2 pgm_pn16_3_s3:1 vs_62_16:A 1.000000e-03
*END

*D_NET pgm_pn16_4_s0 7.276047e-03
*CONN
*I lt_pn16_4_s0:Z O
*I vs_1_16:A I
*CAP
1 pgm_pn16_4_s0:1 7.276047e-03
*RES
1 lt_pn16_4_s0:Z pgm_pn16_4_s0:1 8.256728e+00
2 pgm_pn16_4_s0:1 vs_1_16:A 1.000000e-03
*END

*D_NET pgm_pn16_4_s1 1.291084e-02
*CONN
*I lt_pn16_4_s1:Z O
*I vs_30_16:A I
*CAP
1 pgm_pn16_4_s1:1 1.291084e-02
*RES
1 lt_pn16_4_s1:Z pgm_pn16_4_s1:1 1.465099e+01
2 pgm_pn16_4_s1:1 vs_30_16:A 1.000000e-03
*END

*D_NET pgm_pn16_5_s1 8.235917e-03
*CONN
*I lt_pn16_5_s1:Z O
*I vs_25_16:A I
*I vs_21_16:A I
*I vs_19_16:A I
*CAP
1 pgm_pn16_5_s1:1 8.235917e-03
*RES
1 lt_pn16_5_s1:Z pgm_pn16_5_s1:1 9.345971e+00
2 pgm_pn16_5_s1:1 vs_25_16:A 1.000000e-03
3 pgm_pn16_5_s1:1 vs_21_16:A 1.000000e-03
4 pgm_pn16_5_s1:1 vs_19_16:A 1.000000e-03
*END

*D_NET pgm_pn16_5_s3 2.150819e-03
*CONN
*I lt_pn16_5_s3:Z O
*I vs_53_16:A I
*CAP
1 pgm_pn16_5_s3:1 2.150819e-03
*RES
1 lt_pn16_5_s3:Z pgm_pn16_5_s3:1 2.440710e+00
2 pgm_pn16_5_s3:1 vs_53_16:A 1.000000e-03
*END

*D_NET pgm_pn16_6_s0 7.264197e-03
*CONN
*I lt_pn16_6_s0:Z O
*I vs_3_16:A I
*CAP
1 pgm_pn16_6_s0:1 7.264197e-03
*RES
1 lt_pn16_6_s0:Z pgm_pn16_6_s0:1 8.243281e+00
2 pgm_pn16_6_s0:1 vs_3_16:A 1.000000e-03
*END

*D_NET pgm_pn16_6_s1 6.773702e-03
*CONN
*I lt_pn16_6_s1:Z O
*I vs_28_16:A I
*CAP
1 pgm_pn16_6_s1:1 6.773702e-03
*RES
1 lt_pn16_6_s1:Z pgm_pn16_6_s1:1 3.929771e+00
2 pgm_pn16_6_s1:1 vs_28_16:A 1.000000e-03
*END

*D_NET pgm_pn16_6_s2 4.301637e-03
*CONN
*I lt_pn16_6_s2:Z O
*I vs_43_16:A I
*CAP
1 pgm_pn16_6_s2:1 4.301637e-03
*RES
1 lt_pn16_6_s2:Z pgm_pn16_6_s2:1 4.881421e+00
2 pgm_pn16_6_s2:1 vs_43_16:A 1.000000e-03
*END

*D_NET pgm_pn16_7_s3 1.905222e-02
*CONN
*I lt_pn16_7_s3:Z O
*I vs_63_16:A I
*I vs_50_16:A I
*CAP
1 pgm_pn16_7_s3:1 1.905222e-02
*RES
1 lt_pn16_7_s3:Z pgm_pn16_7_s3:1 2.162012e+01
2 pgm_pn16_7_s3:1 vs_63_16:A 1.000000e-03
3 pgm_pn16_7_s3:1 vs_50_16:A 1.000000e-03
*END

*D_NET pgm_pn16_8_s0 3.279554e-03
*CONN
*I lt_pn16_8_s0:Z O
*I vs_8_16:A I
*CAP
1 pgm_pn16_8_s0:1 3.279554e-03
*RES
1 lt_pn16_8_s0:Z pgm_pn16_8_s0:1 3.721579e+00
2 pgm_pn16_8_s0:1 vs_8_16:A 1.000000e-03
*END

*D_NET pgm_pn16_9_s2 9.160236e-03
*CONN
*I lt_pn16_9_s2:Z O
*I vs_38_16:A I
*CAP
1 pgm_pn16_9_s2:1 9.160236e-03
*RES
1 lt_pn16_9_s2:Z pgm_pn16_9_s2:1 1.039487e+01
2 pgm_pn16_9_s2:1 vs_38_16:A 1.000000e-03
*END

*D_NET pgm_pn17_0_s1 1.819294e-02
*CONN
*I lt_pn17_0_s1:Z O
*I vs_29_17:A I
*CAP
1 pgm_pn17_0_s1:1 1.819294e-02
*RES
1 lt_pn17_0_s1:Z pgm_pn17_0_s1:1 1.964877e+01
2 pgm_pn17_0_s1:1 vs_29_17:A 1.000000e-03
*END

*D_NET pgm_pn17_0_s2 1.422519e-02
*CONN
*I lt_pn17_0_s2:Z O
*I vs_42_17:A I
*CAP
1 pgm_pn17_0_s2:1 1.422519e-02
*RES
1 lt_pn17_0_s2:Z pgm_pn17_0_s2:1 1.485828e+01
2 pgm_pn17_0_s2:1 vs_42_17:A 1.000000e-03
*END

*D_NET pgm_pn17_0_s3 1.875998e-02
*CONN
*I lt_pn17_0_s3:Z O
*I vs_61_17:A I
*I vs_59_17:A I
*I vs_58_17:A I
*CAP
1 pgm_pn17_0_s3:1 1.875998e-02
*RES
1 lt_pn17_0_s3:Z pgm_pn17_0_s3:1 1.971632e+01
2 pgm_pn17_0_s3:1 vs_61_17:A 1.000000e-03
3 pgm_pn17_0_s3:1 vs_59_17:A 1.000000e-03
4 pgm_pn17_0_s3:1 vs_58_17:A 1.000000e-03
*END

*D_NET pgm_pn17_10_s0 1.249209e-02
*CONN
*I lt_pn17_10_s0:Z O
*I vs_5_17:A I
*CAP
1 pgm_pn17_10_s0:1 1.249209e-02
*RES
1 lt_pn17_10_s0:Z pgm_pn17_10_s0:1 1.289159e+01
2 pgm_pn17_10_s0:1 vs_5_17:A 1.000000e-03
*END

*D_NET pgm_pn17_10_s2 2.838132e-03
*CONN
*I lt_pn17_10_s2:Z O
*I vs_46_17:A I
*CAP
1 pgm_pn17_10_s2:1 2.838132e-03
*RES
1 lt_pn17_10_s2:Z pgm_pn17_10_s2:1 3.220662e+00
2 pgm_pn17_10_s2:1 vs_46_17:A 1.000000e-03
*END

*D_NET pgm_pn17_10_s3 4.277356e-03
*CONN
*I lt_pn17_10_s3:Z O
*I vs_62_17:A I
*I vs_60_17:A I
*CAP
1 pgm_pn17_10_s3:1 4.277356e-03
*RES
1 lt_pn17_10_s3:Z pgm_pn17_10_s3:1 3.713632e+00
2 pgm_pn17_10_s3:1 vs_62_17:A 1.000000e-03
3 pgm_pn17_10_s3:1 vs_60_17:A 1.000000e-03
*END

*D_NET pgm_pn17_11_s2 2.746125e-02
*CONN
*I lt_pn17_11_s2:Z O
*I vs_33_17:A I
*CAP
1 pgm_pn17_11_s2:1 2.746125e-02
*RES
1 lt_pn17_11_s2:Z pgm_pn17_11_s2:1 2.197105e+01
2 pgm_pn17_11_s2:1 vs_33_17:A 1.000000e-03
*END

*D_NET pgm_pn17_12_s1 2.078358e-02
*CONN
*I lt_pn17_12_s1:Z O
*I vs_26_17:A I
*I vs_19_17:A I
*CAP
1 pgm_pn17_12_s1:1 2.078358e-02
*RES
1 lt_pn17_12_s1:Z pgm_pn17_12_s1:1 2.015253e+01
2 pgm_pn17_12_s1:1 vs_26_17:A 1.000000e-03
3 pgm_pn17_12_s1:1 vs_19_17:A 1.000000e-03
*END

*D_NET pgm_pn17_1_s2 4.233498e-03
*CONN
*I lt_pn17_1_s2:Z O
*I vs_36_17:A I
*CAP
1 pgm_pn17_1_s2:1 4.233498e-03
*RES
1 lt_pn17_1_s2:Z pgm_pn17_1_s2:1 4.804098e+00
2 pgm_pn17_1_s2:1 vs_36_17:A 1.000000e-03
*END

*D_NET pgm_pn17_2_s0 1.764947e-02
*CONN
*I lt_pn17_2_s0:Z O
*I vs_12_17:A I
*I vs_2_17:A I
*CAP
1 pgm_pn17_2_s0:1 1.764947e-02
*RES
1 lt_pn17_2_s0:Z pgm_pn17_2_s0:1 1.860010e+01
2 pgm_pn17_2_s0:1 vs_12_17:A 1.000000e-03
3 pgm_pn17_2_s0:1 vs_2_17:A 1.000000e-03
*END

*D_NET pgm_pn17_3_s0 1.282492e-02
*CONN
*I lt_pn17_3_s0:Z O
*I vs_13_17:A I
*CAP
1 pgm_pn17_3_s0:1 1.282492e-02
*RES
1 lt_pn17_3_s0:Z pgm_pn17_3_s0:1 1.455349e+01
2 pgm_pn17_3_s0:1 vs_13_17:A 1.000000e-03
*END

*D_NET pgm_pn17_4_s0 1.406920e-02
*CONN
*I lt_pn17_4_s0:Z O
*I vs_15_17:A I
*CAP
1 pgm_pn17_4_s0:1 1.406920e-02
*RES
1 lt_pn17_4_s0:Z pgm_pn17_4_s0:1 1.596547e+01
2 pgm_pn17_4_s0:1 vs_15_17:A 1.000000e-03
*END

*D_NET pgm_pn17_4_s3 4.840823e-03
*CONN
*I lt_pn17_4_s3:Z O
*I vs_50_17:A I
*CAP
1 pgm_pn17_4_s3:1 4.840823e-03
*RES
1 lt_pn17_4_s3:Z pgm_pn17_4_s3:1 5.493279e+00
2 pgm_pn17_4_s3:1 vs_50_17:A 1.000000e-03
*END

*D_NET pgm_pn17_5_s1 1.176909e-02
*CONN
*I lt_pn17_5_s1:Z O
*I vs_28_17:A I
*I vs_22_17:A I
*CAP
1 pgm_pn17_5_s1:1 1.176909e-02
*RES
1 lt_pn17_5_s1:Z pgm_pn17_5_s1:1 1.107488e+01
2 pgm_pn17_5_s1:1 vs_28_17:A 1.000000e-03
3 pgm_pn17_5_s1:1 vs_22_17:A 1.000000e-03
*END

*D_NET pgm_pn17_6_s0 1.089037e-02
*CONN
*I lt_pn17_6_s0:Z O
*I vs_7_17:A I
*I vs_0_17:A I
*CAP
1 pgm_pn17_6_s0:1 1.089037e-02
*RES
1 lt_pn17_6_s0:Z pgm_pn17_6_s0:1 1.235820e+01
2 pgm_pn17_6_s0:1 vs_7_17:A 1.000000e-03
3 pgm_pn17_6_s0:1 vs_0_17:A 1.000000e-03
*END

*D_NET pgm_pn17_6_s1 1.712952e-02
*CONN
*I lt_pn17_6_s1:Z O
*I vs_27_17:A I
*I vs_16_17:A I
*CAP
1 pgm_pn17_6_s1:1 1.712952e-02
*RES
1 lt_pn17_6_s1:Z pgm_pn17_6_s1:1 1.943827e+01
2 pgm_pn17_6_s1:1 vs_27_17:A 1.000000e-03
3 pgm_pn17_6_s1:1 vs_16_17:A 1.000000e-03
*END

*D_NET pgm_pn17_6_s2 7.536753e-03
*CONN
*I lt_pn17_6_s2:Z O
*I vs_35_17:A I
*CAP
1 pgm_pn17_6_s2:1 7.536753e-03
*RES
1 lt_pn17_6_s2:Z pgm_pn17_6_s2:1 8.552572e+00
2 pgm_pn17_6_s2:1 vs_35_17:A 1.000000e-03
*END

*D_NET pgm_pn17_6_s3 7.450838e-03
*CONN
*I lt_pn17_6_s3:Z O
*I vs_54_17:A I
*I vs_51_17:A I
*CAP
1 pgm_pn17_6_s3:1 7.450838e-03
*RES
1 lt_pn17_6_s3:Z pgm_pn17_6_s3:1 8.455078e+00
2 pgm_pn17_6_s3:1 vs_54_17:A 1.000000e-03
3 pgm_pn17_6_s3:1 vs_51_17:A 1.000000e-03
*END

*D_NET pgm_pn17_7_s0 1.015344e-02
*CONN
*I lt_pn17_7_s0:Z O
*I vs_4_17:A I
*I vs_3_17:A I
*CAP
1 pgm_pn17_7_s0:1 1.015344e-02
*RES
1 lt_pn17_7_s0:Z pgm_pn17_7_s0:1 1.081365e+01
2 pgm_pn17_7_s0:1 vs_4_17:A 1.000000e-03
3 pgm_pn17_7_s0:1 vs_3_17:A 1.000000e-03
*END

*D_NET pgm_pn17_7_s1 1.192430e-02
*CONN
*I lt_pn17_7_s1:Z O
*I vs_17_17:A I
*CAP
1 pgm_pn17_7_s1:1 1.192430e-02
*RES
1 lt_pn17_7_s1:Z pgm_pn17_7_s1:1 1.353149e+01
2 pgm_pn17_7_s1:1 vs_17_17:A 1.000000e-03
*END

*D_NET pgm_pn17_8_s1 9.693496e-03
*CONN
*I lt_pn17_8_s1:Z O
*I vs_20_17:A I
*CAP
1 pgm_pn17_8_s1:1 9.693496e-03
*RES
1 lt_pn17_8_s1:Z pgm_pn17_8_s1:1 1.100001e+01
2 pgm_pn17_8_s1:1 vs_20_17:A 1.000000e-03
*END

*D_NET pgm_pn17_8_s2 1.035711e-02
*CONN
*I lt_pn17_8_s2:Z O
*I vs_44_17:A I
*I vs_37_17:A I
*CAP
1 pgm_pn17_8_s2:1 1.035711e-02
*RES
1 lt_pn17_8_s2:Z pgm_pn17_8_s2:1 1.175306e+01
2 pgm_pn17_8_s2:1 vs_44_17:A 1.000000e-03
3 pgm_pn17_8_s2:1 vs_37_17:A 1.000000e-03
*END

*D_NET pgm_pn17_8_s3 5.249656e-03
*CONN
*I lt_pn17_8_s3:Z O
*I vs_55_17:A I
*CAP
1 pgm_pn17_8_s3:1 5.249656e-03
*RES
1 lt_pn17_8_s3:Z pgm_pn17_8_s3:1 5.957216e+00
2 pgm_pn17_8_s3:1 vs_55_17:A 1.000000e-03
*END

*D_NET pgm_pn17_9_s0 1.270938e-03
*CONN
*I lt_pn17_9_s0:Z O
*I vs_11_17:A I
*CAP
1 pgm_pn17_9_s0:1 1.270938e-03
*RES
1 lt_pn17_9_s0:Z pgm_pn17_9_s0:1 1.442238e+00
2 pgm_pn17_9_s0:1 vs_11_17:A 1.000000e-03
*END

*D_NET pgm_pn17_9_s3 5.249656e-03
*CONN
*I lt_pn17_9_s3:Z O
*I vs_63_17:A I
*CAP
1 pgm_pn17_9_s3:1 5.249656e-03
*RES
1 lt_pn17_9_s3:Z pgm_pn17_9_s3:1 5.957216e+00
2 pgm_pn17_9_s3:1 vs_63_17:A 1.000000e-03
*END

*D_NET pgm_pn18_0_s2 2.296280e-02
*CONN
*I lt_pn18_0_s2:Z O
*I vs_47_18:A I
*I vs_32_18:A I
*CAP
1 pgm_pn18_0_s2:1 2.296280e-02
*RES
1 lt_pn18_0_s2:Z pgm_pn18_0_s2:1 2.605778e+01
2 pgm_pn18_0_s2:1 vs_47_18:A 1.000000e-03
3 pgm_pn18_0_s2:1 vs_32_18:A 1.000000e-03
*END

*D_NET pgm_pn18_10_s1 1.366629e-02
*CONN
*I lt_pn18_10_s1:Z O
*I vs_19_18:A I
*CAP
1 pgm_pn18_10_s1:1 1.366629e-02
*RES
1 lt_pn18_10_s1:Z pgm_pn18_10_s1:1 1.550826e+01
2 pgm_pn18_10_s1:1 vs_19_18:A 1.000000e-03
*END

*D_NET pgm_pn18_11_s0 6.746803e-03
*CONN
*I lt_pn18_11_s0:Z O
*I vs_10_18:A I
*CAP
1 pgm_pn18_11_s0:1 6.746803e-03
*RES
1 lt_pn18_11_s0:Z pgm_pn18_11_s0:1 6.083978e+00
2 pgm_pn18_11_s0:1 vs_10_18:A 1.000000e-03
*END

*D_NET pgm_pn18_12_s0 1.511794e-02
*CONN
*I lt_pn18_12_s0:Z O
*I vs_5_18:A I
*CAP
1 pgm_pn18_12_s0:1 1.511794e-02
*RES
1 lt_pn18_12_s0:Z pgm_pn18_12_s0:1 1.715557e+01
2 pgm_pn18_12_s0:1 vs_5_18:A 1.000000e-03
*END

*D_NET pgm_pn18_1_s0 1.747910e-02
*CONN
*I lt_pn18_1_s0:Z O
*I vs_14_18:A I
*CAP
1 pgm_pn18_1_s0:1 1.747910e-02
*RES
1 lt_pn18_1_s0:Z pgm_pn18_1_s0:1 1.983497e+01
2 pgm_pn18_1_s0:1 vs_14_18:A 1.000000e-03
*END

*D_NET pgm_pn18_1_s2 7.003492e-03
*CONN
*I lt_pn18_1_s2:Z O
*I vs_38_18:A I
*CAP
1 pgm_pn18_1_s2:1 7.003492e-03
*RES
1 lt_pn18_1_s2:Z pgm_pn18_1_s2:1 7.947437e+00
2 pgm_pn18_1_s2:1 vs_38_18:A 1.000000e-03
*END

*D_NET pgm_pn18_2_s0 4.716396e-03
*CONN
*I lt_pn18_2_s0:Z O
*I vs_1_18:A I
*I vs_0_18:A I
*CAP
1 pgm_pn18_2_s0:1 4.716396e-03
*RES
1 lt_pn18_2_s0:Z pgm_pn18_2_s0:1 5.352081e+00
2 pgm_pn18_2_s0:1 vs_1_18:A 1.000000e-03
3 pgm_pn18_2_s0:1 vs_0_18:A 1.000000e-03
*END

*D_NET pgm_pn18_2_s2 2.349310e-03
*CONN
*I lt_pn18_2_s2:Z O
*I vs_36_18:A I
*CAP
1 pgm_pn18_2_s2:1 2.349310e-03
*RES
1 lt_pn18_2_s2:Z pgm_pn18_2_s2:1 2.665955e+00
2 pgm_pn18_2_s2:1 vs_36_18:A 1.000000e-03
*END

*D_NET pgm_pn18_3_s1 1.025046e-02
*CONN
*I lt_pn18_3_s1:Z O
*I vs_27_18:A I
*CAP
1 pgm_pn18_3_s1:1 1.025046e-02
*RES
1 lt_pn18_3_s1:Z pgm_pn18_3_s1:1 1.163204e+01
2 pgm_pn18_3_s1:1 vs_27_18:A 1.000000e-03
*END

*D_NET pgm_pn18_3_s2 1.106812e-02
*CONN
*I lt_pn18_3_s2:Z O
*I vs_43_18:A I
*CAP
1 pgm_pn18_3_s2:1 1.106812e-02
*RES
1 lt_pn18_3_s2:Z pgm_pn18_3_s2:1 1.255991e+01
2 pgm_pn18_3_s2:1 vs_43_18:A 1.000000e-03
*END

*D_NET pgm_pn18_3_s3 1.512387e-02
*CONN
*I lt_pn18_3_s3:Z O
*I vs_62_18:A I
*CAP
1 pgm_pn18_3_s3:1 1.512387e-02
*RES
1 lt_pn18_3_s3:Z pgm_pn18_3_s3:1 1.716230e+01
2 pgm_pn18_3_s3:1 vs_62_18:A 1.000000e-03
*END

*D_NET pgm_pn18_4_s0 5.163742e-03
*CONN
*I lt_pn18_4_s0:Z O
*I vs_2_18:A I
*CAP
1 pgm_pn18_4_s0:1 5.163742e-03
*RES
1 lt_pn18_4_s0:Z pgm_pn18_4_s0:1 5.859722e+00
2 pgm_pn18_4_s0:1 vs_2_18:A 1.000000e-03
*END

*D_NET pgm_pn18_4_s2 1.031860e-02
*CONN
*I lt_pn18_4_s2:Z O
*I vs_44_18:A I
*CAP
1 pgm_pn18_4_s2:1 1.031860e-02
*RES
1 lt_pn18_4_s2:Z pgm_pn18_4_s2:1 1.170936e+01
2 pgm_pn18_4_s2:1 vs_44_18:A 1.000000e-03
*END

*D_NET pgm_pn18_4_s3 1.004012e-02
*CONN
*I lt_pn18_4_s3:Z O
*I vs_60_18:A I
*CAP
1 pgm_pn18_4_s3:1 1.004012e-02
*RES
1 lt_pn18_4_s3:Z pgm_pn18_4_s3:1 1.139334e+01
2 pgm_pn18_4_s3:1 vs_60_18:A 1.000000e-03
*END

*D_NET pgm_pn18_5_s0 5.895494e-04
*CONN
*I lt_pn18_5_s0:Z O
*I vs_7_18:A I
*CAP
1 pgm_pn18_5_s0:1 5.895494e-04
*RES
1 lt_pn18_5_s0:Z pgm_pn18_5_s0:1 6.690101e-01
2 pgm_pn18_5_s0:1 vs_7_18:A 1.000000e-03
*END

*D_NET pgm_pn18_6_s1 5.948820e-03
*CONN
*I lt_pn18_6_s1:Z O
*I vs_28_18:A I
*I vs_24_18:A I
*CAP
1 pgm_pn18_6_s1:1 5.948820e-03
*RES
1 lt_pn18_6_s1:Z pgm_pn18_6_s1:1 6.750615e+00
2 pgm_pn18_6_s1:1 vs_28_18:A 1.000000e-03
3 pgm_pn18_6_s1:1 vs_24_18:A 1.000000e-03
*END

*D_NET pgm_pn19_0_s0 1.298255e-02
*CONN
*I lt_pn19_0_s0:Z O
*I vs_9_19:A I
*CAP
1 pgm_pn19_0_s0:1 1.298255e-02
*RES
1 lt_pn19_0_s0:Z pgm_pn19_0_s0:1 1.301621e+01
2 pgm_pn19_0_s0:1 vs_9_19:A 1.000000e-03
*END

*D_NET pgm_pn19_0_s3 2.097850e-02
*CONN
*I lt_pn19_0_s3:Z O
*I vs_62_19:A I
*I vs_61_19:A I
*I vs_50_19:A I
*CAP
1 pgm_pn19_0_s3:1 2.097850e-02
*RES
1 lt_pn19_0_s3:Z pgm_pn19_0_s3:1 2.208987e+01
2 pgm_pn19_0_s3:1 vs_62_19:A 1.000000e-03
3 pgm_pn19_0_s3:1 vs_61_19:A 1.000000e-03
4 pgm_pn19_0_s3:1 vs_50_19:A 1.000000e-03
*END

*D_NET pgm_pn19_10_s0 1.981953e-03
*CONN
*I lt_pn19_10_s0:Z O
*I vs_12_19:A I
*CAP
1 pgm_pn19_10_s0:1 1.981953e-03
*RES
1 lt_pn19_10_s0:Z pgm_pn19_10_s0:1 2.249084e+00
2 pgm_pn19_10_s0:1 vs_12_19:A 1.000000e-03
*END

*D_NET pgm_pn19_11_s1 1.842120e-02
*CONN
*I lt_pn19_11_s1:Z O
*I vs_17_19:A I
*CAP
1 pgm_pn19_11_s1:1 1.842120e-02
*RES
1 lt_pn19_11_s1:Z pgm_pn19_11_s1:1 2.090405e+01
2 pgm_pn19_11_s1:1 vs_17_19:A 1.000000e-03
*END

*D_NET pgm_pn19_11_s2 7.019359e-03
*CONN
*I lt_pn19_11_s2:Z O
*I vs_42_19:A I
*CAP
1 pgm_pn19_11_s2:1 7.019359e-03
*RES
1 lt_pn19_11_s2:Z pgm_pn19_11_s2:1 6.393269e+00
2 pgm_pn19_11_s2:1 vs_42_19:A 1.000000e-03
*END

*D_NET pgm_pn19_12_s0 4.890912e-03
*CONN
*I lt_pn19_12_s0:Z O
*I vs_13_19:A I
*CAP
1 pgm_pn19_12_s0:1 4.890912e-03
*RES
1 lt_pn19_12_s0:Z pgm_pn19_12_s0:1 3.546007e+00
2 pgm_pn19_12_s0:1 vs_13_19:A 1.000000e-03
*END

*D_NET pgm_pn19_12_s2 2.749424e-03
*CONN
*I lt_pn19_12_s2:Z O
*I vs_47_19:A I
*CAP
1 pgm_pn19_12_s2:1 2.749424e-03
*RES
1 lt_pn19_12_s2:Z pgm_pn19_12_s2:1 1.259865e+00
2 pgm_pn19_12_s2:1 vs_47_19:A 1.000000e-03
*END

*D_NET pgm_pn19_1_s0 9.617489e-03
*CONN
*I lt_pn19_1_s0:Z O
*I vs_7_19:A I
*I vs_6_19:A I
*CAP
1 pgm_pn19_1_s0:1 9.617489e-03
*RES
1 lt_pn19_1_s0:Z pgm_pn19_1_s0:1 8.953462e+00
2 pgm_pn19_1_s0:1 vs_7_19:A 1.000000e-03
3 pgm_pn19_1_s0:1 vs_6_19:A 1.000000e-03
*END

*D_NET pgm_pn19_1_s1 1.767760e-02
*CONN
*I lt_pn19_1_s1:Z O
*I vs_29_19:A I
*I vs_22_19:A I
*CAP
1 pgm_pn19_1_s1:1 1.767760e-02
*RES
1 lt_pn19_1_s1:Z pgm_pn19_1_s1:1 2.006022e+01
2 pgm_pn19_1_s1:1 vs_29_19:A 1.000000e-03
3 pgm_pn19_1_s1:1 vs_22_19:A 1.000000e-03
*END

*D_NET pgm_pn19_1_s2 1.803119e-02
*CONN
*I lt_pn19_1_s2:Z O
*I vs_45_19:A I
*I vs_44_19:A I
*I vs_37_19:A I
*CAP
1 pgm_pn19_1_s2:1 1.803119e-02
*RES
1 lt_pn19_1_s2:Z pgm_pn19_1_s2:1 1.888930e+01
2 pgm_pn19_1_s2:1 vs_45_19:A 1.000000e-03
3 pgm_pn19_1_s2:1 vs_44_19:A 1.000000e-03
4 pgm_pn19_1_s2:1 vs_37_19:A 1.000000e-03
*END

*D_NET pgm_pn19_1_s3 2.873683e-03
*CONN
*I lt_pn19_1_s3:Z O
*I vs_51_19:A I
*CAP
1 pgm_pn19_1_s3:1 2.873683e-03
*RES
1 lt_pn19_1_s3:Z pgm_pn19_1_s3:1 3.261004e+00
2 pgm_pn19_1_s3:1 vs_51_19:A 1.000000e-03
*END

*D_NET pgm_pn19_2_s0 2.918122e-03
*CONN
*I lt_pn19_2_s0:Z O
*I vs_2_19:A I
*CAP
1 pgm_pn19_2_s0:1 2.918122e-03
*RES
1 lt_pn19_2_s0:Z pgm_pn19_2_s0:1 3.311432e+00
2 pgm_pn19_2_s0:1 vs_2_19:A 1.000000e-03
*END

*D_NET pgm_pn19_2_s1 1.895150e-02
*CONN
*I lt_pn19_2_s1:Z O
*I vs_31_19:A I
*I vs_19_19:A I
*CAP
1 pgm_pn19_2_s1:1 1.895150e-02
*RES
1 lt_pn19_2_s1:Z pgm_pn19_2_s1:1 2.150582e+01
2 pgm_pn19_2_s1:1 vs_31_19:A 1.000000e-03
3 pgm_pn19_2_s1:1 vs_19_19:A 1.000000e-03
*END

*D_NET pgm_pn19_2_s2 9.284663e-03
*CONN
*I lt_pn19_2_s2:Z O
*I vs_41_19:A I
*CAP
1 pgm_pn19_2_s2:1 9.284663e-03
*RES
1 lt_pn19_2_s2:Z pgm_pn19_2_s2:1 1.053607e+01
2 pgm_pn19_2_s2:1 vs_41_19:A 1.000000e-03
*END

*D_NET pgm_pn19_2_s3 4.368753e-03
*CONN
*I lt_pn19_2_s3:Z O
*I vs_53_19:A I
*CAP
1 pgm_pn19_2_s3:1 4.368753e-03
*RES
1 lt_pn19_2_s3:Z pgm_pn19_2_s3:1 3.673368e+00
2 pgm_pn19_2_s3:1 vs_53_19:A 1.000000e-03
*END

*D_NET pgm_pn19_3_s3 3.048474e-03
*CONN
*I lt_pn19_3_s3:Z O
*I vs_54_19:A I
*CAP
1 pgm_pn19_3_s3:1 3.048474e-03
*RES
1 lt_pn19_3_s3:Z pgm_pn19_3_s3:1 3.459354e+00
2 pgm_pn19_3_s3:1 vs_54_19:A 1.000000e-03
*END

*D_NET pgm_pn19_5_s1 6.861289e-03
*CONN
*I lt_pn19_5_s1:Z O
*I vs_27_19:A I
*CAP
1 pgm_pn19_5_s1:1 6.861289e-03
*RES
1 lt_pn19_5_s1:Z pgm_pn19_5_s1:1 7.786068e+00
2 pgm_pn19_5_s1:1 vs_27_19:A 1.000000e-03
*END

*D_NET pgm_pn19_5_s3 2.150819e-03
*CONN
*I lt_pn19_5_s3:Z O
*I vs_56_19:A I
*CAP
1 pgm_pn19_5_s3:1 2.150819e-03
*RES
1 lt_pn19_5_s3:Z pgm_pn19_5_s3:1 2.440710e+00
2 pgm_pn19_5_s3:1 vs_56_19:A 1.000000e-03
*END

*D_NET pgm_pn19_6_s0 1.130513e-02
*CONN
*I lt_pn19_6_s0:Z O
*I vs_15_19:A I
*CAP
1 pgm_pn19_6_s0:1 1.130513e-02
*RES
1 lt_pn19_6_s0:Z pgm_pn19_6_s0:1 1.282886e+01
2 pgm_pn19_6_s0:1 vs_15_19:A 1.000000e-03
*END

*D_NET pgm_pn19_7_s3 1.385886e-02
*CONN
*I lt_pn19_7_s3:Z O
*I vs_57_19:A I
*I vs_48_19:A I
*CAP
1 pgm_pn19_7_s3:1 1.385886e-02
*RES
1 lt_pn19_7_s3:Z pgm_pn19_7_s3:1 1.572678e+01
2 pgm_pn19_7_s3:1 vs_57_19:A 1.000000e-03
3 pgm_pn19_7_s3:1 vs_48_19:A 1.000000e-03
*END

*D_NET pgm_pn19_8_s1 7.978037e-03
*CONN
*I lt_pn19_8_s1:Z O
*I vs_21_19:A I
*CAP
1 pgm_pn19_8_s1:1 7.978037e-03
*RES
1 lt_pn19_8_s1:Z pgm_pn19_8_s1:1 8.057077e+00
2 pgm_pn19_8_s1:1 vs_21_19:A 1.000000e-03
*END

*D_NET pgm_pn19_9_s1 4.580118e-03
*CONN
*I lt_pn19_9_s1:Z O
*I vs_30_19:A I
*CAP
1 pgm_pn19_9_s1:1 4.580118e-03
*RES
1 lt_pn19_9_s1:Z pgm_pn19_9_s1:1 5.197436e+00
2 pgm_pn19_9_s1:1 vs_30_19:A 1.000000e-03
*END

*D_NET pgm_pn19_9_s3 2.968485e-03
*CONN
*I lt_pn19_9_s3:Z O
*I vs_58_19:A I
*CAP
1 pgm_pn19_9_s3:1 2.968485e-03
*RES
1 lt_pn19_9_s3:Z pgm_pn19_9_s3:1 3.368584e+00
2 pgm_pn19_9_s3:1 vs_58_19:A 1.000000e-03
*END

*D_NET pgm_pn1_0_s0 1.313909e-02
*CONN
*I lt_pn1_0_s0:Z O
*I vs_9_1:A I
*CAP
1 pgm_pn1_0_s0:1 1.313909e-02
*RES
1 lt_pn1_0_s0:Z pgm_pn1_0_s0:1 1.266175e+01
2 pgm_pn1_0_s0:1 vs_9_1:A 1.000000e-03
*END

*D_NET pgm_pn1_0_s3 1.732300e-02
*CONN
*I lt_pn1_0_s3:Z O
*I vs_56_1:A I
*I vs_48_1:A I
*CAP
1 pgm_pn1_0_s3:1 1.732300e-02
*RES
1 lt_pn1_0_s3:Z pgm_pn1_0_s3:1 1.707781e+01
2 pgm_pn1_0_s3:1 vs_56_1:A 1.000000e-03
3 pgm_pn1_0_s3:1 vs_48_1:A 1.000000e-03
*END

*D_NET pgm_pn1_10_s0 9.053583e-03
*CONN
*I lt_pn1_10_s0:Z O
*I vs_7_1:A I
*CAP
1 pgm_pn1_10_s0:1 9.053583e-03
*RES
1 lt_pn1_10_s0:Z pgm_pn1_10_s0:1 1.027384e+01
2 pgm_pn1_10_s0:1 vs_7_1:A 1.000000e-03
*END

*D_NET pgm_pn1_11_s1 3.966868e-03
*CONN
*I lt_pn1_11_s1:Z O
*I vs_28_1:A I
*CAP
1 pgm_pn1_11_s1:1 3.966868e-03
*RES
1 lt_pn1_11_s1:Z pgm_pn1_11_s1:1 4.501531e+00
2 pgm_pn1_11_s1:1 vs_28_1:A 1.000000e-03
*END

*D_NET pgm_pn1_12_s1 1.665255e-02
*CONN
*I lt_pn1_12_s1:Z O
*I vs_21_1:A I
*CAP
1 pgm_pn1_12_s1:1 1.665255e-02
*RES
1 lt_pn1_12_s1:Z pgm_pn1_12_s1:1 1.889702e+01
2 pgm_pn1_12_s1:1 vs_21_1:A 1.000000e-03
*END

*D_NET pgm_pn1_12_s3 1.784316e-02
*CONN
*I lt_pn1_12_s3:Z O
*I vs_53_1:A I
*CAP
1 pgm_pn1_12_s3:1 1.784316e-02
*RES
1 lt_pn1_12_s3:Z pgm_pn1_12_s3:1 1.746774e+01
2 pgm_pn1_12_s3:1 vs_53_1:A 1.000000e-03
*END

*D_NET pgm_pn1_1_s0 1.926954e-02
*CONN
*I lt_pn1_1_s0:Z O
*I vs_14_1:A I
*I vs_13_1:A I
*I vs_11_1:A I
*I vs_5_1:A I
*CAP
1 pgm_pn1_1_s0:1 1.926954e-02
*RES
1 lt_pn1_1_s0:Z pgm_pn1_1_s0:1 2.030036e+01
2 pgm_pn1_1_s0:1 vs_14_1:A 1.000000e-03
3 pgm_pn1_1_s0:1 vs_13_1:A 1.000000e-03
4 pgm_pn1_1_s0:1 vs_11_1:A 1.000000e-03
5 pgm_pn1_1_s0:1 vs_5_1:A 1.000000e-03
*END

*D_NET pgm_pn1_1_s3 7.039043e-03
*CONN
*I lt_pn1_1_s3:Z O
*I vs_54_1:A I
*CAP
1 pgm_pn1_1_s3:1 7.039043e-03
*RES
1 lt_pn1_1_s3:Z pgm_pn1_1_s3:1 7.987779e+00
2 pgm_pn1_1_s3:1 vs_54_1:A 1.000000e-03
*END

*D_NET pgm_pn1_2_s1 1.452247e-02
*CONN
*I lt_pn1_2_s1:Z O
*I vs_29_1:A I
*I vs_27_1:A I
*CAP
1 pgm_pn1_2_s1:1 1.452247e-02
*RES
1 lt_pn1_2_s1:Z pgm_pn1_2_s1:1 1.647984e+01
2 pgm_pn1_2_s1:1 vs_29_1:A 1.000000e-03
3 pgm_pn1_2_s1:1 vs_27_1:A 1.000000e-03
*END

*D_NET pgm_pn1_2_s2 1.347372e-02
*CONN
*I lt_pn1_2_s2:Z O
*I vs_43_1:A I
*I vs_36_1:A I
*CAP
1 pgm_pn1_2_s2:1 1.347372e-02
*RES
1 lt_pn1_2_s2:Z pgm_pn1_2_s2:1 1.528974e+01
2 pgm_pn1_2_s2:1 vs_43_1:A 1.000000e-03
3 pgm_pn1_2_s2:1 vs_36_1:A 1.000000e-03
*END

*D_NET pgm_pn1_3_s2 4.630481e-03
*CONN
*I lt_pn1_3_s2:Z O
*I vs_39_1:A I
*I vs_37_1:A I
*CAP
1 pgm_pn1_3_s2:1 4.630481e-03
*RES
1 lt_pn1_3_s2:Z pgm_pn1_3_s2:1 5.254587e+00
2 pgm_pn1_3_s2:1 vs_39_1:A 1.000000e-03
3 pgm_pn1_3_s2:1 vs_37_1:A 1.000000e-03
*END

*D_NET pgm_pn1_4_s1 4.035007e-03
*CONN
*I lt_pn1_4_s1:Z O
*I vs_24_1:A I
*CAP
1 pgm_pn1_4_s1:1 4.035007e-03
*RES
1 lt_pn1_4_s1:Z pgm_pn1_4_s1:1 4.578853e+00
2 pgm_pn1_4_s1:1 vs_24_1:A 1.000000e-03
*END

*D_NET pgm_pn1_4_s2 1.018232e-02
*CONN
*I lt_pn1_4_s2:Z O
*I vs_44_1:A I
*CAP
1 pgm_pn1_4_s2:1 1.018232e-02
*RES
1 lt_pn1_4_s2:Z pgm_pn1_4_s2:1 1.155471e+01
2 pgm_pn1_4_s2:1 vs_44_1:A 1.000000e-03
*END

*D_NET pgm_pn1_5_s0 1.307010e-02
*CONN
*I lt_pn1_5_s0:Z O
*I vs_15_1:A I
*CAP
1 pgm_pn1_5_s0:1 1.307010e-02
*RES
1 lt_pn1_5_s0:Z pgm_pn1_5_s0:1 1.213900e+01
2 pgm_pn1_5_s0:1 vs_15_1:A 1.000000e-03
*END

*D_NET pgm_pn1_5_s2 8.917306e-04
*CONN
*I lt_pn1_5_s2:Z O
*I vs_38_1:A I
*CAP
1 pgm_pn1_5_s2:1 8.917306e-04
*RES
1 lt_pn1_5_s2:Z pgm_pn1_5_s2:1 1.011920e+00
2 pgm_pn1_5_s2:1 vs_38_1:A 1.000000e-03
*END

*D_NET pgm_pn1_5_s3 1.094666e-02
*CONN
*I lt_pn1_5_s3:Z O
*I vs_62_1:A I
*CAP
1 pgm_pn1_5_s3:1 1.094666e-02
*RES
1 lt_pn1_5_s3:Z pgm_pn1_5_s3:1 1.242207e+01
2 pgm_pn1_5_s3:1 vs_62_1:A 1.000000e-03
*END

*D_NET pgm_pn1_6_s1 1.312237e-02
*CONN
*I lt_pn1_6_s1:Z O
*I vs_31_1:A I
*I vs_25_1:A I
*CAP
1 pgm_pn1_6_s1:1 1.312237e-02
*RES
1 lt_pn1_6_s1:Z pgm_pn1_6_s1:1 1.432671e+01
2 pgm_pn1_6_s1:1 vs_31_1:A 1.000000e-03
3 pgm_pn1_6_s1:1 vs_25_1:A 1.000000e-03
*END

*D_NET pgm_pn1_6_s3 1.404662e-02
*CONN
*I lt_pn1_6_s3:Z O
*I vs_61_1:A I
*I vs_52_1:A I
*CAP
1 pgm_pn1_6_s3:1 1.404662e-02
*RES
1 lt_pn1_6_s3:Z pgm_pn1_6_s3:1 1.459930e+01
2 pgm_pn1_6_s3:1 vs_61_1:A 1.000000e-03
3 pgm_pn1_6_s3:1 vs_52_1:A 1.000000e-03
*END

*D_NET pgm_pn1_8_s3 1.111583e-02
*CONN
*I lt_pn1_8_s3:Z O
*I vs_51_1:A I
*CAP
1 pgm_pn1_8_s3:1 1.111583e-02
*RES
1 lt_pn1_8_s3:Z pgm_pn1_8_s3:1 1.176177e+01
2 pgm_pn1_8_s3:1 vs_51_1:A 1.000000e-03
*END

*D_NET pgm_pn1_9_s1 1.608374e-02
*CONN
*I lt_pn1_9_s1:Z O
*I vs_16_1:A I
*CAP
1 pgm_pn1_9_s1:1 1.608374e-02
*RES
1 lt_pn1_9_s1:Z pgm_pn1_9_s1:1 1.825154e+01
2 pgm_pn1_9_s1:1 vs_16_1:A 1.000000e-03
*END

*D_NET pgm_pn1_9_s2 1.021552e-02
*CONN
*I lt_pn1_9_s2:Z O
*I vs_40_1:A I
*CAP
1 pgm_pn1_9_s2:1 1.021552e-02
*RES
1 lt_pn1_9_s2:Z pgm_pn1_9_s2:1 9.876234e+00
2 pgm_pn1_9_s2:1 vs_40_1:A 1.000000e-03
*END

*D_NET pgm_pn20_0_s2 1.684958e-02
*CONN
*I lt_pn20_0_s2:Z O
*I vs_44_20:A I
*I vs_41_20:A I
*CAP
1 pgm_pn20_0_s2:1 1.684958e-02
*RES
1 lt_pn20_0_s2:Z pgm_pn20_0_s2:1 1.769240e+01
2 pgm_pn20_0_s2:1 vs_44_20:A 1.000000e-03
3 pgm_pn20_0_s2:1 vs_41_20:A 1.000000e-03
*END

*D_NET pgm_pn20_12_s0 2.165039e-02
*CONN
*I lt_pn20_12_s0:Z O
*I vs_0_20:A I
*CAP
1 pgm_pn20_12_s0:1 2.165039e-02
*RES
1 lt_pn20_12_s0:Z pgm_pn20_12_s0:1 2.456847e+01
2 pgm_pn20_12_s0:1 vs_0_20:A 1.000000e-03
*END

*D_NET pgm_pn20_12_s2 2.079421e-02
*CONN
*I lt_pn20_12_s2:Z O
*I vs_33_20:A I
*CAP
1 pgm_pn20_12_s2:1 2.079421e-02
*RES
1 lt_pn20_12_s2:Z pgm_pn20_12_s2:1 2.359690e+01
2 pgm_pn20_12_s2:1 vs_33_20:A 1.000000e-03
*END

*D_NET pgm_pn20_12_s3 1.368720e-02
*CONN
*I lt_pn20_12_s3:Z O
*I vs_57_20:A I
*CAP
1 pgm_pn20_12_s3:1 1.368720e-02
*RES
1 lt_pn20_12_s3:Z pgm_pn20_12_s3:1 1.367185e+01
2 pgm_pn20_12_s3:1 vs_57_20:A 1.000000e-03
*END

*D_NET pgm_pn20_1_s1 1.876621e-02
*CONN
*I lt_pn20_1_s1:Z O
*I vs_29_20:A I
*CAP
1 pgm_pn20_1_s1:1 1.876621e-02
*RES
1 lt_pn20_1_s1:Z pgm_pn20_1_s1:1 1.885951e+01
2 pgm_pn20_1_s1:1 vs_29_20:A 1.000000e-03
*END

*D_NET pgm_pn20_1_s2 3.643949e-03
*CONN
*I lt_pn20_1_s2:Z O
*I vs_32_20:A I
*CAP
1 pgm_pn20_1_s2:1 3.643949e-03
*RES
1 lt_pn20_1_s2:Z pgm_pn20_1_s2:1 4.135088e+00
2 pgm_pn20_1_s2:1 vs_32_20:A 1.000000e-03
*END

*D_NET pgm_pn20_2_s0 1.068003e-02
*CONN
*I lt_pn20_2_s0:Z O
*I vs_10_20:A I
*CAP
1 pgm_pn20_2_s0:1 1.068003e-02
*RES
1 lt_pn20_2_s0:Z pgm_pn20_2_s0:1 1.211951e+01
2 pgm_pn20_2_s0:1 vs_10_20:A 1.000000e-03
*END

*D_NET pgm_pn20_2_s1 1.106547e-02
*CONN
*I lt_pn20_2_s1:Z O
*I vs_26_20:A I
*CAP
1 pgm_pn20_2_s1:1 1.106547e-02
*RES
1 lt_pn20_2_s1:Z pgm_pn20_2_s1:1 1.170462e+01
2 pgm_pn20_2_s1:1 vs_26_20:A 1.000000e-03
*END

*D_NET pgm_pn20_2_s3 9.539443e-04
*CONN
*I lt_pn20_2_s3:Z O
*I vs_51_20:A I
*CAP
1 pgm_pn20_2_s3:1 9.539443e-04
*RES
1 lt_pn20_2_s3:Z pgm_pn20_2_s3:1 1.082519e+00
2 pgm_pn20_2_s3:1 vs_51_20:A 1.000000e-03
*END

*D_NET pgm_pn20_3_s0 1.402925e-03
*CONN
*I lt_pn20_3_s0:Z O
*I vs_4_20:A I
*CAP
1 pgm_pn20_3_s0:1 1.402925e-03
*RES
1 lt_pn20_3_s0:Z pgm_pn20_3_s0:1 1.171676e+00
2 pgm_pn20_3_s0:1 vs_4_20:A 1.000000e-03
*END

*D_NET pgm_pn20_4_s0 6.117686e-03
*CONN
*I lt_pn20_4_s0:Z O
*I vs_3_20:A I
*I vs_2_20:A I
*CAP
1 pgm_pn20_4_s0:1 6.117686e-03
*RES
1 lt_pn20_4_s0:Z pgm_pn20_4_s0:1 6.942241e+00
2 pgm_pn20_4_s0:1 vs_3_20:A 1.000000e-03
3 pgm_pn20_4_s0:1 vs_2_20:A 1.000000e-03
*END

*D_NET pgm_pn20_5_s2 6.147312e-03
*CONN
*I lt_pn20_5_s2:Z O
*I vs_35_20:A I
*CAP
1 pgm_pn20_5_s2:1 6.147312e-03
*RES
1 lt_pn20_5_s2:Z pgm_pn20_5_s2:1 6.975859e+00
2 pgm_pn20_5_s2:1 vs_35_20:A 1.000000e-03
*END

*D_NET pgm_pn20_6_s0 1.115700e-02
*CONN
*I lt_pn20_6_s0:Z O
*I vs_9_20:A I
*I vs_1_20:A I
*CAP
1 pgm_pn20_6_s0:1 1.115700e-02
*RES
1 lt_pn20_6_s0:Z pgm_pn20_6_s0:1 1.266076e+01
2 pgm_pn20_6_s0:1 vs_9_20:A 1.000000e-03
3 pgm_pn20_6_s0:1 vs_1_20:A 1.000000e-03
*END

*D_NET pgm_pn20_6_s1 1.201022e-02
*CONN
*I lt_pn20_6_s1:Z O
*I vs_25_20:A I
*I vs_21_20:A I
*I vs_17_20:A I
*CAP
1 pgm_pn20_6_s1:1 1.201022e-02
*RES
1 lt_pn20_6_s1:Z pgm_pn20_6_s1:1 1.362898e+01
2 pgm_pn20_6_s1:1 vs_25_20:A 1.000000e-03
3 pgm_pn20_6_s1:1 vs_21_20:A 1.000000e-03
4 pgm_pn20_6_s1:1 vs_17_20:A 1.000000e-03
*END

*D_NET pgm_pn20_6_s3 2.224957e-02
*CONN
*I lt_pn20_6_s3:Z O
*I vs_63_20:A I
*I vs_49_20:A I
*CAP
1 pgm_pn20_6_s3:1 2.224957e-02
*RES
1 lt_pn20_6_s3:Z pgm_pn20_6_s3:1 2.454012e+01
2 pgm_pn20_6_s3:1 vs_63_20:A 1.000000e-03
3 pgm_pn20_6_s3:1 vs_49_20:A 1.000000e-03
*END

*D_NET pgm_pn20_7_s1 9.859400e-03
*CONN
*I lt_pn20_7_s1:Z O
*I vs_20_20:A I
*CAP
1 pgm_pn20_7_s1:1 9.859400e-03
*RES
1 lt_pn20_7_s1:Z pgm_pn20_7_s1:1 1.118827e+01
2 pgm_pn20_7_s1:1 vs_20_20:A 1.000000e-03
*END

*D_NET pgm_pn20_7_s2 2.020466e-03
*CONN
*I lt_pn20_7_s2:Z O
*I vs_40_20:A I
*CAP
1 pgm_pn20_7_s2:1 2.020466e-03
*RES
1 lt_pn20_7_s2:Z pgm_pn20_7_s2:1 2.292789e+00
2 pgm_pn20_7_s2:1 vs_40_20:A 1.000000e-03
*END

*D_NET pgm_pn20_8_s1 3.501746e-03
*CONN
*I lt_pn20_8_s1:Z O
*I vs_24_20:A I
*CAP
1 pgm_pn20_8_s1:1 3.501746e-03
*RES
1 lt_pn20_8_s1:Z pgm_pn20_8_s1:1 3.973719e+00
2 pgm_pn20_8_s1:1 vs_24_20:A 1.000000e-03
*END

*D_NET pgm_pn20_8_s3 8.541366e-03
*CONN
*I lt_pn20_8_s3:Z O
*I vs_53_20:A I
*CAP
1 pgm_pn20_8_s3:1 8.541366e-03
*RES
1 lt_pn20_8_s3:Z pgm_pn20_8_s3:1 8.840313e+00
2 pgm_pn20_8_s3:1 vs_53_20:A 1.000000e-03
*END

*D_NET pgm_pn20_9_s0 7.945006e-03
*CONN
*I lt_pn20_9_s0:Z O
*I vs_7_20:A I
*CAP
1 pgm_pn20_9_s0:1 7.945006e-03
*RES
1 lt_pn20_9_s0:Z pgm_pn20_9_s0:1 7.875615e+00
2 pgm_pn20_9_s0:1 vs_7_20:A 1.000000e-03
*END

*D_NET pgm_pn20_9_s2 1.049931e-02
*CONN
*I lt_pn20_9_s2:Z O
*I vs_39_20:A I
*I vs_37_20:A I
*CAP
1 pgm_pn20_9_s2:1 1.049931e-02
*RES
1 lt_pn20_9_s2:Z pgm_pn20_9_s2:1 1.191443e+01
2 pgm_pn20_9_s2:1 vs_39_20:A 1.000000e-03
3 pgm_pn20_9_s2:1 vs_37_20:A 1.000000e-03
*END

*D_NET pgm_pn21_0_s0 1.614003e-02
*CONN
*I lt_pn21_0_s0:Z O
*I vs_14_21:A I
*I vs_6_21:A I
*I vs_3_21:A I
*CAP
1 pgm_pn21_0_s0:1 1.614003e-02
*RES
1 lt_pn21_0_s0:Z pgm_pn21_0_s0:1 1.831541e+01
2 pgm_pn21_0_s0:1 vs_14_21:A 1.000000e-03
3 pgm_pn21_0_s0:1 vs_6_21:A 1.000000e-03
4 pgm_pn21_0_s0:1 vs_3_21:A 1.000000e-03
*END

*D_NET pgm_pn21_0_s1 1.762131e-02
*CONN
*I lt_pn21_0_s1:Z O
*I vs_29_21:A I
*I vs_25_21:A I
*I vs_17_21:A I
*CAP
1 pgm_pn21_0_s1:1 1.762131e-02
*RES
1 lt_pn21_0_s1:Z pgm_pn21_0_s1:1 1.999634e+01
2 pgm_pn21_0_s1:1 vs_29_21:A 1.000000e-03
3 pgm_pn21_0_s1:1 vs_25_21:A 1.000000e-03
4 pgm_pn21_0_s1:1 vs_17_21:A 1.000000e-03
*END

*D_NET pgm_pn21_0_s2 2.519065e-02
*CONN
*I lt_pn21_0_s2:Z O
*I vs_47_21:A I
*I vs_45_21:A I
*I vs_43_21:A I
*I vs_40_21:A I
*I vs_37_21:A I
*I vs_32_21:A I
*CAP
1 pgm_pn21_0_s2:1 2.519065e-02
*RES
1 lt_pn21_0_s2:Z pgm_pn21_0_s2:1 2.858590e+01
2 pgm_pn21_0_s2:1 vs_47_21:A 1.000000e-03
3 pgm_pn21_0_s2:1 vs_45_21:A 1.000000e-03
4 pgm_pn21_0_s2:1 vs_43_21:A 1.000000e-03
5 pgm_pn21_0_s2:1 vs_40_21:A 1.000000e-03
6 pgm_pn21_0_s2:1 vs_37_21:A 1.000000e-03
7 pgm_pn21_0_s2:1 vs_32_21:A 1.000000e-03
*END

*D_NET pgm_pn21_0_s3 2.040611e-02
*CONN
*I lt_pn21_0_s3:Z O
*I vs_62_21:A I
*I vs_55_21:A I
*I vs_53_21:A I
*I vs_48_21:A I
*CAP
1 pgm_pn21_0_s3:1 2.040611e-02
*RES
1 lt_pn21_0_s3:Z pgm_pn21_0_s3:1 2.315649e+01
2 pgm_pn21_0_s3:1 vs_62_21:A 1.000000e-03
3 pgm_pn21_0_s3:1 vs_55_21:A 1.000000e-03
4 pgm_pn21_0_s3:1 vs_53_21:A 1.000000e-03
5 pgm_pn21_0_s3:1 vs_48_21:A 1.000000e-03
*END

*D_NET pgm_pn2_0_s0 1.346187e-02
*CONN
*I lt_pn2_0_s0:Z O
*I vs_9_2:A I
*CAP
1 pgm_pn2_0_s0:1 1.346187e-02
*RES
1 lt_pn2_0_s0:Z pgm_pn2_0_s0:1 1.527629e+01
2 pgm_pn2_0_s0:1 vs_9_2:A 1.000000e-03
*END

*D_NET pgm_pn2_10_s1 1.871956e-02
*CONN
*I lt_pn2_10_s1:Z O
*I vs_21_2:A I
*I vs_18_2:A I
*CAP
1 pgm_pn2_10_s1:1 1.871956e-02
*RES
1 lt_pn2_10_s1:Z pgm_pn2_10_s1:1 1.809828e+01
2 pgm_pn2_10_s1:1 vs_21_2:A 1.000000e-03
3 pgm_pn2_10_s1:1 vs_18_2:A 1.000000e-03
*END

*D_NET pgm_pn2_11_s0 1.326117e-02
*CONN
*I lt_pn2_11_s0:Z O
*I vs_5_2:A I
*CAP
1 pgm_pn2_11_s0:1 1.326117e-02
*RES
1 lt_pn2_11_s0:Z pgm_pn2_11_s0:1 1.434024e+01
2 pgm_pn2_11_s0:1 vs_5_2:A 1.000000e-03
*END

*D_NET pgm_pn2_11_s2 1.499055e-03
*CONN
*I lt_pn2_11_s2:Z O
*I vs_46_2:A I
*CAP
1 pgm_pn2_11_s2:1 1.499055e-03
*RES
1 lt_pn2_11_s2:Z pgm_pn2_11_s2:1 1.701101e+00
2 pgm_pn2_11_s2:1 vs_46_2:A 1.000000e-03
*END

*D_NET pgm_pn2_12_s0 1.390820e-02
*CONN
*I lt_pn2_12_s0:Z O
*I vs_6_2:A I
*CAP
1 pgm_pn2_12_s0:1 1.390820e-02
*RES
1 lt_pn2_12_s0:Z pgm_pn2_12_s0:1 1.449856e+01
2 pgm_pn2_12_s0:1 vs_6_2:A 1.000000e-03
*END

*D_NET pgm_pn2_1_s0 1.593414e-02
*CONN
*I lt_pn2_1_s0:Z O
*I vs_12_2:A I
*CAP
1 pgm_pn2_1_s0:1 1.593414e-02
*RES
1 lt_pn2_1_s0:Z pgm_pn2_1_s0:1 1.665359e+01
2 pgm_pn2_1_s0:1 vs_12_2:A 1.000000e-03
*END

*D_NET pgm_pn2_1_s2 1.856238e-02
*CONN
*I lt_pn2_1_s2:Z O
*I vs_45_2:A I
*I vs_42_2:A I
*I vs_39_2:A I
*CAP
1 pgm_pn2_1_s2:1 1.856238e-02
*RES
1 lt_pn2_1_s2:Z pgm_pn2_1_s2:1 1.978004e+01
2 pgm_pn2_1_s2:1 vs_45_2:A 1.000000e-03
3 pgm_pn2_1_s2:1 vs_42_2:A 1.000000e-03
4 pgm_pn2_1_s2:1 vs_39_2:A 1.000000e-03
*END

*D_NET pgm_pn2_2_s1 1.323910e-02
*CONN
*I lt_pn2_2_s1:Z O
*I vs_27_2:A I
*CAP
1 pgm_pn2_2_s1:1 1.323910e-02
*RES
1 lt_pn2_2_s1:Z pgm_pn2_2_s1:1 1.388326e+01
2 pgm_pn2_2_s1:1 vs_27_2:A 1.000000e-03
*END

*D_NET pgm_pn2_2_s2 1.693992e-02
*CONN
*I lt_pn2_2_s2:Z O
*I vs_47_2:A I
*CAP
1 pgm_pn2_2_s2:1 1.693992e-02
*RES
1 lt_pn2_2_s2:Z pgm_pn2_2_s2:1 1.922312e+01
2 pgm_pn2_2_s2:1 vs_47_2:A 1.000000e-03
*END

*D_NET pgm_pn2_3_s2 6.867214e-03
*CONN
*I lt_pn2_3_s2:Z O
*I vs_35_2:A I
*I vs_32_2:A I
*CAP
1 pgm_pn2_3_s2:1 6.867214e-03
*RES
1 lt_pn2_3_s2:Z pgm_pn2_3_s2:1 7.792791e+00
2 pgm_pn2_3_s2:1 vs_35_2:A 1.000000e-03
3 pgm_pn2_3_s2:1 vs_32_2:A 1.000000e-03
*END

*D_NET pgm_pn2_3_s3 7.350111e-03
*CONN
*I lt_pn2_3_s3:Z O
*I vs_57_2:A I
*CAP
1 pgm_pn2_3_s3:1 7.350111e-03
*RES
1 lt_pn2_3_s3:Z pgm_pn2_3_s3:1 8.340775e+00
2 pgm_pn2_3_s3:1 vs_57_2:A 1.000000e-03
*END

*D_NET pgm_pn2_4_s0 1.012010e-02
*CONN
*I lt_pn2_4_s0:Z O
*I vs_0_2:A I
*CAP
1 pgm_pn2_4_s0:1 1.012010e-02
*RES
1 lt_pn2_4_s0:Z pgm_pn2_4_s0:1 1.148411e+01
2 pgm_pn2_4_s0:1 vs_0_2:A 1.000000e-03
*END

*D_NET pgm_pn2_4_s3 2.423374e-03
*CONN
*I lt_pn2_4_s3:Z O
*I vs_52_2:A I
*CAP
1 pgm_pn2_4_s3:1 2.423374e-03
*RES
1 lt_pn2_4_s3:Z pgm_pn2_4_s3:1 2.750001e+00
2 pgm_pn2_4_s3:1 vs_52_2:A 1.000000e-03
*END

*D_NET pgm_pn2_5_s2 7.530828e-03
*CONN
*I lt_pn2_5_s2:Z O
*I vs_44_2:A I
*CAP
1 pgm_pn2_5_s2:1 7.530828e-03
*RES
1 lt_pn2_5_s2:Z pgm_pn2_5_s2:1 8.545848e+00
2 pgm_pn2_5_s2:1 vs_44_2:A 1.000000e-03
*END

*D_NET pgm_pn2_6_s0 1.123995e-02
*CONN
*I lt_pn2_6_s0:Z O
*I vs_15_2:A I
*CAP
1 pgm_pn2_6_s0:1 1.123995e-02
*RES
1 lt_pn2_6_s0:Z pgm_pn2_6_s0:1 1.275490e+01
2 pgm_pn2_6_s0:1 vs_15_2:A 1.000000e-03
*END

*D_NET pgm_pn2_6_s1 1.970102e-03
*CONN
*I lt_pn2_6_s1:Z O
*I vs_25_2:A I
*CAP
1 pgm_pn2_6_s1:1 1.970102e-03
*RES
1 lt_pn2_6_s1:Z pgm_pn2_6_s1:1 2.235637e+00
2 pgm_pn2_6_s1:1 vs_25_2:A 1.000000e-03
*END

*D_NET pgm_pn2_6_s2 4.165359e-03
*CONN
*I lt_pn2_6_s2:Z O
*I vs_37_2:A I
*CAP
1 pgm_pn2_6_s2:1 4.165359e-03
*RES
1 lt_pn2_6_s2:Z pgm_pn2_6_s2:1 4.726775e+00
2 pgm_pn2_6_s2:1 vs_37_2:A 1.000000e-03
*END

*D_NET pgm_pn2_6_s3 3.285479e-03
*CONN
*I lt_pn2_6_s3:Z O
*I vs_54_2:A I
*CAP
1 pgm_pn2_6_s3:1 3.285479e-03
*RES
1 lt_pn2_6_s3:Z pgm_pn2_6_s3:1 3.728303e+00
2 pgm_pn2_6_s3:1 vs_54_2:A 1.000000e-03
*END

*D_NET pgm_pn2_8_s1 1.169322e-02
*CONN
*I lt_pn2_8_s1:Z O
*I vs_24_2:A I
*I vs_22_2:A I
*I vs_20_2:A I
*I vs_19_2:A I
*CAP
1 pgm_pn2_8_s1:1 1.169322e-02
*RES
1 lt_pn2_8_s1:Z pgm_pn2_8_s1:1 1.326926e+01
2 pgm_pn2_8_s1:1 vs_24_2:A 1.000000e-03
3 pgm_pn2_8_s1:1 vs_22_2:A 1.000000e-03
4 pgm_pn2_8_s1:1 vs_20_2:A 1.000000e-03
5 pgm_pn2_8_s1:1 vs_19_2:A 1.000000e-03
*END

*D_NET pgm_pn2_8_s2 1.487205e-03
*CONN
*I lt_pn2_8_s2:Z O
*I vs_43_2:A I
*CAP
1 pgm_pn2_8_s2:1 1.487205e-03
*RES
1 lt_pn2_8_s2:Z pgm_pn2_8_s2:1 1.687654e+00
2 pgm_pn2_8_s2:1 vs_43_2:A 1.000000e-03
*END

*D_NET pgm_pn2_9_s2 9.810533e-03
*CONN
*I lt_pn2_9_s2:Z O
*I vs_38_2:A I
*CAP
1 pgm_pn2_9_s2:1 9.810533e-03
*RES
1 lt_pn2_9_s2:Z pgm_pn2_9_s2:1 9.704623e+00
2 pgm_pn2_9_s2:1 vs_38_2:A 1.000000e-03
*END

*D_NET pgm_pn3_0_s1 1.859452e-02
*CONN
*I lt_pn3_0_s1:Z O
*I vs_28_3:A I
*I vs_18_3:A I
*CAP
1 pgm_pn3_0_s1:1 1.859452e-02
*RES
1 lt_pn3_0_s1:Z pgm_pn3_0_s1:1 1.587181e+01
2 pgm_pn3_0_s1:1 vs_28_3:A 1.000000e-03
3 pgm_pn3_0_s1:1 vs_18_3:A 1.000000e-03
*END

*D_NET pgm_pn3_0_s2 1.820493e-02
*CONN
*I lt_pn3_0_s2:Z O
*I vs_45_3:A I
*CAP
1 pgm_pn3_0_s2:1 1.820493e-02
*RES
1 lt_pn3_0_s2:Z pgm_pn3_0_s2:1 2.065863e+01
2 pgm_pn3_0_s2:1 vs_45_3:A 1.000000e-03
*END

*D_NET pgm_pn3_0_s3 8.903104e-03
*CONN
*I lt_pn3_0_s3:Z O
*I vs_54_3:A I
*CAP
1 pgm_pn3_0_s3:1 8.903104e-03
*RES
1 lt_pn3_0_s3:Z pgm_pn3_0_s3:1 8.386930e+00
2 pgm_pn3_0_s3:1 vs_54_3:A 1.000000e-03
*END

*D_NET pgm_pn3_10_s2 1.809828e-02
*CONN
*I lt_pn3_10_s2:Z O
*I vs_32_3:A I
*CAP
1 pgm_pn3_10_s2:1 1.809828e-02
*RES
1 lt_pn3_10_s2:Z pgm_pn3_10_s2:1 2.053760e+01
2 pgm_pn3_10_s2:1 vs_32_3:A 1.000000e-03
*END

*D_NET pgm_pn3_11_s0 1.962992e-02
*CONN
*I lt_pn3_11_s0:Z O
*I vs_0_3:A I
*CAP
1 pgm_pn3_11_s0:1 1.962992e-02
*RES
1 lt_pn3_11_s0:Z pgm_pn3_11_s0:1 2.227568e+01
2 pgm_pn3_11_s0:1 vs_0_3:A 1.000000e-03
*END

*D_NET pgm_pn3_11_s1 1.851600e-03
*CONN
*I lt_pn3_11_s1:Z O
*I vs_30_3:A I
*CAP
1 pgm_pn3_11_s1:1 1.851600e-03
*RES
1 lt_pn3_11_s1:Z pgm_pn3_11_s1:1 2.101163e+00
2 pgm_pn3_11_s1:1 vs_30_3:A 1.000000e-03
*END

*D_NET pgm_pn3_11_s3 2.708391e-03
*CONN
*I lt_pn3_11_s3:Z O
*I vs_62_3:A I
*CAP
1 pgm_pn3_11_s3:1 2.708391e-03
*RES
1 lt_pn3_11_s3:Z pgm_pn3_11_s3:1 1.357280e+00
2 pgm_pn3_11_s3:1 vs_62_3:A 1.000000e-03
*END

*D_NET pgm_pn3_12_s0 8.286280e-03
*CONN
*I lt_pn3_12_s0:Z O
*I vs_15_3:A I
*I vs_11_3:A I
*CAP
1 pgm_pn3_12_s0:1 8.286280e-03
*RES
1 lt_pn3_12_s0:Z pgm_pn3_12_s0:1 9.403122e+00
2 pgm_pn3_12_s0:1 vs_15_3:A 1.000000e-03
3 pgm_pn3_12_s0:1 vs_11_3:A 1.000000e-03
*END

*D_NET pgm_pn3_12_s3 1.030439e-02
*CONN
*I lt_pn3_12_s3:Z O
*I vs_57_3:A I
*CAP
1 pgm_pn3_12_s3:1 1.030439e-02
*RES
1 lt_pn3_12_s3:Z pgm_pn3_12_s3:1 9.977089e+00
2 pgm_pn3_12_s3:1 vs_57_3:A 1.000000e-03
*END

*D_NET pgm_pn3_1_s0 1.148526e-02
*CONN
*I lt_pn3_1_s0:Z O
*I vs_9_3:A I
*CAP
1 pgm_pn3_1_s0:1 1.148526e-02
*RES
1 lt_pn3_1_s0:Z pgm_pn3_1_s0:1 1.189304e+01
2 pgm_pn3_1_s0:1 vs_9_3:A 1.000000e-03
*END

*D_NET pgm_pn3_1_s1 1.794307e-02
*CONN
*I lt_pn3_1_s1:Z O
*I vs_29_3:A I
*CAP
1 pgm_pn3_1_s1:1 1.794307e-02
*RES
1 lt_pn3_1_s1:Z pgm_pn3_1_s1:1 1.806940e+01
2 pgm_pn3_1_s1:1 vs_29_3:A 1.000000e-03
*END

*D_NET pgm_pn3_1_s2 2.384861e-03
*CONN
*I lt_pn3_1_s2:Z O
*I vs_33_3:A I
*CAP
1 pgm_pn3_1_s2:1 2.384861e-03
*RES
1 lt_pn3_1_s2:Z pgm_pn3_1_s2:1 2.706297e+00
2 pgm_pn3_1_s2:1 vs_33_3:A 1.000000e-03
*END

*D_NET pgm_pn3_1_s3 2.032316e-03
*CONN
*I lt_pn3_1_s3:Z O
*I vs_49_3:A I
*CAP
1 pgm_pn3_1_s3:1 2.032316e-03
*RES
1 lt_pn3_1_s3:Z pgm_pn3_1_s3:1 2.306236e+00
2 pgm_pn3_1_s3:1 vs_49_3:A 1.000000e-03
*END

*D_NET pgm_pn3_2_s2 1.627630e-02
*CONN
*I lt_pn3_2_s2:Z O
*I vs_46_3:A I
*I vs_44_3:A I
*CAP
1 pgm_pn3_2_s2:1 1.627630e-02
*RES
1 lt_pn3_2_s2:Z pgm_pn3_2_s2:1 1.847006e+01
2 pgm_pn3_2_s2:1 vs_46_3:A 1.000000e-03
3 pgm_pn3_2_s2:1 vs_44_3:A 1.000000e-03
*END

*D_NET pgm_pn3_3_s2 9.204674e-03
*CONN
*I lt_pn3_3_s2:Z O
*I vs_42_3:A I
*CAP
1 pgm_pn3_3_s2:1 9.204674e-03
*RES
1 lt_pn3_3_s2:Z pgm_pn3_3_s2:1 1.044530e+01
2 pgm_pn3_3_s2:1 vs_42_3:A 1.000000e-03
*END

*D_NET pgm_pn3_4_s0 3.934280e-03
*CONN
*I lt_pn3_4_s0:Z O
*I vs_8_3:A I
*CAP
1 pgm_pn3_4_s0:1 3.934280e-03
*RES
1 lt_pn3_4_s0:Z pgm_pn3_4_s0:1 4.464550e+00
2 pgm_pn3_4_s0:1 vs_8_3:A 1.000000e-03
*END

*D_NET pgm_pn3_4_s3 1.484539e-02
*CONN
*I lt_pn3_4_s3:Z O
*I vs_61_3:A I
*I vs_60_3:A I
*I vs_51_3:A I
*CAP
1 pgm_pn3_4_s3:1 1.484539e-02
*RES
1 lt_pn3_4_s3:Z pgm_pn3_4_s3:1 1.684628e+01
2 pgm_pn3_4_s3:1 vs_61_3:A 1.000000e-03
3 pgm_pn3_4_s3:1 vs_60_3:A 1.000000e-03
4 pgm_pn3_4_s3:1 vs_51_3:A 1.000000e-03
*END

*D_NET pgm_pn3_5_s0 8.653226e-03
*CONN
*I lt_pn3_5_s0:Z O
*I vs_10_3:A I
*CAP
1 pgm_pn3_5_s0:1 8.653226e-03
*RES
1 lt_pn3_5_s0:Z pgm_pn3_5_s0:1 6.819158e+00
2 pgm_pn3_5_s0:1 vs_10_3:A 1.000000e-03
*END

*D_NET pgm_pn3_6_s0 7.139770e-03
*CONN
*I lt_pn3_6_s0:Z O
*I vs_12_3:A I
*CAP
1 pgm_pn3_6_s0:1 7.139770e-03
*RES
1 lt_pn3_6_s0:Z pgm_pn3_6_s0:1 8.102083e+00
2 pgm_pn3_6_s0:1 vs_12_3:A 1.000000e-03
*END

*D_NET pgm_pn3_6_s1 5.380009e-03
*CONN
*I lt_pn3_6_s1:Z O
*I vs_20_3:A I
*CAP
1 pgm_pn3_6_s1:1 5.380009e-03
*RES
1 lt_pn3_6_s1:Z pgm_pn3_6_s1:1 6.105138e+00
2 pgm_pn3_6_s1:1 vs_20_3:A 1.000000e-03
*END

*D_NET pgm_pn3_6_s2 3.780227e-03
*CONN
*I lt_pn3_6_s2:Z O
*I vs_41_3:A I
*CAP
1 pgm_pn3_6_s2:1 3.780227e-03
*RES
1 lt_pn3_6_s2:Z pgm_pn3_6_s2:1 4.289733e+00
2 pgm_pn3_6_s2:1 vs_41_3:A 1.000000e-03
*END

*D_NET pgm_pn3_6_s3 4.408289e-03
*CONN
*I lt_pn3_6_s3:Z O
*I vs_58_3:A I
*CAP
1 pgm_pn3_6_s3:1 4.408289e-03
*RES
1 lt_pn3_6_s3:Z pgm_pn3_6_s3:1 5.002448e+00
2 pgm_pn3_6_s3:1 vs_58_3:A 1.000000e-03
*END

*D_NET pgm_pn3_7_s0 1.600375e-02
*CONN
*I lt_pn3_7_s0:Z O
*I vs_14_3:A I
*I vs_3_3:A I
*CAP
1 pgm_pn3_7_s0:1 1.600375e-02
*RES
1 lt_pn3_7_s0:Z pgm_pn3_7_s0:1 1.816077e+01
2 pgm_pn3_7_s0:1 vs_14_3:A 1.000000e-03
3 pgm_pn3_7_s0:1 vs_3_3:A 1.000000e-03
*END

*D_NET pgm_pn3_7_s1 3.048474e-03
*CONN
*I lt_pn3_7_s1:Z O
*I vs_25_3:A I
*I vs_23_3:A I
*CAP
1 pgm_pn3_7_s1:1 3.048474e-03
*RES
1 lt_pn3_7_s1:Z pgm_pn3_7_s1:1 3.459354e+00
2 pgm_pn3_7_s1:1 vs_25_3:A 1.000000e-03
3 pgm_pn3_7_s1:1 vs_23_3:A 1.000000e-03
*END

*D_NET pgm_pn3_7_s2 3.063287e-03
*CONN
*I lt_pn3_7_s2:Z O
*I vs_40_3:A I
*CAP
1 pgm_pn3_7_s2:1 3.063287e-03
*RES
1 lt_pn3_7_s2:Z pgm_pn3_7_s2:1 3.476163e+00
2 pgm_pn3_7_s2:1 vs_40_3:A 1.000000e-03
*END

*D_NET pgm_pn3_7_s3 1.304119e-02
*CONN
*I lt_pn3_7_s3:Z O
*I vs_48_3:A I
*CAP
1 pgm_pn3_7_s3:1 1.304119e-02
*RES
1 lt_pn3_7_s3:Z pgm_pn3_7_s3:1 1.479891e+01
2 pgm_pn3_7_s3:1 vs_48_3:A 1.000000e-03
*END

*D_NET pgm_pn3_8_s1 3.501746e-03
*CONN
*I lt_pn3_8_s1:Z O
*I vs_24_3:A I
*CAP
1 pgm_pn3_8_s1:1 3.501746e-03
*RES
1 lt_pn3_8_s1:Z pgm_pn3_8_s1:1 3.973719e+00
2 pgm_pn3_8_s1:1 vs_24_3:A 1.000000e-03
*END

*D_NET pgm_pn3_8_s3 6.861289e-03
*CONN
*I lt_pn3_8_s3:Z O
*I vs_63_3:A I
*I vs_59_3:A I
*CAP
1 pgm_pn3_8_s3:1 6.861289e-03
*RES
1 lt_pn3_8_s3:Z pgm_pn3_8_s3:1 7.786068e+00
2 pgm_pn3_8_s3:1 vs_63_3:A 1.000000e-03
3 pgm_pn3_8_s3:1 vs_59_3:A 1.000000e-03
*END

*D_NET pgm_pn3_9_s0 1.094611e-02
*CONN
*I lt_pn3_9_s0:Z O
*I vs_4_3:A I
*CAP
1 pgm_pn3_9_s0:1 1.094611e-02
*RES
1 lt_pn3_9_s0:Z pgm_pn3_9_s0:1 1.112472e+01
2 pgm_pn3_9_s0:1 vs_4_3:A 1.000000e-03
*END

*D_NET pgm_pn3_9_s1 2.974410e-03
*CONN
*I lt_pn3_9_s1:Z O
*I vs_26_3:A I
*CAP
1 pgm_pn3_9_s1:1 2.974410e-03
*RES
1 lt_pn3_9_s1:Z pgm_pn3_9_s1:1 3.375307e+00
2 pgm_pn3_9_s1:1 vs_26_3:A 1.000000e-03
*END

*D_NET pgm_pn3_9_s2 1.326900e-02
*CONN
*I lt_pn3_9_s2:Z O
*I vs_36_3:A I
*CAP
1 pgm_pn3_9_s2:1 1.326900e-02
*RES
1 lt_pn3_9_s2:Z pgm_pn3_9_s2:1 1.212057e+01
2 pgm_pn3_9_s2:1 vs_36_3:A 1.000000e-03
*END

*D_NET pgm_pn4_0_s1 1.247166e-02
*CONN
*I lt_pn4_0_s1:Z O
*I vs_24_4:A I
*CAP
1 pgm_pn4_0_s1:1 1.247166e-02
*RES
1 lt_pn4_0_s1:Z pgm_pn4_0_s1:1 1.200453e+01
2 pgm_pn4_0_s1:1 vs_24_4:A 1.000000e-03
*END

*D_NET pgm_pn4_0_s2 1.048154e-02
*CONN
*I lt_pn4_0_s2:Z O
*I vs_38_4:A I
*I vs_34_4:A I
*CAP
1 pgm_pn4_0_s2:1 1.048154e-02
*RES
1 lt_pn4_0_s2:Z pgm_pn4_0_s2:1 1.189426e+01
2 pgm_pn4_0_s2:1 vs_38_4:A 1.000000e-03
3 pgm_pn4_0_s2:1 vs_34_4:A 1.000000e-03
*END

*D_NET pgm_pn4_0_s3 4.260772e-03
*CONN
*I lt_pn4_0_s3:Z O
*I vs_50_4:A I
*CAP
1 pgm_pn4_0_s3:1 4.260772e-03
*RES
1 lt_pn4_0_s3:Z pgm_pn4_0_s3:1 3.118895e+00
2 pgm_pn4_0_s3:1 vs_50_4:A 1.000000e-03
*END

*D_NET pgm_pn4_10_s0 1.628223e-02
*CONN
*I lt_pn4_10_s0:Z O
*I vs_2_4:A I
*CAP
1 pgm_pn4_10_s0:1 1.628223e-02
*RES
1 lt_pn4_10_s0:Z pgm_pn4_10_s0:1 1.847678e+01
2 pgm_pn4_10_s0:1 vs_2_4:A 1.000000e-03
*END

*D_NET pgm_pn4_11_s1 1.714821e-02
*CONN
*I lt_pn4_11_s1:Z O
*I vs_19_4:A I
*CAP
1 pgm_pn4_11_s1:1 1.714821e-02
*RES
1 lt_pn4_11_s1:Z pgm_pn4_11_s1:1 1.689106e+01
2 pgm_pn4_11_s1:1 vs_19_4:A 1.000000e-03
*END

*D_NET pgm_pn4_1_s1 1.954210e-02
*CONN
*I lt_pn4_1_s1:Z O
*I vs_30_4:A I
*I vs_23_4:A I
*CAP
1 pgm_pn4_1_s1:1 1.954210e-02
*RES
1 lt_pn4_1_s1:Z pgm_pn4_1_s1:1 2.060385e+01
2 pgm_pn4_1_s1:1 vs_30_4:A 1.000000e-03
3 pgm_pn4_1_s1:1 vs_23_4:A 1.000000e-03
*END

*D_NET pgm_pn4_1_s2 4.269049e-03
*CONN
*I lt_pn4_1_s2:Z O
*I vs_35_4:A I
*I vs_33_4:A I
*CAP
1 pgm_pn4_1_s2:1 4.269049e-03
*RES
1 lt_pn4_1_s2:Z pgm_pn4_1_s2:1 4.844440e+00
2 pgm_pn4_1_s2:1 vs_35_4:A 1.000000e-03
3 pgm_pn4_1_s2:1 vs_33_4:A 1.000000e-03
*END

*D_NET pgm_pn4_1_s3 1.649257e-02
*CONN
*I lt_pn4_1_s3:Z O
*I vs_61_4:A I
*CAP
1 pgm_pn4_1_s3:1 1.649257e-02
*RES
1 lt_pn4_1_s3:Z pgm_pn4_1_s3:1 1.871547e+01
2 pgm_pn4_1_s3:1 vs_61_4:A 1.000000e-03
*END

*D_NET pgm_pn4_2_s0 1.525718e-02
*CONN
*I lt_pn4_2_s0:Z O
*I vs_10_4:A I
*I vs_1_4:A I
*CAP
1 pgm_pn4_2_s0:1 1.525718e-02
*RES
1 lt_pn4_2_s0:Z pgm_pn4_2_s0:1 1.731358e+01
2 pgm_pn4_2_s0:1 vs_10_4:A 1.000000e-03
3 pgm_pn4_2_s0:1 vs_1_4:A 1.000000e-03
*END

*D_NET pgm_pn4_2_s2 1.435466e-02
*CONN
*I lt_pn4_2_s2:Z O
*I vs_44_4:A I
*I vs_36_4:A I
*CAP
1 pgm_pn4_2_s2:1 1.435466e-02
*RES
1 lt_pn4_2_s2:Z pgm_pn4_2_s2:1 1.417262e+01
2 pgm_pn4_2_s2:1 vs_44_4:A 1.000000e-03
3 pgm_pn4_2_s2:1 vs_36_4:A 1.000000e-03
*END

*D_NET pgm_pn4_3_s1 1.250200e-02
*CONN
*I lt_pn4_3_s1:Z O
*I vs_29_4:A I
*CAP
1 pgm_pn4_3_s1:1 1.250200e-02
*RES
1 lt_pn4_3_s1:Z pgm_pn4_3_s1:1 1.418705e+01
2 pgm_pn4_3_s1:1 vs_29_4:A 1.000000e-03
*END

*D_NET pgm_pn4_3_s3 2.479663e-03
*CONN
*I lt_pn4_3_s3:Z O
*I vs_51_4:A I
*CAP
1 pgm_pn4_3_s3:1 2.479663e-03
*RES
1 lt_pn4_3_s3:Z pgm_pn4_3_s3:1 2.813877e+00
2 pgm_pn4_3_s3:1 vs_51_4:A 1.000000e-03
*END

*D_NET pgm_pn4_4_s3 6.594659e-03
*CONN
*I lt_pn4_4_s3:Z O
*I vs_49_4:A I
*CAP
1 pgm_pn4_4_s3:1 6.594659e-03
*RES
1 lt_pn4_4_s3:Z pgm_pn4_4_s3:1 7.483500e+00
2 pgm_pn4_4_s3:1 vs_49_4:A 1.000000e-03
*END

*D_NET pgm_pn4_5_s0 1.291676e-02
*CONN
*I lt_pn4_5_s0:Z O
*I vs_15_4:A I
*CAP
1 pgm_pn4_5_s0:1 1.291676e-02
*RES
1 lt_pn4_5_s0:Z pgm_pn4_5_s0:1 1.465771e+01
2 pgm_pn4_5_s0:1 vs_15_4:A 1.000000e-03
*END

*D_NET pgm_pn4_5_s3 2.287096e-03
*CONN
*I lt_pn4_5_s3:Z O
*I vs_53_4:A I
*CAP
1 pgm_pn4_5_s3:1 2.287096e-03
*RES
1 lt_pn4_5_s3:Z pgm_pn4_5_s3:1 2.595356e+00
2 pgm_pn4_5_s3:1 vs_53_4:A 1.000000e-03
*END

*D_NET pgm_pn4_6_s0 9.435173e-03
*CONN
*I lt_pn4_6_s0:Z O
*I vs_3_4:A I
*CAP
1 pgm_pn4_6_s0:1 9.435173e-03
*RES
1 lt_pn4_6_s0:Z pgm_pn4_6_s0:1 9.566630e+00
2 pgm_pn4_6_s0:1 vs_3_4:A 1.000000e-03
*END

*D_NET pgm_pn4_6_s1 8.609199e-03
*CONN
*I lt_pn4_6_s1:Z O
*I vs_18_4:A I
*CAP
1 pgm_pn4_6_s1:1 8.609199e-03
*RES
1 lt_pn4_6_s1:Z pgm_pn4_6_s1:1 9.769565e+00
2 pgm_pn4_6_s1:1 vs_18_4:A 1.000000e-03
*END

*D_NET pgm_pn4_6_s3 7.418250e-03
*CONN
*I lt_pn4_6_s3:Z O
*I vs_52_4:A I
*CAP
1 pgm_pn4_6_s3:1 7.418250e-03
*RES
1 lt_pn4_6_s3:Z pgm_pn4_6_s3:1 8.418097e+00
2 pgm_pn4_6_s3:1 vs_52_4:A 1.000000e-03
*END

*D_NET pgm_pn4_7_s2 9.426866e-03
*CONN
*I lt_pn4_7_s2:Z O
*I vs_47_4:A I
*I vs_45_4:A I
*CAP
1 pgm_pn4_7_s2:1 9.426866e-03
*RES
1 lt_pn4_7_s2:Z pgm_pn4_7_s2:1 1.069744e+01
2 pgm_pn4_7_s2:1 vs_47_4:A 1.000000e-03
3 pgm_pn4_7_s2:1 vs_45_4:A 1.000000e-03
*END

*D_NET pgm_pn4_7_s3 2.725555e-04
*CONN
*I lt_pn4_7_s3:Z O
*I vs_57_4:A I
*CAP
1 pgm_pn4_7_s3:1 2.725555e-04
*RES
1 lt_pn4_7_s3:Z pgm_pn4_7_s3:1 3.092911e-01
2 pgm_pn4_7_s3:1 vs_57_4:A 1.000000e-03
*END

*D_NET pgm_pn4_8_s1 2.207107e-03
*CONN
*I lt_pn4_8_s1:Z O
*I vs_25_4:A I
*CAP
1 pgm_pn4_8_s1:1 2.207107e-03
*RES
1 lt_pn4_8_s1:Z pgm_pn4_8_s1:1 2.504586e+00
2 pgm_pn4_8_s1:1 vs_25_4:A 1.000000e-03
*END

*D_NET pgm_pn4_8_s2 1.424399e-02
*CONN
*I lt_pn4_8_s2:Z O
*I vs_32_4:A I
*CAP
1 pgm_pn4_8_s2:1 1.424399e-02
*RES
1 lt_pn4_8_s2:Z pgm_pn4_8_s2:1 1.616382e+01
2 pgm_pn4_8_s2:1 vs_32_4:A 1.000000e-03
*END

*D_NET pgm_pn4_9_s0 7.957806e-03
*CONN
*I lt_pn4_9_s0:Z O
*I vs_7_4:A I
*CAP
1 pgm_pn4_9_s0:1 7.957806e-03
*RES
1 lt_pn4_9_s0:Z pgm_pn4_9_s0:1 4.597393e+00
2 pgm_pn4_9_s0:1 vs_7_4:A 1.000000e-03
*END

*D_NET pgm_pn4_9_s1 5.602201e-03
*CONN
*I lt_pn4_9_s1:Z O
*I vs_31_4:A I
*CAP
1 pgm_pn4_9_s1:1 5.602201e-03
*RES
1 lt_pn4_9_s1:Z pgm_pn4_9_s1:1 6.357277e+00
2 pgm_pn4_9_s1:1 vs_31_4:A 1.000000e-03
*END

*D_NET pgm_pn4_9_s2 2.781844e-03
*CONN
*I lt_pn4_9_s2:Z O
*I vs_42_4:A I
*CAP
1 pgm_pn4_9_s2:1 2.781844e-03
*RES
1 lt_pn4_9_s2:Z pgm_pn4_9_s2:1 3.156787e+00
2 pgm_pn4_9_s2:1 vs_42_4:A 1.000000e-03
*END

*D_NET pgm_pn4_9_s3 5.249656e-03
*CONN
*I lt_pn4_9_s3:Z O
*I vs_63_4:A I
*CAP
1 pgm_pn4_9_s3:1 5.249656e-03
*RES
1 lt_pn4_9_s3:Z pgm_pn4_9_s3:1 5.957216e+00
2 pgm_pn4_9_s3:1 vs_63_4:A 1.000000e-03
*END

*D_NET pgm_pn5_0_s0 1.165767e-02
*CONN
*I lt_pn5_0_s0:Z O
*I vs_8_5:A I
*CAP
1 pgm_pn5_0_s0:1 1.165767e-02
*RES
1 lt_pn5_0_s0:Z pgm_pn5_0_s0:1 1.322892e+01
2 pgm_pn5_0_s0:1 vs_8_5:A 1.000000e-03
*END

*D_NET pgm_pn5_0_s2 2.063780e-02
*CONN
*I lt_pn5_0_s2:Z O
*I vs_47_5:A I
*CAP
1 pgm_pn5_0_s2:1 2.063780e-02
*RES
1 lt_pn5_0_s2:Z pgm_pn5_0_s2:1 2.170326e+01
2 pgm_pn5_0_s2:1 vs_47_5:A 1.000000e-03
*END

*D_NET pgm_pn5_0_s3 2.441149e-03
*CONN
*I lt_pn5_0_s3:Z O
*I vs_49_5:A I
*CAP
1 pgm_pn5_0_s3:1 2.441149e-03
*RES
1 lt_pn5_0_s3:Z pgm_pn5_0_s3:1 2.770173e+00
2 pgm_pn5_0_s3:1 vs_49_5:A 1.000000e-03
*END

*D_NET pgm_pn5_10_s2 9.968434e-03
*CONN
*I lt_pn5_10_s2:Z O
*I vs_39_5:A I
*CAP
1 pgm_pn5_10_s2:1 9.968434e-03
*RES
1 lt_pn5_10_s2:Z pgm_pn5_10_s2:1 1.017177e+01
2 pgm_pn5_10_s2:1 vs_39_5:A 1.000000e-03
*END

*D_NET pgm_pn5_11_s0 4.254847e-03
*CONN
*I lt_pn5_11_s0:Z O
*I vs_12_5:A I
*CAP
1 pgm_pn5_11_s0:1 4.254847e-03
*RES
1 lt_pn5_11_s0:Z pgm_pn5_11_s0:1 3.112171e+00
2 pgm_pn5_11_s0:1 vs_12_5:A 1.000000e-03
*END

*D_NET pgm_pn5_11_s2 8.005891e-03
*CONN
*I lt_pn5_11_s2:Z O
*I vs_41_5:A I
*CAP
1 pgm_pn5_11_s2:1 8.005891e-03
*RES
1 lt_pn5_11_s2:Z pgm_pn5_11_s2:1 7.512768e+00
2 pgm_pn5_11_s2:1 vs_41_5:A 1.000000e-03
*END

*D_NET pgm_pn5_12_s1 4.541604e-03
*CONN
*I lt_pn5_12_s1:Z O
*I vs_29_5:A I
*CAP
1 pgm_pn5_12_s1:1 4.541604e-03
*RES
1 lt_pn5_12_s1:Z pgm_pn5_12_s1:1 5.153731e+00
2 pgm_pn5_12_s1:1 vs_29_5:A 1.000000e-03
*END

*D_NET pgm_pn5_12_s2 7.903393e-03
*CONN
*I lt_pn5_12_s2:Z O
*I vs_43_5:A I
*CAP
1 pgm_pn5_12_s2:1 7.903393e-03
*RES
1 lt_pn5_12_s2:Z pgm_pn5_12_s2:1 6.820537e+00
2 pgm_pn5_12_s2:1 vs_43_5:A 1.000000e-03
*END

*D_NET pgm_pn5_1_s3 2.017803e-02
*CONN
*I lt_pn5_1_s3:Z O
*I vs_62_5:A I
*CAP
1 pgm_pn5_1_s3:1 2.017803e-02
*RES
1 lt_pn5_1_s3:Z pgm_pn5_1_s3:1 2.002968e+01
2 pgm_pn5_1_s3:1 vs_62_5:A 1.000000e-03
*END

*D_NET pgm_pn5_2_s0 2.172772e-02
*CONN
*I lt_pn5_2_s0:Z O
*I vs_14_5:A I
*I vs_6_5:A I
*I vs_1_5:A I
*CAP
1 pgm_pn5_2_s0:1 2.172772e-02
*RES
1 lt_pn5_2_s0:Z pgm_pn5_2_s0:1 2.380395e+01
2 pgm_pn5_2_s0:1 vs_14_5:A 1.000000e-03
3 pgm_pn5_2_s0:1 vs_6_5:A 1.000000e-03
4 pgm_pn5_2_s0:1 vs_1_5:A 1.000000e-03
*END

*D_NET pgm_pn5_2_s1 7.689408e-03
*CONN
*I lt_pn5_2_s1:Z O
*I vs_23_5:A I
*I vs_19_5:A I
*CAP
1 pgm_pn5_2_s1:1 7.689408e-03
*RES
1 lt_pn5_2_s1:Z pgm_pn5_2_s1:1 7.529228e+00
2 pgm_pn5_2_s1:1 vs_23_5:A 1.000000e-03
3 pgm_pn5_2_s1:1 vs_19_5:A 1.000000e-03
*END

*D_NET pgm_pn5_2_s3 1.734875e-02
*CONN
*I lt_pn5_2_s3:Z O
*I vs_63_5:A I
*CAP
1 pgm_pn5_2_s3:1 1.734875e-02
*RES
1 lt_pn5_2_s3:Z pgm_pn5_2_s3:1 1.968705e+01
2 pgm_pn5_2_s3:1 vs_63_5:A 1.000000e-03
*END

*D_NET pgm_pn5_3_s1 1.008455e-02
*CONN
*I lt_pn5_3_s1:Z O
*I vs_27_5:A I
*CAP
1 pgm_pn5_3_s1:1 1.008455e-02
*RES
1 lt_pn5_3_s1:Z pgm_pn5_3_s1:1 1.144377e+01
2 pgm_pn5_3_s1:1 vs_27_5:A 1.000000e-03
*END

*D_NET pgm_pn5_3_s2 1.844786e-02
*CONN
*I lt_pn5_3_s2:Z O
*I vs_45_5:A I
*I vs_33_5:A I
*CAP
1 pgm_pn5_3_s2:1 1.844786e-02
*RES
1 lt_pn5_3_s2:Z pgm_pn5_3_s2:1 2.093430e+01
2 pgm_pn5_3_s2:1 vs_45_5:A 1.000000e-03
3 pgm_pn5_3_s2:1 vs_33_5:A 1.000000e-03
*END

*D_NET pgm_pn5_4_s1 5.602201e-03
*CONN
*I lt_pn5_4_s1:Z O
*I vs_25_5:A I
*CAP
1 pgm_pn5_4_s1:1 5.602201e-03
*RES
1 lt_pn5_4_s1:Z pgm_pn5_4_s1:1 6.357277e+00
2 pgm_pn5_4_s1:1 vs_25_5:A 1.000000e-03
*END

*D_NET pgm_pn5_4_s3 8.965455e-03
*CONN
*I lt_pn5_4_s3:Z O
*I vs_58_5:A I
*I vs_54_5:A I
*CAP
1 pgm_pn5_4_s3:1 8.965455e-03
*RES
1 lt_pn5_4_s3:Z pgm_pn5_4_s3:1 9.465540e+00
2 pgm_pn5_4_s3:1 vs_58_5:A 1.000000e-03
3 pgm_pn5_4_s3:1 vs_54_5:A 1.000000e-03
*END

*D_NET pgm_pn5_5_s0 1.009640e-02
*CONN
*I lt_pn5_5_s0:Z O
*I vs_0_5:A I
*CAP
1 pgm_pn5_5_s0:1 1.009640e-02
*RES
1 lt_pn5_5_s0:Z pgm_pn5_5_s0:1 1.145722e+01
2 pgm_pn5_5_s0:1 vs_0_5:A 1.000000e-03
*END

*D_NET pgm_pn5_5_s3 2.559652e-03
*CONN
*I lt_pn5_5_s3:Z O
*I vs_53_5:A I
*CAP
1 pgm_pn5_5_s3:1 2.559652e-03
*RES
1 lt_pn5_5_s3:Z pgm_pn5_5_s3:1 2.904647e+00
2 pgm_pn5_5_s3:1 vs_53_5:A 1.000000e-03
*END

*D_NET pgm_pn5_6_s1 1.113923e-02
*CONN
*I lt_pn5_6_s1:Z O
*I vs_30_5:A I
*CAP
1 pgm_pn5_6_s1:1 1.113923e-02
*RES
1 lt_pn5_6_s1:Z pgm_pn5_6_s1:1 1.264059e+01
2 pgm_pn5_6_s1:1 vs_30_5:A 1.000000e-03
*END

*D_NET pgm_pn5_6_s3 8.706964e-03
*CONN
*I lt_pn5_6_s3:Z O
*I vs_61_5:A I
*CAP
1 pgm_pn5_6_s3:1 8.706964e-03
*RES
1 lt_pn5_6_s3:Z pgm_pn5_6_s3:1 9.880507e+00
2 pgm_pn5_6_s3:1 vs_61_5:A 1.000000e-03
*END

*D_NET pgm_pn5_8_s0 1.103257e-02
*CONN
*I lt_pn5_8_s0:Z O
*I vs_3_5:A I
*CAP
1 pgm_pn5_8_s0:1 1.103257e-02
*RES
1 lt_pn5_8_s0:Z pgm_pn5_8_s0:1 1.251957e+01
2 pgm_pn5_8_s0:1 vs_3_5:A 1.000000e-03
*END

*D_NET pgm_pn5_8_s1 7.758945e-03
*CONN
*I lt_pn5_8_s1:Z O
*I vs_31_5:A I
*I vs_28_5:A I
*CAP
1 pgm_pn5_8_s1:1 7.758945e-03
*RES
1 lt_pn5_8_s1:Z pgm_pn5_8_s1:1 8.804711e+00
2 pgm_pn5_8_s1:1 vs_31_5:A 1.000000e-03
3 pgm_pn5_8_s1:1 vs_28_5:A 1.000000e-03
*END

*D_NET pgm_pn5_8_s3 1.587340e-02
*CONN
*I lt_pn5_8_s3:Z O
*I vs_56_5:A I
*I vs_48_5:A I
*CAP
1 pgm_pn5_8_s3:1 1.587340e-02
*RES
1 lt_pn5_8_s3:Z pgm_pn5_8_s3:1 1.801285e+01
2 pgm_pn5_8_s3:1 vs_56_5:A 1.000000e-03
3 pgm_pn5_8_s3:1 vs_48_5:A 1.000000e-03
*END

*D_NET pgm_pn5_9_s0 1.252468e-02
*CONN
*I lt_pn5_9_s0:Z O
*I vs_11_5:A I
*I vs_5_5:A I
*CAP
1 pgm_pn5_9_s0:1 1.252468e-02
*RES
1 lt_pn5_9_s0:Z pgm_pn5_9_s0:1 1.292857e+01
2 pgm_pn5_9_s0:1 vs_11_5:A 1.000000e-03
3 pgm_pn5_9_s0:1 vs_5_5:A 1.000000e-03
*END

*D_NET pgm_pn5_9_s3 1.573119e-03
*CONN
*I lt_pn5_9_s3:Z O
*I vs_59_5:A I
*CAP
1 pgm_pn5_9_s3:1 1.573119e-03
*RES
1 lt_pn5_9_s3:Z pgm_pn5_9_s3:1 1.785148e+00
2 pgm_pn5_9_s3:1 vs_59_5:A 1.000000e-03
*END

*D_NET pgm_pn6_0_s0 1.515349e-02
*CONN
*I lt_pn6_0_s0:Z O
*I vs_10_6:A I
*CAP
1 pgm_pn6_0_s0:1 1.515349e-02
*RES
1 lt_pn6_0_s0:Z pgm_pn6_0_s0:1 1.719591e+01
2 pgm_pn6_0_s0:1 vs_10_6:A 1.000000e-03
*END

*D_NET pgm_pn6_0_s2 1.207601e-02
*CONN
*I lt_pn6_0_s2:Z O
*I vs_40_6:A I
*CAP
1 pgm_pn6_0_s2:1 1.207601e-02
*RES
1 lt_pn6_0_s2:Z pgm_pn6_0_s2:1 1.198748e+01
2 pgm_pn6_0_s2:1 vs_40_6:A 1.000000e-03
*END

*D_NET pgm_pn6_10_s2 1.683919e-02
*CONN
*I lt_pn6_10_s2:Z O
*I vs_33_6:A I
*CAP
1 pgm_pn6_10_s2:1 1.683919e-02
*RES
1 lt_pn6_10_s2:Z pgm_pn6_10_s2:1 1.910881e+01
2 pgm_pn6_10_s2:1 vs_33_6:A 1.000000e-03
*END

*D_NET pgm_pn6_11_s2 4.183135e-03
*CONN
*I lt_pn6_11_s2:Z O
*I vs_44_6:A I
*CAP
1 pgm_pn6_11_s2:1 4.183135e-03
*RES
1 lt_pn6_11_s2:Z pgm_pn6_11_s2:1 4.746946e+00
2 pgm_pn6_11_s2:1 vs_44_6:A 1.000000e-03
*END

*D_NET pgm_pn6_12_s0 2.151411e-02
*CONN
*I lt_pn6_12_s0:Z O
*I vs_0_6:A I
*CAP
1 pgm_pn6_12_s0:1 2.151411e-02
*RES
1 lt_pn6_12_s0:Z pgm_pn6_12_s0:1 2.441383e+01
2 pgm_pn6_12_s0:1 vs_0_6:A 1.000000e-03
*END

*D_NET pgm_pn6_12_s1 2.115492e-02
*CONN
*I lt_pn6_12_s1:Z O
*I vs_17_6:A I
*CAP
1 pgm_pn6_12_s1:1 2.115492e-02
*RES
1 lt_pn6_12_s1:Z pgm_pn6_12_s1:1 2.185814e+01
2 pgm_pn6_12_s1:1 vs_17_6:A 1.000000e-03
*END

*D_NET pgm_pn6_12_s2 2.103955e-02
*CONN
*I lt_pn6_12_s2:Z O
*I vs_36_6:A I
*I vs_35_6:A I
*CAP
1 pgm_pn6_12_s2:1 2.103955e-02
*RES
1 lt_pn6_12_s2:Z pgm_pn6_12_s2:1 1.986708e+01
2 pgm_pn6_12_s2:1 vs_36_6:A 1.000000e-03
3 pgm_pn6_12_s2:1 vs_35_6:A 1.000000e-03
*END

*D_NET pgm_pn6_12_s3 1.816049e-02
*CONN
*I lt_pn6_12_s3:Z O
*I vs_51_6:A I
*CAP
1 pgm_pn6_12_s3:1 1.816049e-02
*RES
1 lt_pn6_12_s3:Z pgm_pn6_12_s3:1 2.060820e+01
2 pgm_pn6_12_s3:1 vs_51_6:A 1.000000e-03
*END

*D_NET pgm_pn6_1_s1 1.681995e-02
*CONN
*I lt_pn6_1_s1:Z O
*I vs_29_6:A I
*CAP
1 pgm_pn6_1_s1:1 1.681995e-02
*RES
1 lt_pn6_1_s1:Z pgm_pn6_1_s1:1 1.765878e+01
2 pgm_pn6_1_s1:1 vs_29_6:A 1.000000e-03
*END

*D_NET pgm_pn6_1_s2 3.780227e-03
*CONN
*I lt_pn6_1_s2:Z O
*I vs_32_6:A I
*CAP
1 pgm_pn6_1_s2:1 3.780227e-03
*RES
1 lt_pn6_1_s2:Z pgm_pn6_1_s2:1 4.289733e+00
2 pgm_pn6_1_s2:1 vs_32_6:A 1.000000e-03
*END

*D_NET pgm_pn6_1_s3 4.615668e-03
*CONN
*I lt_pn6_1_s3:Z O
*I vs_50_6:A I
*I vs_48_6:A I
*CAP
1 pgm_pn6_1_s3:1 4.615668e-03
*RES
1 lt_pn6_1_s3:Z pgm_pn6_1_s3:1 5.237778e+00
2 pgm_pn6_1_s3:1 vs_50_6:A 1.000000e-03
3 pgm_pn6_1_s3:1 vs_48_6:A 1.000000e-03
*END

*D_NET pgm_pn6_2_s0 1.224027e-02
*CONN
*I lt_pn6_2_s0:Z O
*I vs_11_6:A I
*CAP
1 pgm_pn6_2_s0:1 1.224027e-02
*RES
1 lt_pn6_2_s0:Z pgm_pn6_2_s0:1 1.260583e+01
2 pgm_pn6_2_s0:1 vs_11_6:A 1.000000e-03
*END

*D_NET pgm_pn6_2_s1 1.956713e-02
*CONN
*I lt_pn6_2_s1:Z O
*I vs_31_6:A I
*I vs_26_6:A I
*I vs_25_6:A I
*I vs_22_6:A I
*I vs_19_6:A I
*CAP
1 pgm_pn6_2_s1:1 1.956713e-02
*RES
1 lt_pn6_2_s1:Z pgm_pn6_2_s1:1 2.106419e+01
2 pgm_pn6_2_s1:1 vs_31_6:A 1.000000e-03
3 pgm_pn6_2_s1:1 vs_26_6:A 1.000000e-03
4 pgm_pn6_2_s1:1 vs_25_6:A 1.000000e-03
5 pgm_pn6_2_s1:1 vs_22_6:A 1.000000e-03
6 pgm_pn6_2_s1:1 vs_19_6:A 1.000000e-03
*END

*D_NET pgm_pn6_2_s2 6.378392e-03
*CONN
*I lt_pn6_2_s2:Z O
*I vs_39_6:A I
*CAP
1 pgm_pn6_2_s2:1 6.378392e-03
*RES
1 lt_pn6_2_s2:Z pgm_pn6_2_s2:1 7.238085e+00
2 pgm_pn6_2_s2:1 vs_39_6:A 1.000000e-03
*END

*D_NET pgm_pn6_3_s0 1.544685e-03
*CONN
*I lt_pn6_3_s0:Z O
*I vs_4_6:A I
*CAP
1 pgm_pn6_3_s0:1 1.544685e-03
*RES
1 lt_pn6_3_s0:Z pgm_pn6_3_s0:1 1.188563e+00
2 pgm_pn6_3_s0:1 vs_4_6:A 1.000000e-03
*END

*D_NET pgm_pn6_4_s0 1.033341e-02
*CONN
*I lt_pn6_4_s0:Z O
*I vs_8_6:A I
*I vs_3_6:A I
*I vs_2_6:A I
*CAP
1 pgm_pn6_4_s0:1 1.033341e-02
*RES
1 lt_pn6_4_s0:Z pgm_pn6_4_s0:1 1.172617e+01
2 pgm_pn6_4_s0:1 vs_8_6:A 1.000000e-03
3 pgm_pn6_4_s0:1 vs_3_6:A 1.000000e-03
4 pgm_pn6_4_s0:1 vs_2_6:A 1.000000e-03
*END

*D_NET pgm_pn6_4_s1 2.156744e-03
*CONN
*I lt_pn6_4_s1:Z O
*I vs_20_6:A I
*CAP
1 pgm_pn6_4_s1:1 2.156744e-03
*RES
1 lt_pn6_4_s1:Z pgm_pn6_4_s1:1 2.447434e+00
2 pgm_pn6_4_s1:1 vs_20_6:A 1.000000e-03
*END

*D_NET pgm_pn6_5_s3 1.139601e-02
*CONN
*I lt_pn6_5_s3:Z O
*I vs_62_6:A I
*I vs_61_6:A I
*CAP
1 pgm_pn6_5_s3:1 1.139601e-02
*RES
1 lt_pn6_5_s3:Z pgm_pn6_5_s3:1 1.187940e+01
2 pgm_pn6_5_s3:1 vs_62_6:A 1.000000e-03
3 pgm_pn6_5_s3:1 vs_61_6:A 1.000000e-03
*END

*D_NET pgm_pn6_6_s1 8.058163e-04
*CONN
*I lt_pn6_6_s1:Z O
*I vs_23_6:A I
*CAP
1 pgm_pn6_6_s1:1 8.058163e-04
*RES
1 lt_pn6_6_s1:Z pgm_pn6_6_s1:1 9.144259e-01
2 pgm_pn6_6_s1:1 vs_23_6:A 1.000000e-03
*END

*D_NET pgm_pn6_6_s2 3.279554e-03
*CONN
*I lt_pn6_6_s2:Z O
*I vs_42_6:A I
*CAP
1 pgm_pn6_6_s2:1 3.279554e-03
*RES
1 lt_pn6_6_s2:Z pgm_pn6_6_s2:1 3.721579e+00
2 pgm_pn6_6_s2:1 vs_42_6:A 1.000000e-03
*END

*D_NET pgm_pn6_6_s3 5.510362e-03
*CONN
*I lt_pn6_6_s3:Z O
*I vs_52_6:A I
*CAP
1 pgm_pn6_6_s3:1 5.510362e-03
*RES
1 lt_pn6_6_s3:Z pgm_pn6_6_s3:1 6.253060e+00
2 pgm_pn6_6_s3:1 vs_52_6:A 1.000000e-03
*END

*D_NET pgm_pn6_7_s1 7.939661e-03
*CONN
*I lt_pn6_7_s1:Z O
*I vs_30_6:A I
*CAP
1 pgm_pn6_7_s1:1 7.939661e-03
*RES
1 lt_pn6_7_s1:Z pgm_pn6_7_s1:1 9.009785e+00
2 pgm_pn6_7_s1:1 vs_30_6:A 1.000000e-03
*END

*D_NET pgm_pn6_7_s2 7.127919e-03
*CONN
*I lt_pn6_7_s2:Z O
*I vs_46_6:A I
*CAP
1 pgm_pn6_7_s2:1 7.127919e-03
*RES
1 lt_pn6_7_s2:Z pgm_pn6_7_s2:1 8.088635e+00
2 pgm_pn6_7_s2:1 vs_46_6:A 1.000000e-03
*END

*D_NET pgm_pn6_8_s0 4.926737e-03
*CONN
*I lt_pn6_8_s0:Z O
*I vs_7_6:A I
*CAP
1 pgm_pn6_8_s0:1 4.926737e-03
*RES
1 lt_pn6_8_s0:Z pgm_pn6_8_s0:1 5.590773e+00
2 pgm_pn6_8_s0:1 vs_7_6:A 1.000000e-03
*END

*D_NET pgm_pn6_8_s3 2.912196e-03
*CONN
*I lt_pn6_8_s3:Z O
*I vs_60_6:A I
*CAP
1 pgm_pn6_8_s3:1 2.912196e-03
*RES
1 lt_pn6_8_s3:Z pgm_pn6_8_s3:1 3.304708e+00
2 pgm_pn6_8_s3:1 vs_60_6:A 1.000000e-03
*END

*D_NET pgm_pn6_9_s2 1.623483e-03
*CONN
*I lt_pn6_9_s2:Z O
*I vs_43_6:A I
*CAP
1 pgm_pn6_9_s2:1 1.623483e-03
*RES
1 lt_pn6_9_s2:Z pgm_pn6_9_s2:1 1.842299e+00
2 pgm_pn6_9_s2:1 vs_43_6:A 1.000000e-03
*END

*D_NET pgm_pn7_0_s0 1.936329e-02
*CONN
*I lt_pn7_0_s0:Z O
*I vs_14_7:A I
*CAP
1 pgm_pn7_0_s0:1 1.936329e-02
*RES
1 lt_pn7_0_s0:Z pgm_pn7_0_s0:1 2.197312e+01
2 pgm_pn7_0_s0:1 vs_14_7:A 1.000000e-03
*END

*D_NET pgm_pn7_0_s1 2.192887e-02
*CONN
*I lt_pn7_0_s1:Z O
*I vs_30_7:A I
*I vs_17_7:A I
*CAP
1 pgm_pn7_0_s1:1 2.192887e-02
*RES
1 lt_pn7_0_s1:Z pgm_pn7_0_s1:1 2.488449e+01
2 pgm_pn7_0_s1:1 vs_30_7:A 1.000000e-03
3 pgm_pn7_0_s1:1 vs_17_7:A 1.000000e-03
*END

*D_NET pgm_pn7_10_s0 7.542678e-03
*CONN
*I lt_pn7_10_s0:Z O
*I vs_8_7:A I
*CAP
1 pgm_pn7_10_s0:1 7.542678e-03
*RES
1 lt_pn7_10_s0:Z pgm_pn7_10_s0:1 8.559296e+00
2 pgm_pn7_10_s0:1 vs_8_7:A 1.000000e-03
*END

*D_NET pgm_pn7_10_s1 1.897567e-02
*CONN
*I lt_pn7_10_s1:Z O
*I vs_18_7:A I
*CAP
1 pgm_pn7_10_s1:1 1.897567e-02
*RES
1 lt_pn7_10_s1:Z pgm_pn7_10_s1:1 1.880924e+01
2 pgm_pn7_10_s1:1 vs_18_7:A 1.000000e-03
*END

*D_NET pgm_pn7_11_s2 5.528137e-03
*CONN
*I lt_pn7_11_s2:Z O
*I vs_43_7:A I
*CAP
1 pgm_pn7_11_s2:1 5.528137e-03
*RES
1 lt_pn7_11_s2:Z pgm_pn7_11_s2:1 6.273231e+00
2 pgm_pn7_11_s2:1 vs_43_7:A 1.000000e-03
*END

*D_NET pgm_pn7_11_s3 1.502420e-02
*CONN
*I lt_pn7_11_s3:Z O
*I vs_53_7:A I
*CAP
1 pgm_pn7_11_s3:1 1.502420e-02
*RES
1 lt_pn7_11_s3:Z pgm_pn7_11_s3:1 1.547701e+01
2 pgm_pn7_11_s3:1 vs_53_7:A 1.000000e-03
*END

*D_NET pgm_pn7_12_s2 1.406640e-02
*CONN
*I lt_pn7_12_s2:Z O
*I vs_38_7:A I
*CAP
1 pgm_pn7_12_s2:1 1.406640e-02
*RES
1 lt_pn7_12_s2:Z pgm_pn7_12_s2:1 1.410217e+01
2 pgm_pn7_12_s2:1 vs_38_7:A 1.000000e-03
*END

*D_NET pgm_pn7_12_s3 3.484582e-03
*CONN
*I lt_pn7_12_s3:Z O
*I vs_62_7:A I
*CAP
1 pgm_pn7_12_s3:1 3.484582e-03
*RES
1 lt_pn7_12_s3:Z pgm_pn7_12_s3:1 2.238088e+00
2 pgm_pn7_12_s3:1 vs_62_7:A 1.000000e-03
*END

*D_NET pgm_pn7_1_s0 1.632074e-02
*CONN
*I lt_pn7_1_s0:Z O
*I vs_13_7:A I
*CAP
1 pgm_pn7_1_s0:1 1.632074e-02
*RES
1 lt_pn7_1_s0:Z pgm_pn7_1_s0:1 1.852049e+01
2 pgm_pn7_1_s0:1 vs_13_7:A 1.000000e-03
*END

*D_NET pgm_pn7_1_s1 3.326955e-03
*CONN
*I lt_pn7_1_s1:Z O
*I vs_16_7:A I
*CAP
1 pgm_pn7_1_s1:1 3.326955e-03
*RES
1 lt_pn7_1_s1:Z pgm_pn7_1_s1:1 3.775369e+00
2 pgm_pn7_1_s1:1 vs_16_7:A 1.000000e-03
*END

*D_NET pgm_pn7_1_s3 1.496093e-02
*CONN
*I lt_pn7_1_s3:Z O
*I vs_60_7:A I
*CAP
1 pgm_pn7_1_s3:1 1.496093e-02
*RES
1 lt_pn7_1_s3:Z pgm_pn7_1_s3:1 1.697739e+01
2 pgm_pn7_1_s3:1 vs_60_7:A 1.000000e-03
*END

*D_NET pgm_pn7_2_s0 7.885312e-03
*CONN
*I lt_pn7_2_s0:Z O
*I vs_7_7:A I
*I vs_3_7:A I
*CAP
1 pgm_pn7_2_s0:1 7.885312e-03
*RES
1 lt_pn7_2_s0:Z pgm_pn7_2_s0:1 7.663896e+00
2 pgm_pn7_2_s0:1 vs_7_7:A 1.000000e-03
3 pgm_pn7_2_s0:1 vs_3_7:A 1.000000e-03
*END

*D_NET pgm_pn7_2_s3 9.453288e-03
*CONN
*I lt_pn7_2_s3:Z O
*I vs_57_7:A I
*CAP
1 pgm_pn7_2_s3:1 9.453288e-03
*RES
1 lt_pn7_2_s3:Z pgm_pn7_2_s3:1 8.566811e+00
2 pgm_pn7_2_s3:1 vs_57_7:A 1.000000e-03
*END

*D_NET pgm_pn7_3_s0 1.142956e-02
*CONN
*I lt_pn7_3_s0:Z O
*I vs_12_7:A I
*I vs_10_7:A I
*I vs_9_7:A I
*CAP
1 pgm_pn7_3_s0:1 1.142956e-02
*RES
1 lt_pn7_3_s0:Z pgm_pn7_3_s0:1 1.297006e+01
2 pgm_pn7_3_s0:1 vs_12_7:A 1.000000e-03
3 pgm_pn7_3_s0:1 vs_10_7:A 1.000000e-03
4 pgm_pn7_3_s0:1 vs_9_7:A 1.000000e-03
*END

*D_NET pgm_pn7_3_s3 1.587340e-02
*CONN
*I lt_pn7_3_s3:Z O
*I vs_63_7:A I
*CAP
1 pgm_pn7_3_s3:1 1.587340e-02
*RES
1 lt_pn7_3_s3:Z pgm_pn7_3_s3:1 1.801285e+01
2 pgm_pn7_3_s3:1 vs_63_7:A 1.000000e-03
*END

*D_NET pgm_pn7_4_s0 4.891187e-03
*CONN
*I lt_pn7_4_s0:Z O
*I vs_2_7:A I
*CAP
1 pgm_pn7_4_s0:1 4.891187e-03
*RES
1 lt_pn7_4_s0:Z pgm_pn7_4_s0:1 5.550431e+00
2 pgm_pn7_4_s0:1 vs_2_7:A 1.000000e-03
*END

*D_NET pgm_pn7_5_s1 1.057930e-02
*CONN
*I lt_pn7_5_s1:Z O
*I vs_28_7:A I
*I vs_21_7:A I
*CAP
1 pgm_pn7_5_s1:1 1.057930e-02
*RES
1 lt_pn7_5_s1:Z pgm_pn7_5_s1:1 1.200520e+01
2 pgm_pn7_5_s1:1 vs_28_7:A 1.000000e-03
3 pgm_pn7_5_s1:1 vs_21_7:A 1.000000e-03
*END

*D_NET pgm_pn7_5_s3 5.249656e-03
*CONN
*I lt_pn7_5_s3:Z O
*I vs_58_7:A I
*CAP
1 pgm_pn7_5_s3:1 5.249656e-03
*RES
1 lt_pn7_5_s3:Z pgm_pn7_5_s3:1 5.957216e+00
2 pgm_pn7_5_s3:1 vs_58_7:A 1.000000e-03
*END

*D_NET pgm_pn7_6_s2 6.745749e-03
*CONN
*I lt_pn7_6_s2:Z O
*I vs_44_7:A I
*I vs_41_7:A I
*CAP
1 pgm_pn7_6_s2:1 6.745749e-03
*RES
1 lt_pn7_6_s2:Z pgm_pn7_6_s2:1 7.654955e+00
2 pgm_pn7_6_s2:1 vs_44_7:A 1.000000e-03
3 pgm_pn7_6_s2:1 vs_41_7:A 1.000000e-03
*END

*D_NET pgm_pn7_6_s3 6.944241e-03
*CONN
*I lt_pn7_6_s3:Z O
*I vs_59_7:A I
*CAP
1 pgm_pn7_6_s3:1 6.944241e-03
*RES
1 lt_pn7_6_s3:Z pgm_pn7_6_s3:1 7.880200e+00
2 pgm_pn7_6_s3:1 vs_59_7:A 1.000000e-03
*END

*D_NET pgm_pn7_7_s1 1.112441e-02
*CONN
*I lt_pn7_7_s1:Z O
*I vs_27_7:A I
*I vs_20_7:A I
*CAP
1 pgm_pn7_7_s1:1 1.112441e-02
*RES
1 lt_pn7_7_s1:Z pgm_pn7_7_s1:1 1.262378e+01
2 pgm_pn7_7_s1:1 vs_27_7:A 1.000000e-03
3 pgm_pn7_7_s1:1 vs_20_7:A 1.000000e-03
*END

*D_NET pgm_pn7_8_s1 1.085186e-02
*CONN
*I lt_pn7_8_s1:Z O
*I vs_19_7:A I
*CAP
1 pgm_pn7_8_s1:1 1.085186e-02
*RES
1 lt_pn7_8_s1:Z pgm_pn7_8_s1:1 1.231449e+01
2 pgm_pn7_8_s1:1 vs_19_7:A 1.000000e-03
*END

*D_NET pgm_pn7_9_s1 2.968485e-03
*CONN
*I lt_pn7_9_s1:Z O
*I vs_29_7:A I
*CAP
1 pgm_pn7_9_s1:1 2.968485e-03
*RES
1 lt_pn7_9_s1:Z pgm_pn7_9_s1:1 3.368584e+00
2 pgm_pn7_9_s1:1 vs_29_7:A 1.000000e-03
*END

*D_NET pgm_pn8_0_s3 1.814864e-02
*CONN
*I lt_pn8_0_s3:Z O
*I vs_59_8:A I
*I vs_48_8:A I
*CAP
1 pgm_pn8_0_s3:1 1.814864e-02
*RES
1 lt_pn8_0_s3:Z pgm_pn8_0_s3:1 2.059475e+01
2 pgm_pn8_0_s3:1 vs_59_8:A 1.000000e-03
3 pgm_pn8_0_s3:1 vs_48_8:A 1.000000e-03
*END

*D_NET pgm_pn8_10_s0 1.659316e-02
*CONN
*I lt_pn8_10_s0:Z O
*I vs_10_8:A I
*I vs_2_8:A I
*CAP
1 pgm_pn8_10_s0:1 1.659316e-02
*RES
1 lt_pn8_10_s0:Z pgm_pn8_10_s0:1 1.783337e+01
2 pgm_pn8_10_s0:1 vs_10_8:A 1.000000e-03
3 pgm_pn8_10_s0:1 vs_2_8:A 1.000000e-03
*END

*D_NET pgm_pn8_10_s2 1.461431e-02
*CONN
*I lt_pn8_10_s2:Z O
*I vs_35_8:A I
*CAP
1 pgm_pn8_10_s2:1 1.461431e-02
*RES
1 lt_pn8_10_s2:Z pgm_pn8_10_s2:1 1.658406e+01
2 pgm_pn8_10_s2:1 vs_35_8:A 1.000000e-03
*END

*D_NET pgm_pn8_11_s2 1.544757e-02
*CONN
*I lt_pn8_11_s2:Z O
*I vs_36_8:A I
*CAP
1 pgm_pn8_11_s2:1 1.544757e-02
*RES
1 lt_pn8_11_s2:Z pgm_pn8_11_s2:1 1.339712e+01
2 pgm_pn8_11_s2:1 vs_36_8:A 1.000000e-03
*END

*D_NET pgm_pn8_12_s1 7.722676e-03
*CONN
*I lt_pn8_12_s1:Z O
*I vs_27_8:A I
*CAP
1 pgm_pn8_12_s1:1 7.722676e-03
*RES
1 lt_pn8_12_s1:Z pgm_pn8_12_s1:1 6.615464e+00
2 pgm_pn8_12_s1:1 vs_27_8:A 1.000000e-03
*END

*D_NET pgm_pn8_1_s1 1.900941e-03
*CONN
*I lt_pn8_1_s1:Z O
*I vs_18_8:A I
*CAP
1 pgm_pn8_1_s1:1 1.900941e-03
*RES
1 lt_pn8_1_s1:Z pgm_pn8_1_s1:1 8.729385e-01
2 pgm_pn8_1_s1:1 vs_18_8:A 1.000000e-03
*END

*D_NET pgm_pn8_1_s3 4.045834e-03
*CONN
*I lt_pn8_1_s3:Z O
*I vs_52_8:A I
*CAP
1 pgm_pn8_1_s3:1 4.045834e-03
*RES
1 lt_pn8_1_s3:Z pgm_pn8_1_s3:1 3.306925e+00
2 pgm_pn8_1_s3:1 vs_52_8:A 1.000000e-03
*END

*D_NET pgm_pn8_2_s0 1.290491e-02
*CONN
*I lt_pn8_2_s0:Z O
*I vs_12_8:A I
*CAP
1 pgm_pn8_2_s0:1 1.290491e-02
*RES
1 lt_pn8_2_s0:Z pgm_pn8_2_s0:1 1.464426e+01
2 pgm_pn8_2_s0:1 vs_12_8:A 1.000000e-03
*END

*D_NET pgm_pn8_2_s2 2.209807e-02
*CONN
*I lt_pn8_2_s2:Z O
*I vs_43_8:A I
*I vs_39_8:A I
*I vs_33_8:A I
*CAP
1 pgm_pn8_2_s2:1 2.209807e-02
*RES
1 lt_pn8_2_s2:Z pgm_pn8_2_s2:1 1.810012e+01
2 pgm_pn8_2_s2:1 vs_43_8:A 1.000000e-03
3 pgm_pn8_2_s2:1 vs_39_8:A 1.000000e-03
4 pgm_pn8_2_s2:1 vs_33_8:A 1.000000e-03
*END

*D_NET pgm_pn8_3_s0 1.839750e-03
*CONN
*I lt_pn8_3_s0:Z O
*I vs_5_8:A I
*CAP
1 pgm_pn8_3_s0:1 1.839750e-03
*RES
1 lt_pn8_3_s0:Z pgm_pn8_3_s0:1 2.087715e+00
2 pgm_pn8_3_s0:1 vs_5_8:A 1.000000e-03
*END

*D_NET pgm_pn8_3_s1 6.005109e-03
*CONN
*I lt_pn8_3_s1:Z O
*I vs_16_8:A I
*CAP
1 pgm_pn8_3_s1:1 6.005109e-03
*RES
1 lt_pn8_3_s1:Z pgm_pn8_3_s1:1 6.814490e+00
2 pgm_pn8_3_s1:1 vs_16_8:A 1.000000e-03
*END

*D_NET pgm_pn8_4_s1 1.582896e-02
*CONN
*I lt_pn8_4_s1:Z O
*I vs_31_8:A I
*I vs_21_8:A I
*CAP
1 pgm_pn8_4_s1:1 1.582896e-02
*RES
1 lt_pn8_4_s1:Z pgm_pn8_4_s1:1 1.796242e+01
2 pgm_pn8_4_s1:1 vs_31_8:A 1.000000e-03
3 pgm_pn8_4_s1:1 vs_21_8:A 1.000000e-03
*END

*D_NET pgm_pn8_4_s3 1.034526e-02
*CONN
*I lt_pn8_4_s3:Z O
*I vs_61_8:A I
*CAP
1 pgm_pn8_4_s3:1 1.034526e-02
*RES
1 lt_pn8_4_s3:Z pgm_pn8_4_s3:1 1.173962e+01
2 pgm_pn8_4_s3:1 vs_61_8:A 1.000000e-03
*END

*D_NET pgm_pn8_5_s2 1.251385e-02
*CONN
*I lt_pn8_5_s2:Z O
*I vs_47_8:A I
*CAP
1 pgm_pn8_5_s2:1 1.251385e-02
*RES
1 lt_pn8_5_s2:Z pgm_pn8_5_s2:1 1.420050e+01
2 pgm_pn8_5_s2:1 vs_47_8:A 1.000000e-03
*END

*D_NET pgm_pn8_6_s3 3.178827e-03
*CONN
*I lt_pn8_6_s3:Z O
*I vs_58_8:A I
*CAP
1 pgm_pn8_6_s3:1 3.178827e-03
*RES
1 lt_pn8_6_s3:Z pgm_pn8_6_s3:1 3.607276e+00
2 pgm_pn8_6_s3:1 vs_58_8:A 1.000000e-03
*END

*D_NET pgm_pn8_7_s0 7.536753e-03
*CONN
*I lt_pn8_7_s0:Z O
*I vs_4_8:A I
*CAP
1 pgm_pn8_7_s0:1 7.536753e-03
*RES
1 lt_pn8_7_s0:Z pgm_pn8_7_s0:1 8.552572e+00
2 pgm_pn8_7_s0:1 vs_4_8:A 1.000000e-03
*END

*D_NET pgm_pn8_7_s3 4.958538e-03
*CONN
*I lt_pn8_7_s3:Z O
*I vs_55_8:A I
*CAP
1 pgm_pn8_7_s3:1 4.958538e-03
*RES
1 lt_pn8_7_s3:Z pgm_pn8_7_s3:1 2.157915e+00
2 pgm_pn8_7_s3:1 vs_55_8:A 1.000000e-03
*END

*D_NET pgm_pn8_8_s0 7.945586e-03
*CONN
*I lt_pn8_8_s0:Z O
*I vs_15_8:A I
*CAP
1 pgm_pn8_8_s0:1 7.945586e-03
*RES
1 lt_pn8_8_s0:Z pgm_pn8_8_s0:1 9.016509e+00
2 pgm_pn8_8_s0:1 vs_15_8:A 1.000000e-03
*END

*D_NET pgm_pn8_8_s2 1.703387e-02
*CONN
*I lt_pn8_8_s2:Z O
*I vs_41_8:A I
*I vs_34_8:A I
*CAP
1 pgm_pn8_8_s2:1 1.703387e-02
*RES
1 lt_pn8_8_s2:Z pgm_pn8_8_s2:1 1.618538e+01
2 pgm_pn8_8_s2:1 vs_41_8:A 1.000000e-03
3 pgm_pn8_8_s2:1 vs_34_8:A 1.000000e-03
*END

*D_NET pgm_pn8_9_s3 4.227573e-03
*CONN
*I lt_pn8_9_s3:Z O
*I vs_62_8:A I
*CAP
1 pgm_pn8_9_s3:1 4.227573e-03
*RES
1 lt_pn8_9_s3:Z pgm_pn8_9_s3:1 4.797374e+00
2 pgm_pn8_9_s3:1 vs_62_8:A 1.000000e-03
*END

*D_NET pgm_pn9_0_s0 2.485649e-02
*CONN
*I lt_pn9_0_s0:Z O
*I vs_15_9:A I
*I vs_6_9:A I
*I vs_4_9:A I
*CAP
1 pgm_pn9_0_s0:1 2.485649e-02
*RES
1 lt_pn9_0_s0:Z pgm_pn9_0_s0:1 2.649055e+01
2 pgm_pn9_0_s0:1 vs_15_9:A 1.000000e-03
3 pgm_pn9_0_s0:1 vs_6_9:A 1.000000e-03
4 pgm_pn9_0_s0:1 vs_4_9:A 1.000000e-03
*END

*D_NET pgm_pn9_0_s1 2.202888e-02
*CONN
*I lt_pn9_0_s1:Z O
*I vs_30_9:A I
*CAP
1 pgm_pn9_0_s1:1 2.202888e-02
*RES
1 lt_pn9_0_s1:Z pgm_pn9_0_s1:1 2.284989e+01
2 pgm_pn9_0_s1:1 vs_30_9:A 1.000000e-03
*END

*D_NET pgm_pn9_0_s3 5.080790e-03
*CONN
*I lt_pn9_0_s3:Z O
*I vs_51_9:A I
*CAP
1 pgm_pn9_0_s3:1 5.080790e-03
*RES
1 lt_pn9_0_s3:Z pgm_pn9_0_s3:1 5.765590e+00
2 pgm_pn9_0_s3:1 vs_51_9:A 1.000000e-03
*END

*D_NET pgm_pn9_10_s2 1.613845e-02
*CONN
*I lt_pn9_10_s2:Z O
*I vs_34_9:A I
*CAP
1 pgm_pn9_10_s2:1 1.613845e-02
*RES
1 lt_pn9_10_s2:Z pgm_pn9_10_s2:1 1.136414e+01
2 pgm_pn9_10_s2:1 vs_34_9:A 1.000000e-03
*END

*D_NET pgm_pn9_10_s3 2.104899e-02
*CONN
*I lt_pn9_10_s3:Z O
*I vs_61_9:A I
*I vs_54_9:A I
*I vs_48_9:A I
*CAP
1 pgm_pn9_10_s3:1 2.104899e-02
*RES
1 lt_pn9_10_s3:Z pgm_pn9_10_s3:1 2.388602e+01
2 pgm_pn9_10_s3:1 vs_61_9:A 1.000000e-03
3 pgm_pn9_10_s3:1 vs_54_9:A 1.000000e-03
4 pgm_pn9_10_s3:1 vs_48_9:A 1.000000e-03
*END

*D_NET pgm_pn9_12_s1 6.008240e-03
*CONN
*I lt_pn9_12_s1:Z O
*I vs_28_9:A I
*CAP
1 pgm_pn9_12_s1:1 6.008240e-03
*RES
1 lt_pn9_12_s1:Z pgm_pn9_12_s1:1 4.957911e+00
2 pgm_pn9_12_s1:1 vs_28_9:A 1.000000e-03
*END

*D_NET pgm_pn9_12_s2 1.810097e-02
*CONN
*I lt_pn9_12_s2:Z O
*I vs_35_9:A I
*CAP
1 pgm_pn9_12_s2:1 1.810097e-02
*RES
1 lt_pn9_12_s2:Z pgm_pn9_12_s2:1 1.853654e+01
2 pgm_pn9_12_s2:1 vs_35_9:A 1.000000e-03
*END

*D_NET pgm_pn9_12_s3 1.003732e-02
*CONN
*I lt_pn9_12_s3:Z O
*I vs_57_9:A I
*CAP
1 pgm_pn9_12_s3:1 1.003732e-02
*RES
1 lt_pn9_12_s3:Z pgm_pn9_12_s3:1 9.530040e+00
2 pgm_pn9_12_s3:1 vs_57_9:A 1.000000e-03
*END

*D_NET pgm_pn9_1_s1 7.386716e-03
*CONN
*I lt_pn9_1_s1:Z O
*I vs_21_9:A I
*CAP
1 pgm_pn9_1_s1:1 7.386716e-03
*RES
1 lt_pn9_1_s1:Z pgm_pn9_1_s1:1 6.810139e+00
2 pgm_pn9_1_s1:1 vs_21_9:A 1.000000e-03
*END

*D_NET pgm_pn9_1_s2 1.618447e-02
*CONN
*I lt_pn9_1_s2:Z O
*I vs_45_9:A I
*CAP
1 pgm_pn9_1_s2:1 1.618447e-02
*RES
1 lt_pn9_1_s2:Z pgm_pn9_1_s2:1 1.836584e+01
2 pgm_pn9_1_s2:1 vs_45_9:A 1.000000e-03
*END

*D_NET pgm_pn9_1_s3 1.734283e-02
*CONN
*I lt_pn9_1_s3:Z O
*I vs_62_9:A I
*CAP
1 pgm_pn9_1_s3:1 1.734283e-02
*RES
1 lt_pn9_1_s3:Z pgm_pn9_1_s3:1 1.968033e+01
2 pgm_pn9_1_s3:1 vs_62_9:A 1.000000e-03
*END

*D_NET pgm_pn9_2_s1 6.867214e-03
*CONN
*I lt_pn9_2_s1:Z O
*I vs_23_9:A I
*CAP
1 pgm_pn9_2_s1:1 6.867214e-03
*RES
1 lt_pn9_2_s1:Z pgm_pn9_2_s1:1 7.792791e+00
2 pgm_pn9_2_s1:1 vs_23_9:A 1.000000e-03
*END

*D_NET pgm_pn9_2_s2 1.145860e-02
*CONN
*I lt_pn9_2_s2:Z O
*I vs_42_9:A I
*CAP
1 pgm_pn9_2_s2:1 1.145860e-02
*RES
1 lt_pn9_2_s2:Z pgm_pn9_2_s2:1 1.186278e+01
2 pgm_pn9_2_s2:1 vs_42_9:A 1.000000e-03
*END

*D_NET pgm_pn9_3_s1 7.350111e-03
*CONN
*I lt_pn9_3_s1:Z O
*I vs_25_9:A I
*CAP
1 pgm_pn9_3_s1:1 7.350111e-03
*RES
1 lt_pn9_3_s1:Z pgm_pn9_3_s1:1 8.340775e+00
2 pgm_pn9_3_s1:1 vs_25_9:A 1.000000e-03
*END

*D_NET pgm_pn9_4_s2 2.509288e-03
*CONN
*I lt_pn9_4_s2:Z O
*I vs_36_9:A I
*CAP
1 pgm_pn9_4_s2:1 2.509288e-03
*RES
1 lt_pn9_4_s2:Z pgm_pn9_4_s2:1 2.847495e+00
2 pgm_pn9_4_s2:1 vs_36_9:A 1.000000e-03
*END

*D_NET pgm_pn9_5_s0 1.800923e-02
*CONN
*I lt_pn9_5_s0:Z O
*I vs_11_9:A I
*I vs_0_9:A I
*CAP
1 pgm_pn9_5_s0:1 1.800923e-02
*RES
1 lt_pn9_5_s0:Z pgm_pn9_5_s0:1 1.905218e+01
2 pgm_pn9_5_s0:1 vs_11_9:A 1.000000e-03
3 pgm_pn9_5_s0:1 vs_0_9:A 1.000000e-03
*END

*D_NET pgm_pn9_5_s2 7.530828e-03
*CONN
*I lt_pn9_5_s2:Z O
*I vs_44_9:A I
*CAP
1 pgm_pn9_5_s2:1 7.530828e-03
*RES
1 lt_pn9_5_s2:Z pgm_pn9_5_s2:1 8.545848e+00
2 pgm_pn9_5_s2:1 vs_44_9:A 1.000000e-03
*END

*D_NET pgm_pn9_6_s2 1.059581e-02
*CONN
*I lt_pn9_6_s2:Z O
*I vs_40_9:A I
*I vs_33_9:A I
*CAP
1 pgm_pn9_6_s2:1 1.059581e-02
*RES
1 lt_pn9_6_s2:Z pgm_pn9_6_s2:1 8.022895e+00
2 pgm_pn9_6_s2:1 vs_40_9:A 1.000000e-03
3 pgm_pn9_6_s2:1 vs_33_9:A 1.000000e-03
*END

*D_NET pgm_pn9_6_s3 6.408017e-03
*CONN
*I lt_pn9_6_s3:Z O
*I vs_60_9:A I
*I vs_59_9:A I
*CAP
1 pgm_pn9_6_s3:1 6.408017e-03
*RES
1 lt_pn9_6_s3:Z pgm_pn9_6_s3:1 7.271703e+00
2 pgm_pn9_6_s3:1 vs_60_9:A 1.000000e-03
3 pgm_pn9_6_s3:1 vs_59_9:A 1.000000e-03
*END

*D_NET pgm_pn9_7_s0 7.127919e-03
*CONN
*I lt_pn9_7_s0:Z O
*I vs_14_9:A I
*CAP
1 pgm_pn9_7_s0:1 7.127919e-03
*RES
1 lt_pn9_7_s0:Z pgm_pn9_7_s0:1 8.088635e+00
2 pgm_pn9_7_s0:1 vs_14_9:A 1.000000e-03
*END

*D_NET pgm_pn9_7_s2 4.437915e-03
*CONN
*I lt_pn9_7_s2:Z O
*I vs_38_9:A I
*CAP
1 pgm_pn9_7_s2:1 4.437915e-03
*RES
1 lt_pn9_7_s2:Z pgm_pn9_7_s2:1 5.036066e+00
2 pgm_pn9_7_s2:1 vs_38_9:A 1.000000e-03
*END

*D_NET pgm_pn9_8_s0 4.805135e-03
*CONN
*I lt_pn9_8_s0:Z O
*I vs_10_9:A I
*CAP
1 pgm_pn9_8_s0:1 4.805135e-03
*RES
1 lt_pn9_8_s0:Z pgm_pn9_8_s0:1 4.456525e+00
2 pgm_pn9_8_s0:1 vs_10_9:A 1.000000e-03
*END

*D_NET pgm_pn9_8_s1 9.835699e-04
*CONN
*I lt_pn9_8_s1:Z O
*I vs_26_9:A I
*CAP
1 pgm_pn9_8_s1:1 9.835699e-04
*RES
1 lt_pn9_8_s1:Z pgm_pn9_8_s1:1 1.116138e+00
2 pgm_pn9_8_s1:1 vs_26_9:A 1.000000e-03
*END

*D_NET pgm_pn9_8_s2 1.487205e-03
*CONN
*I lt_pn9_8_s2:Z O
*I vs_43_9:A I
*CAP
1 pgm_pn9_8_s2:1 1.487205e-03
*RES
1 lt_pn9_8_s2:Z pgm_pn9_8_s2:1 1.687654e+00
2 pgm_pn9_8_s2:1 vs_43_9:A 1.000000e-03
*END

*D_NET pgm_pn9_8_s3 1.317747e-02
*CONN
*I lt_pn9_8_s3:Z O
*I vs_56_9:A I
*I vs_49_9:A I
*CAP
1 pgm_pn9_8_s3:1 1.317747e-02
*RES
1 lt_pn9_8_s3:Z pgm_pn9_8_s3:1 1.495355e+01
2 pgm_pn9_8_s3:1 vs_56_9:A 1.000000e-03
3 pgm_pn9_8_s3:1 vs_49_9:A 1.000000e-03
*END

*D_NET pgm_pn9_9_s2 2.241769e-02
*CONN
*I lt_pn9_9_s2:Z O
*I vs_47_9:A I
*I vs_32_9:A I
*CAP
1 pgm_pn9_9_s2:1 2.241769e-02
*RES
1 lt_pn9_9_s2:Z pgm_pn9_9_s2:1 2.543919e+01
2 pgm_pn9_9_s2:1 vs_47_9:A 1.000000e-03
3 pgm_pn9_9_s2:1 vs_32_9:A 1.000000e-03
*END

*D_NET pgm_pp0_0_s0 2.214592e-02
*CONN
*I lt_pp0_0_s0:Z O
*I vs_13_0:A I
*I vs_5_0:A I
*CAP
1 pgm_pp0_0_s0:1 2.214592e-02
*RES
1 lt_pp0_0_s0:Z pgm_pp0_0_s0:1 2.155450e+01
2 pgm_pp0_0_s0:1 vs_13_0:A 1.000000e-03
3 pgm_pp0_0_s0:1 vs_5_0:A 1.000000e-03
*END

*D_NET pgm_pp0_0_s3 1.635333e-03
*CONN
*I lt_pp0_0_s3:Z O
*I vs_48_0:A I
*CAP
1 pgm_pp0_0_s3:1 1.635333e-03
*RES
1 lt_pp0_0_s3:Z pgm_pp0_0_s3:1 1.855747e+00
2 pgm_pp0_0_s3:1 vs_48_0:A 1.000000e-03
*END

*D_NET pgm_pp0_10_s0 7.889297e-03
*CONN
*I lt_pp0_10_s0:Z O
*I vs_7_0:A I
*CAP
1 pgm_pp0_10_s0:1 7.889297e-03
*RES
1 lt_pp0_10_s0:Z pgm_pp0_10_s0:1 8.952633e+00
2 pgm_pp0_10_s0:1 vs_7_0:A 1.000000e-03
*END

*D_NET pgm_pp0_10_s3 1.153236e-02
*CONN
*I lt_pp0_10_s3:Z O
*I vs_53_0:A I
*CAP
1 pgm_pp0_10_s3:1 1.153236e-02
*RES
1 lt_pp0_10_s3:Z pgm_pp0_10_s3:1 1.281036e+01
2 pgm_pp0_10_s3:1 vs_53_0:A 1.000000e-03
*END

*D_NET pgm_pp0_11_s0 5.940987e-03
*CONN
*I lt_pp0_11_s0:Z O
*I vs_10_0:A I
*CAP
1 pgm_pp0_11_s0:1 5.940987e-03
*RES
1 lt_pp0_11_s0:Z pgm_pp0_11_s0:1 5.169552e+00
2 pgm_pp0_11_s0:1 vs_10_0:A 1.000000e-03
*END

*D_NET pgm_pp0_12_s3 3.715661e-03
*CONN
*I lt_pp0_12_s3:Z O
*I vs_61_0:A I
*CAP
1 pgm_pp0_12_s3:1 3.715661e-03
*RES
1 lt_pp0_12_s3:Z pgm_pp0_12_s3:1 2.500313e+00
2 pgm_pp0_12_s3:1 vs_61_0:A 1.000000e-03
*END

*D_NET pgm_pp0_1_s0 1.842120e-02
*CONN
*I lt_pp0_1_s0:Z O
*I vs_14_0:A I
*CAP
1 pgm_pp0_1_s0:1 1.842120e-02
*RES
1 lt_pp0_1_s0:Z pgm_pp0_1_s0:1 2.090405e+01
2 pgm_pp0_1_s0:1 vs_14_0:A 1.000000e-03
*END

*D_NET pgm_pp0_1_s1 1.067352e-02
*CONN
*I lt_pp0_1_s1:Z O
*I vs_24_0:A I
*CAP
1 pgm_pp0_1_s1:1 1.067352e-02
*RES
1 lt_pp0_1_s1:Z pgm_pp0_1_s1:1 1.097189e+01
2 pgm_pp0_1_s1:1 vs_24_0:A 1.000000e-03
*END

*D_NET pgm_pp0_1_s2 2.974410e-03
*CONN
*I lt_pp0_1_s2:Z O
*I vs_32_0:A I
*CAP
1 pgm_pp0_1_s2:1 2.974410e-03
*RES
1 lt_pp0_1_s2:Z pgm_pp0_1_s2:1 3.375307e+00
2 pgm_pp0_1_s2:1 vs_32_0:A 1.000000e-03
*END

*D_NET pgm_pp0_2_s1 1.546456e-02
*CONN
*I lt_pp0_2_s1:Z O
*I vs_29_0:A I
*CAP
1 pgm_pp0_2_s1:1 1.546456e-02
*RES
1 lt_pp0_2_s1:Z pgm_pp0_2_s1:1 1.754891e+01
2 pgm_pp0_2_s1:1 vs_29_0:A 1.000000e-03
*END

*D_NET pgm_pp0_2_s3 1.251885e-02
*CONN
*I lt_pp0_2_s3:Z O
*I vs_58_0:A I
*CAP
1 pgm_pp0_2_s3:1 1.251885e-02
*RES
1 lt_pp0_2_s3:Z pgm_pp0_2_s3:1 9.729370e+00
2 pgm_pp0_2_s3:1 vs_58_0:A 1.000000e-03
*END

*D_NET pgm_pp0_3_s2 6.458381e-03
*CONN
*I lt_pp0_3_s2:Z O
*I vs_40_0:A I
*CAP
1 pgm_pp0_3_s2:1 6.458381e-03
*RES
1 lt_pp0_3_s2:Z pgm_pp0_3_s2:1 7.328855e+00
2 pgm_pp0_3_s2:1 vs_40_0:A 1.000000e-03
*END

*D_NET pgm_pp0_3_s3 1.108294e-02
*CONN
*I lt_pp0_3_s3:Z O
*I vs_59_0:A I
*CAP
1 pgm_pp0_3_s3:1 1.108294e-02
*RES
1 lt_pp0_3_s3:Z pgm_pp0_3_s3:1 1.257672e+01
2 pgm_pp0_3_s3:1 vs_59_0:A 1.000000e-03
*END

*D_NET pgm_pp0_4_s3 1.014677e-02
*CONN
*I lt_pp0_4_s3:Z O
*I vs_54_0:A I
*I vs_49_0:A I
*CAP
1 pgm_pp0_4_s3:1 1.014677e-02
*RES
1 lt_pp0_4_s3:Z pgm_pp0_4_s3:1 1.151437e+01
2 pgm_pp0_4_s3:1 vs_54_0:A 1.000000e-03
3 pgm_pp0_4_s3:1 vs_49_0:A 1.000000e-03
*END

*D_NET pgm_pp0_5_s0 4.301637e-03
*CONN
*I lt_pp0_5_s0:Z O
*I vs_9_0:A I
*CAP
1 pgm_pp0_5_s0:1 4.301637e-03
*RES
1 lt_pp0_5_s0:Z pgm_pp0_5_s0:1 4.881421e+00
2 pgm_pp0_5_s0:1 vs_9_0:A 1.000000e-03
*END

*D_NET pgm_pp0_5_s1 1.294639e-03
*CONN
*I lt_pp0_5_s1:Z O
*I vs_21_0:A I
*CAP
1 pgm_pp0_5_s1:1 1.294639e-03
*RES
1 lt_pp0_5_s1:Z pgm_pp0_5_s1:1 1.469133e+00
2 pgm_pp0_5_s1:1 vs_21_0:A 1.000000e-03
*END

*D_NET pgm_pp0_5_s2 1.747910e-03
*CONN
*I lt_pp0_5_s2:Z O
*I vs_37_0:A I
*CAP
1 pgm_pp0_5_s2:1 1.747910e-03
*RES
1 lt_pp0_5_s2:Z pgm_pp0_5_s2:1 1.983497e+00
2 pgm_pp0_5_s2:1 vs_37_0:A 1.000000e-03
*END

*D_NET pgm_pp0_5_s3 3.092913e-03
*CONN
*I lt_pp0_5_s3:Z O
*I vs_56_0:A I
*CAP
1 pgm_pp0_5_s3:1 3.092913e-03
*RES
1 lt_pp0_5_s3:Z pgm_pp0_5_s3:1 3.509782e+00
2 pgm_pp0_5_s3:1 vs_56_0:A 1.000000e-03
*END

*D_NET pgm_pp0_6_s0 1.142956e-02
*CONN
*I lt_pp0_6_s0:Z O
*I vs_15_0:A I
*CAP
1 pgm_pp0_6_s0:1 1.142956e-02
*RES
1 lt_pp0_6_s0:Z pgm_pp0_6_s0:1 1.297006e+01
2 pgm_pp0_6_s0:1 vs_15_0:A 1.000000e-03
*END

*D_NET pgm_pp0_6_s1 2.070829e-03
*CONN
*I lt_pp0_6_s1:Z O
*I vs_22_0:A I
*CAP
1 pgm_pp0_6_s1:1 2.070829e-03
*RES
1 lt_pp0_6_s1:Z pgm_pp0_6_s1:1 2.349940e+00
2 pgm_pp0_6_s1:1 vs_22_0:A 1.000000e-03
*END

*D_NET pgm_pp0_6_s2 3.525446e-04
*CONN
*I lt_pp0_6_s2:Z O
*I vs_39_0:A I
*CAP
1 pgm_pp0_6_s2:1 3.525446e-04
*RES
1 lt_pp0_6_s2:Z pgm_pp0_6_s2:1 4.000613e-01
2 pgm_pp0_6_s2:1 vs_39_0:A 1.000000e-03
*END

*D_NET pgm_pp0_7_s1 1.600079e-02
*CONN
*I lt_pp0_7_s1:Z O
*I vs_30_0:A I
*I vs_20_0:A I
*CAP
1 pgm_pp0_7_s1:1 1.600079e-02
*RES
1 lt_pp0_7_s1:Z pgm_pp0_7_s1:1 1.815741e+01
2 pgm_pp0_7_s1:1 vs_30_0:A 1.000000e-03
3 pgm_pp0_7_s1:1 vs_20_0:A 1.000000e-03
*END

*D_NET pgm_pp0_8_s1 3.581735e-03
*CONN
*I lt_pp0_8_s1:Z O
*I vs_28_0:A I
*CAP
1 pgm_pp0_8_s1:1 3.581735e-03
*RES
1 lt_pp0_8_s1:Z pgm_pp0_8_s1:1 4.064489e+00
2 pgm_pp0_8_s1:1 vs_28_0:A 1.000000e-03
*END

*D_NET pgm_pp0_8_s3 6.917578e-03
*CONN
*I lt_pp0_8_s3:Z O
*I vs_62_0:A I
*CAP
1 pgm_pp0_8_s3:1 6.917578e-03
*RES
1 lt_pp0_8_s3:Z pgm_pp0_8_s3:1 7.849943e+00
2 pgm_pp0_8_s3:1 vs_62_0:A 1.000000e-03
*END

*D_NET pgm_pp0_9_s1 6.947066e-03
*CONN
*I lt_pp0_9_s1:Z O
*I vs_23_0:A I
*CAP
1 pgm_pp0_9_s1:1 6.947066e-03
*RES
1 lt_pp0_9_s1:Z pgm_pp0_9_s1:1 6.887150e+00
2 pgm_pp0_9_s1:1 vs_23_0:A 1.000000e-03
*END

*D_NET pgm_pp10_0_s1 1.553042e-02
*CONN
*I lt_pp10_0_s1:Z O
*I vs_25_10:A I
*I vs_19_10:A I
*CAP
1 pgm_pp10_0_s1:1 1.553042e-02
*RES
1 lt_pp10_0_s1:Z pgm_pp10_0_s1:1 1.506147e+01
2 pgm_pp10_0_s1:1 vs_25_10:A 1.000000e-03
3 pgm_pp10_0_s1:1 vs_19_10:A 1.000000e-03
*END

*D_NET pgm_pp10_10_s2 1.356852e-03
*CONN
*I lt_pp10_10_s2:Z O
*I vs_44_10:A I
*CAP
1 pgm_pp10_10_s2:1 1.356852e-03
*RES
1 lt_pp10_10_s2:Z pgm_pp10_10_s2:1 1.539732e+00
2 pgm_pp10_10_s2:1 vs_44_10:A 1.000000e-03
*END

*D_NET pgm_pp10_10_s3 2.464850e-03
*CONN
*I lt_pp10_10_s3:Z O
*I vs_59_10:A I
*CAP
1 pgm_pp10_10_s3:1 2.464850e-03
*RES
1 lt_pp10_10_s3:Z pgm_pp10_10_s3:1 2.797068e+00
2 pgm_pp10_10_s3:1 vs_59_10:A 1.000000e-03
*END

*D_NET pgm_pp10_11_s1 1.272716e-02
*CONN
*I lt_pp10_11_s1:Z O
*I vs_21_10:A I
*CAP
1 pgm_pp10_11_s1:1 1.272716e-02
*RES
1 lt_pp10_11_s1:Z pgm_pp10_11_s1:1 1.444255e+01
2 pgm_pp10_11_s1:1 vs_21_10:A 1.000000e-03
*END

*D_NET pgm_pp10_11_s2 2.336090e-02
*CONN
*I lt_pp10_11_s2:Z O
*I vs_47_10:A I
*I vs_39_10:A I
*I vs_34_10:A I
*CAP
1 pgm_pp10_11_s2:1 2.336090e-02
*RES
1 lt_pp10_11_s2:Z pgm_pp10_11_s2:1 2.191287e+01
2 pgm_pp10_11_s2:1 vs_47_10:A 1.000000e-03
3 pgm_pp10_11_s2:1 vs_39_10:A 1.000000e-03
4 pgm_pp10_11_s2:1 vs_34_10:A 1.000000e-03
*END

*D_NET pgm_pp10_12_s0 2.506937e-03
*CONN
*I lt_pp10_12_s0:Z O
*I vs_14_10:A I
*CAP
1 pgm_pp10_12_s0:1 2.506937e-03
*RES
1 lt_pp10_12_s0:Z pgm_pp10_12_s0:1 1.128674e+00
2 pgm_pp10_12_s0:1 vs_14_10:A 1.000000e-03
*END

*D_NET pgm_pp10_12_s2 2.097492e-02
*CONN
*I lt_pp10_12_s2:Z O
*I vs_32_10:A I
*CAP
1 pgm_pp10_12_s2:1 2.097492e-02
*RES
1 lt_pp10_12_s2:Z pgm_pp10_12_s2:1 2.380197e+01
2 pgm_pp10_12_s2:1 vs_32_10:A 1.000000e-03
*END

*D_NET pgm_pp10_2_s0 1.355964e-02
*CONN
*I lt_pp10_2_s0:Z O
*I vs_10_10:A I
*I vs_9_10:A I
*I vs_4_10:A I
*CAP
1 pgm_pp10_2_s0:1 1.355964e-02
*RES
1 lt_pp10_2_s0:Z pgm_pp10_2_s0:1 1.538723e+01
2 pgm_pp10_2_s0:1 vs_10_10:A 1.000000e-03
3 pgm_pp10_2_s0:1 vs_9_10:A 1.000000e-03
4 pgm_pp10_2_s0:1 vs_4_10:A 1.000000e-03
*END

*D_NET pgm_pp10_3_s0 7.683415e-03
*CONN
*I lt_pp10_3_s0:Z O
*I vs_8_10:A I
*CAP
1 pgm_pp10_3_s0:1 7.683415e-03
*RES
1 lt_pp10_3_s0:Z pgm_pp10_3_s0:1 7.290807e+00
2 pgm_pp10_3_s0:1 vs_8_10:A 1.000000e-03
*END

*D_NET pgm_pp10_3_s1 1.276850e-02
*CONN
*I lt_pp10_3_s1:Z O
*I vs_28_10:A I
*I vs_27_10:A I
*CAP
1 pgm_pp10_3_s1:1 1.276850e-02
*RES
1 lt_pp10_3_s1:Z pgm_pp10_3_s1:1 1.349320e+01
2 pgm_pp10_3_s1:1 vs_28_10:A 1.000000e-03
3 pgm_pp10_3_s1:1 vs_27_10:A 1.000000e-03
*END

*D_NET pgm_pp10_3_s3 1.586155e-02
*CONN
*I lt_pp10_3_s3:Z O
*I vs_63_10:A I
*CAP
1 pgm_pp10_3_s3:1 1.586155e-02
*RES
1 lt_pp10_3_s3:Z pgm_pp10_3_s3:1 1.799940e+01
2 pgm_pp10_3_s3:1 vs_63_10:A 1.000000e-03
*END

*D_NET pgm_pp10_4_s1 1.178210e-02
*CONN
*I lt_pp10_4_s1:Z O
*I vs_29_10:A I
*CAP
1 pgm_pp10_4_s1:1 1.178210e-02
*RES
1 lt_pp10_4_s1:Z pgm_pp10_4_s1:1 1.337012e+01
2 pgm_pp10_4_s1:1 vs_29_10:A 1.000000e-03
*END

*D_NET pgm_pp10_5_s0 1.667921e-03
*CONN
*I lt_pp10_5_s0:Z O
*I vs_7_10:A I
*CAP
1 pgm_pp10_5_s0:1 1.667921e-03
*RES
1 lt_pp10_5_s0:Z pgm_pp10_5_s0:1 1.892727e+00
2 pgm_pp10_5_s0:1 vs_7_10:A 1.000000e-03
*END

*D_NET pgm_pp10_6_s0 1.151251e-02
*CONN
*I lt_pp10_6_s0:Z O
*I vs_12_10:A I
*I vs_5_10:A I
*CAP
1 pgm_pp10_6_s0:1 1.151251e-02
*RES
1 lt_pp10_6_s0:Z pgm_pp10_6_s0:1 1.306419e+01
2 pgm_pp10_6_s0:1 vs_12_10:A 1.000000e-03
3 pgm_pp10_6_s0:1 vs_5_10:A 1.000000e-03
*END

*D_NET pgm_pp10_6_s1 9.360392e-03
*CONN
*I lt_pp10_6_s1:Z O
*I vs_26_10:A I
*I vs_22_10:A I
*CAP
1 pgm_pp10_6_s1:1 9.360392e-03
*RES
1 lt_pp10_6_s1:Z pgm_pp10_6_s1:1 7.333678e+00
2 pgm_pp10_6_s1:1 vs_26_10:A 1.000000e-03
3 pgm_pp10_6_s1:1 vs_22_10:A 1.000000e-03
*END

*D_NET pgm_pp10_6_s2 2.690004e-03
*CONN
*I lt_pp10_6_s2:Z O
*I vs_41_10:A I
*CAP
1 pgm_pp10_6_s2:1 2.690004e-03
*RES
1 lt_pp10_6_s2:Z pgm_pp10_6_s2:1 3.052569e+00
2 pgm_pp10_6_s2:1 vs_41_10:A 1.000000e-03
*END

*D_NET pgm_pp10_6_s3 2.152991e-02
*CONN
*I lt_pp10_6_s3:Z O
*I vs_62_10:A I
*I vs_48_10:A I
*CAP
1 pgm_pp10_6_s3:1 2.152991e-02
*RES
1 lt_pp10_6_s3:Z pgm_pp10_6_s3:1 2.208914e+01
2 pgm_pp10_6_s3:1 vs_62_10:A 1.000000e-03
3 pgm_pp10_6_s3:1 vs_48_10:A 1.000000e-03
*END

*D_NET pgm_pp10_7_s1 9.768614e-03
*CONN
*I lt_pp10_7_s1:Z O
*I vs_18_10:A I
*CAP
1 pgm_pp10_7_s1:1 9.768614e-03
*RES
1 lt_pp10_7_s1:Z pgm_pp10_7_s1:1 8.968456e+00
2 pgm_pp10_7_s1:1 vs_18_10:A 1.000000e-03
*END

*D_NET pgm_pp10_7_s3 1.294639e-03
*CONN
*I lt_pp10_7_s3:Z O
*I vs_57_10:A I
*I vs_56_10:A I
*CAP
1 pgm_pp10_7_s3:1 1.294639e-03
*RES
1 lt_pp10_7_s3:Z pgm_pp10_7_s3:1 1.469133e+00
2 pgm_pp10_7_s3:1 vs_57_10:A 1.000000e-03
3 pgm_pp10_7_s3:1 vs_56_10:A 1.000000e-03
*END

*D_NET pgm_pp10_8_s0 1.157176e-02
*CONN
*I lt_pp10_8_s0:Z O
*I vs_2_10:A I
*CAP
1 pgm_pp10_8_s0:1 1.157176e-02
*RES
1 lt_pp10_8_s0:Z pgm_pp10_8_s0:1 1.313143e+01
2 pgm_pp10_8_s0:1 vs_2_10:A 1.000000e-03
*END

*D_NET pgm_pp10_8_s2 2.775919e-03
*CONN
*I lt_pp10_8_s2:Z O
*I vs_40_10:A I
*CAP
1 pgm_pp10_8_s2:1 2.775919e-03
*RES
1 lt_pp10_8_s2:Z pgm_pp10_8_s2:1 3.150063e+00
2 pgm_pp10_8_s2:1 vs_40_10:A 1.000000e-03
*END

*D_NET pgm_pp10_8_s3 4.840823e-03
*CONN
*I lt_pp10_8_s3:Z O
*I vs_55_10:A I
*CAP
1 pgm_pp10_8_s3:1 4.840823e-03
*RES
1 lt_pp10_8_s3:Z pgm_pp10_8_s3:1 5.493279e+00
2 pgm_pp10_8_s3:1 vs_55_10:A 1.000000e-03
*END

*D_NET pgm_pp11_0_s0 1.571240e-02
*CONN
*I lt_pp11_0_s0:Z O
*I vs_10_11:A I
*CAP
1 pgm_pp11_0_s0:1 1.571240e-02
*RES
1 lt_pp11_0_s0:Z pgm_pp11_0_s0:1 1.654593e+01
2 pgm_pp11_0_s0:1 vs_10_11:A 1.000000e-03
*END

*D_NET pgm_pp11_0_s2 6.291760e-03
*CONN
*I lt_pp11_0_s2:Z O
*I vs_35_11:A I
*CAP
1 pgm_pp11_0_s2:1 6.291760e-03
*RES
1 lt_pp11_0_s2:Z pgm_pp11_0_s2:1 4.991685e+00
2 pgm_pp11_0_s2:1 vs_35_11:A 1.000000e-03
*END

*D_NET pgm_pp11_0_s3 2.151411e-02
*CONN
*I lt_pp11_0_s3:Z O
*I vs_63_11:A I
*I vs_62_11:A I
*CAP
1 pgm_pp11_0_s3:1 2.151411e-02
*RES
1 lt_pp11_0_s3:Z pgm_pp11_0_s3:1 2.441383e+01
2 pgm_pp11_0_s3:1 vs_63_11:A 1.000000e-03
3 pgm_pp11_0_s3:1 vs_62_11:A 1.000000e-03
*END

*D_NET pgm_pp11_10_s1 1.044302e-02
*CONN
*I lt_pp11_10_s1:Z O
*I vs_21_11:A I
*CAP
1 pgm_pp11_10_s1:1 1.044302e-02
*RES
1 lt_pp11_10_s1:Z pgm_pp11_10_s1:1 1.185056e+01
2 pgm_pp11_10_s1:1 vs_21_11:A 1.000000e-03
*END

*D_NET pgm_pp11_11_s1 1.863746e-02
*CONN
*I lt_pp11_11_s1:Z O
*I vs_16_11:A I
*CAP
1 pgm_pp11_11_s1:1 1.863746e-02
*RES
1 lt_pp11_11_s1:Z pgm_pp11_11_s1:1 2.114946e+01
2 pgm_pp11_11_s1:1 vs_16_11:A 1.000000e-03
*END

*D_NET pgm_pp11_12_s0 1.780604e-02
*CONN
*I lt_pp11_12_s0:Z O
*I vs_9_11:A I
*I vs_4_11:A I
*CAP
1 pgm_pp11_12_s0:1 1.780604e-02
*RES
1 lt_pp11_12_s0:Z pgm_pp11_12_s0:1 1.863380e+01
2 pgm_pp11_12_s0:1 vs_9_11:A 1.000000e-03
3 pgm_pp11_12_s0:1 vs_4_11:A 1.000000e-03
*END

*D_NET pgm_pp11_12_s2 2.441149e-03
*CONN
*I lt_pp11_12_s2:Z O
*I vs_46_11:A I
*CAP
1 pgm_pp11_12_s2:1 2.441149e-03
*RES
1 lt_pp11_12_s2:Z pgm_pp11_12_s2:1 2.770173e+00
2 pgm_pp11_12_s2:1 vs_46_11:A 1.000000e-03
*END

*D_NET pgm_pp11_12_s3 1.433303e-02
*CONN
*I lt_pp11_12_s3:Z O
*I vs_53_11:A I
*CAP
1 pgm_pp11_12_s3:1 1.433303e-02
*RES
1 lt_pp11_12_s3:Z pgm_pp11_12_s3:1 1.440474e+01
2 pgm_pp11_12_s3:1 vs_53_11:A 1.000000e-03
*END

*D_NET pgm_pp11_1_s0 1.253105e-02
*CONN
*I lt_pp11_1_s0:Z O
*I vs_8_11:A I
*I vs_7_11:A I
*I vs_2_11:A I
*CAP
1 pgm_pp11_1_s0:1 1.253105e-02
*RES
1 lt_pp11_1_s0:Z pgm_pp11_1_s0:1 1.307977e+01
2 pgm_pp11_1_s0:1 vs_8_11:A 1.000000e-03
3 pgm_pp11_1_s0:1 vs_7_11:A 1.000000e-03
4 pgm_pp11_1_s0:1 vs_2_11:A 1.000000e-03
*END

*D_NET pgm_pp11_1_s1 2.366200e-02
*CONN
*I lt_pp11_1_s1:Z O
*I vs_30_11:A I
*I vs_22_11:A I
*CAP
1 pgm_pp11_1_s1:1 2.366200e-02
*RES
1 lt_pp11_1_s1:Z pgm_pp11_1_s1:1 2.399482e+01
2 pgm_pp11_1_s1:1 vs_30_11:A 1.000000e-03
3 pgm_pp11_1_s1:1 vs_22_11:A 1.000000e-03
*END

*D_NET pgm_pp11_1_s2 1.851600e-03
*CONN
*I lt_pp11_1_s2:Z O
*I vs_33_11:A I
*CAP
1 pgm_pp11_1_s2:1 1.851600e-03
*RES
1 lt_pp11_1_s2:Z pgm_pp11_1_s2:1 2.101163e+00
2 pgm_pp11_1_s2:1 vs_33_11:A 1.000000e-03
*END

*D_NET pgm_pp11_2_s3 7.597501e-03
*CONN
*I lt_pp11_2_s3:Z O
*I vs_55_11:A I
*CAP
1 pgm_pp11_2_s3:1 7.597501e-03
*RES
1 lt_pp11_2_s3:Z pgm_pp11_2_s3:1 7.193313e+00
2 pgm_pp11_2_s3:1 vs_55_11:A 1.000000e-03
*END

*D_NET pgm_pp11_3_s1 1.188817e-02
*CONN
*I lt_pp11_3_s1:Z O
*I vs_27_11:A I
*CAP
1 pgm_pp11_3_s1:1 1.188817e-02
*RES
1 lt_pp11_3_s1:Z pgm_pp11_3_s1:1 1.235025e+01
2 pgm_pp11_3_s1:1 vs_27_11:A 1.000000e-03
*END

*D_NET pgm_pp11_3_s2 2.565577e-03
*CONN
*I lt_pp11_3_s2:Z O
*I vs_37_11:A I
*CAP
1 pgm_pp11_3_s2:1 2.565577e-03
*RES
1 lt_pp11_3_s2:Z pgm_pp11_3_s2:1 2.911371e+00
2 pgm_pp11_3_s2:1 vs_37_11:A 1.000000e-03
*END

*D_NET pgm_pp11_3_s3 2.906134e-03
*CONN
*I lt_pp11_3_s3:Z O
*I vs_52_11:A I
*CAP
1 pgm_pp11_3_s3:1 2.906134e-03
*RES
1 lt_pp11_3_s3:Z pgm_pp11_3_s3:1 2.301573e+00
2 pgm_pp11_3_s3:1 vs_52_11:A 1.000000e-03
*END

*D_NET pgm_pp11_4_s0 1.033933e-03
*CONN
*I lt_pp11_4_s0:Z O
*I vs_5_11:A I
*CAP
1 pgm_pp11_4_s0:1 1.033933e-03
*RES
1 lt_pp11_4_s0:Z pgm_pp11_4_s0:1 1.173289e+00
2 pgm_pp11_4_s0:1 vs_5_11:A 1.000000e-03
*END

*D_NET pgm_pp11_4_s1 1.017894e-02
*CONN
*I lt_pp11_4_s1:Z O
*I vs_26_11:A I
*CAP
1 pgm_pp11_4_s1:1 1.017894e-02
*RES
1 lt_pp11_4_s1:Z pgm_pp11_4_s1:1 8.550516e+00
2 pgm_pp11_4_s1:1 vs_26_11:A 1.000000e-03
*END

*D_NET pgm_pp11_4_s2 2.293021e-03
*CONN
*I lt_pp11_4_s2:Z O
*I vs_38_11:A I
*CAP
1 pgm_pp11_4_s2:1 2.293021e-03
*RES
1 lt_pp11_4_s2:Z pgm_pp11_4_s2:1 2.602080e+00
2 pgm_pp11_4_s2:1 vs_38_11:A 1.000000e-03
*END

*D_NET pgm_pp11_5_s1 2.303986e-03
*CONN
*I lt_pp11_5_s1:Z O
*I vs_23_11:A I
*CAP
1 pgm_pp11_5_s1:1 2.303986e-03
*RES
1 lt_pp11_5_s1:Z pgm_pp11_5_s1:1 2.338163e+00
2 pgm_pp11_5_s1:1 vs_23_11:A 1.000000e-03
*END

*D_NET pgm_pp11_5_s3 1.690733e-02
*CONN
*I lt_pp11_5_s3:Z O
*I vs_61_11:A I
*I vs_50_11:A I
*CAP
1 pgm_pp11_5_s3:1 1.690733e-02
*RES
1 lt_pp11_5_s3:Z pgm_pp11_5_s3:1 1.918614e+01
2 pgm_pp11_5_s3:1 vs_61_11:A 1.000000e-03
3 pgm_pp11_5_s3:1 vs_50_11:A 1.000000e-03
*END

*D_NET pgm_pp11_6_s1 2.912196e-03
*CONN
*I lt_pp11_6_s1:Z O
*I vs_25_11:A I
*CAP
1 pgm_pp11_6_s1:1 2.912196e-03
*RES
1 lt_pp11_6_s1:Z pgm_pp11_6_s1:1 3.304708e+00
2 pgm_pp11_6_s1:1 vs_25_11:A 1.000000e-03
*END

*D_NET pgm_pp11_6_s3 1.108294e-02
*CONN
*I lt_pp11_6_s3:Z O
*I vs_48_11:A I
*CAP
1 pgm_pp11_6_s3:1 1.108294e-02
*RES
1 lt_pp11_6_s3:Z pgm_pp11_6_s3:1 1.257672e+01
2 pgm_pp11_6_s3:1 vs_48_11:A 1.000000e-03
*END

*D_NET pgm_pp11_7_s3 2.150819e-03
*CONN
*I lt_pp11_7_s3:Z O
*I vs_58_11:A I
*CAP
1 pgm_pp11_7_s3:1 2.150819e-03
*RES
1 lt_pp11_7_s3:Z pgm_pp11_7_s3:1 2.440710e+00
2 pgm_pp11_7_s3:1 vs_58_11:A 1.000000e-03
*END

*D_NET pgm_pp11_8_s0 9.495005e-03
*CONN
*I lt_pp11_8_s0:Z O
*I vs_3_11:A I
*CAP
1 pgm_pp11_8_s0:1 9.495005e-03
*RES
1 lt_pp11_8_s0:Z pgm_pp11_8_s0:1 1.077476e+01
2 pgm_pp11_8_s0:1 vs_3_11:A 1.000000e-03
*END

*D_NET pgm_pp11_8_s1 1.663477e-02
*CONN
*I lt_pp11_8_s1:Z O
*I vs_31_11:A I
*I vs_20_11:A I
*CAP
1 pgm_pp11_8_s1:1 1.663477e-02
*RES
1 lt_pp11_8_s1:Z pgm_pp11_8_s1:1 1.887684e+01
2 pgm_pp11_8_s1:1 vs_31_11:A 1.000000e-03
3 pgm_pp11_8_s1:1 vs_20_11:A 1.000000e-03
*END

*D_NET pgm_pp11_8_s2 1.552678e-02
*CONN
*I lt_pp11_8_s2:Z O
*I vs_42_11:A I
*I vs_32_11:A I
*CAP
1 pgm_pp11_8_s2:1 1.552678e-02
*RES
1 lt_pp11_8_s2:Z pgm_pp11_8_s2:1 1.761951e+01
2 pgm_pp11_8_s2:1 vs_42_11:A 1.000000e-03
3 pgm_pp11_8_s2:1 vs_32_11:A 1.000000e-03
*END

*D_NET pgm_pp11_8_s3 1.745244e-02
*CONN
*I lt_pp11_8_s3:Z O
*I vs_60_11:A I
*I vs_49_11:A I
*CAP
1 pgm_pp11_8_s3:1 1.745244e-02
*RES
1 lt_pp11_8_s3:Z pgm_pp11_8_s3:1 1.980472e+01
2 pgm_pp11_8_s3:1 vs_60_11:A 1.000000e-03
3 pgm_pp11_8_s3:1 vs_49_11:A 1.000000e-03
*END

*D_NET pgm_pp12_0_s0 1.697267e-02
*CONN
*I lt_pp12_0_s0:Z O
*I vs_11_12:A I
*CAP
1 pgm_pp12_0_s0:1 1.697267e-02
*RES
1 lt_pp12_0_s0:Z pgm_pp12_0_s0:1 1.740015e+01
2 pgm_pp12_0_s0:1 vs_11_12:A 1.000000e-03
*END

*D_NET pgm_pp12_0_s2 1.641258e-02
*CONN
*I lt_pp12_0_s2:Z O
*I vs_43_12:A I
*I vs_41_12:A I
*CAP
1 pgm_pp12_0_s2:1 1.641258e-02
*RES
1 lt_pp12_0_s2:Z pgm_pp12_0_s2:1 1.862470e+01
2 pgm_pp12_0_s2:1 vs_43_12:A 1.000000e-03
3 pgm_pp12_0_s2:1 vs_41_12:A 1.000000e-03
*END

*D_NET pgm_pp12_0_s3 2.151411e-02
*CONN
*I lt_pp12_0_s3:Z O
*I vs_63_12:A I
*CAP
1 pgm_pp12_0_s3:1 2.151411e-02
*RES
1 lt_pp12_0_s3:Z pgm_pp12_0_s3:1 2.441383e+01
2 pgm_pp12_0_s3:1 vs_63_12:A 1.000000e-03
*END

*D_NET pgm_pp12_10_s1 1.622594e-02
*CONN
*I lt_pp12_10_s1:Z O
*I vs_19_12:A I
*I vs_17_12:A I
*CAP
1 pgm_pp12_10_s1:1 1.622594e-02
*RES
1 lt_pp12_10_s1:Z pgm_pp12_10_s1:1 1.841291e+01
2 pgm_pp12_10_s1:1 vs_19_12:A 1.000000e-03
3 pgm_pp12_10_s1:1 vs_17_12:A 1.000000e-03
*END

*D_NET pgm_pp12_10_s2 5.664415e-03
*CONN
*I lt_pp12_10_s2:Z O
*I vs_47_12:A I
*I vs_44_12:A I
*CAP
1 pgm_pp12_10_s2:1 5.664415e-03
*RES
1 lt_pp12_10_s2:Z pgm_pp12_10_s2:1 6.427876e+00
2 pgm_pp12_10_s2:1 vs_47_12:A 1.000000e-03
3 pgm_pp12_10_s2:1 vs_44_12:A 1.000000e-03
*END

*D_NET pgm_pp12_11_s2 1.783165e-02
*CONN
*I lt_pp12_11_s2:Z O
*I vs_33_12:A I
*CAP
1 pgm_pp12_11_s2:1 1.783165e-02
*RES
1 lt_pp12_11_s2:Z pgm_pp12_11_s2:1 2.023504e+01
2 pgm_pp12_11_s2:1 vs_33_12:A 1.000000e-03
*END

*D_NET pgm_pp12_12_s1 1.845916e-02
*CONN
*I lt_pp12_12_s1:Z O
*I vs_26_12:A I
*I vs_20_12:A I
*CAP
1 pgm_pp12_12_s1:1 1.845916e-02
*RES
1 lt_pp12_12_s1:Z pgm_pp12_12_s1:1 1.693890e+01
2 pgm_pp12_12_s1:1 vs_26_12:A 1.000000e-03
3 pgm_pp12_12_s1:1 vs_20_12:A 1.000000e-03
*END

*D_NET pgm_pp12_12_s2 2.441149e-03
*CONN
*I lt_pp12_12_s2:Z O
*I vs_46_12:A I
*CAP
1 pgm_pp12_12_s2:1 2.441149e-03
*RES
1 lt_pp12_12_s2:Z pgm_pp12_12_s2:1 2.770173e+00
2 pgm_pp12_12_s2:1 vs_46_12:A 1.000000e-03
*END

*D_NET pgm_pp12_1_s2 1.036303e-02
*CONN
*I lt_pp12_1_s2:Z O
*I vs_40_12:A I
*CAP
1 pgm_pp12_1_s2:1 1.036303e-02
*RES
1 lt_pp12_1_s2:Z pgm_pp12_1_s2:1 1.175979e+01
2 pgm_pp12_1_s2:1 vs_40_12:A 1.000000e-03
*END

*D_NET pgm_pp12_2_s3 1.283085e-02
*CONN
*I lt_pp12_2_s3:Z O
*I vs_59_12:A I
*CAP
1 pgm_pp12_2_s3:1 1.283085e-02
*RES
1 lt_pp12_2_s3:Z pgm_pp12_2_s3:1 1.456022e+01
2 pgm_pp12_2_s3:1 vs_59_12:A 1.000000e-03
*END

*D_NET pgm_pp12_3_s0 2.061942e-03
*CONN
*I lt_pp12_3_s0:Z O
*I vs_4_12:A I
*CAP
1 pgm_pp12_3_s0:1 2.061942e-03
*RES
1 lt_pp12_3_s0:Z pgm_pp12_3_s0:1 2.339855e+00
2 pgm_pp12_3_s0:1 vs_4_12:A 1.000000e-03
*END

*D_NET pgm_pp12_3_s1 6.493932e-03
*CONN
*I lt_pp12_3_s1:Z O
*I vs_23_12:A I
*CAP
1 pgm_pp12_3_s1:1 6.493932e-03
*RES
1 lt_pp12_3_s1:Z pgm_pp12_3_s1:1 7.369197e+00
2 pgm_pp12_3_s1:1 vs_23_12:A 1.000000e-03
*END

*D_NET pgm_pp12_3_s2 6.147312e-03
*CONN
*I lt_pp12_3_s2:Z O
*I vs_38_12:A I
*I vs_35_12:A I
*CAP
1 pgm_pp12_3_s2:1 6.147312e-03
*RES
1 lt_pp12_3_s2:Z pgm_pp12_3_s2:1 6.975859e+00
2 pgm_pp12_3_s2:1 vs_38_12:A 1.000000e-03
3 pgm_pp12_3_s2:1 vs_35_12:A 1.000000e-03
*END

*D_NET pgm_pp12_3_s3 2.832207e-03
*CONN
*I lt_pp12_3_s3:Z O
*I vs_50_12:A I
*CAP
1 pgm_pp12_3_s3:1 2.832207e-03
*RES
1 lt_pp12_3_s3:Z pgm_pp12_3_s3:1 3.213938e+00
2 pgm_pp12_3_s3:1 vs_50_12:A 1.000000e-03
*END

*D_NET pgm_pp12_4_s0 3.120767e-03
*CONN
*I lt_pp12_4_s0:Z O
*I vs_3_12:A I
*CAP
1 pgm_pp12_4_s0:1 3.120767e-03
*RES
1 lt_pp12_4_s0:Z pgm_pp12_4_s0:1 2.977073e+00
2 pgm_pp12_4_s0:1 vs_3_12:A 1.000000e-03
*END

*D_NET pgm_pp12_4_s2 8.472922e-04
*CONN
*I lt_pp12_4_s2:Z O
*I vs_37_12:A I
*CAP
1 pgm_pp12_4_s2:1 8.472922e-04
*RES
1 lt_pp12_4_s2:Z pgm_pp12_4_s2:1 9.614920e-01
2 pgm_pp12_4_s2:1 vs_37_12:A 1.000000e-03
*END

*D_NET pgm_pp12_5_s1 3.501746e-03
*CONN
*I lt_pp12_5_s1:Z O
*I vs_24_12:A I
*CAP
1 pgm_pp12_5_s1:1 3.501746e-03
*RES
1 lt_pp12_5_s1:Z pgm_pp12_5_s1:1 3.973719e+00
2 pgm_pp12_5_s1:1 vs_24_12:A 1.000000e-03
*END

*D_NET pgm_pp12_6_s3 7.077556e-03
*CONN
*I lt_pp12_6_s3:Z O
*I vs_60_12:A I
*CAP
1 pgm_pp12_6_s3:1 7.077556e-03
*RES
1 lt_pp12_6_s3:Z pgm_pp12_6_s3:1 8.031484e+00
2 pgm_pp12_6_s3:1 vs_60_12:A 1.000000e-03
*END

*D_NET pgm_pp12_7_s3 6.452456e-03
*CONN
*I lt_pp12_7_s3:Z O
*I vs_61_12:A I
*CAP
1 pgm_pp12_7_s3:1 6.452456e-03
*RES
1 lt_pp12_7_s3:Z pgm_pp12_7_s3:1 7.322131e+00
2 pgm_pp12_7_s3:1 vs_61_12:A 1.000000e-03
*END

*D_NET pgm_pp12_8_s2 1.447803e-02
*CONN
*I lt_pp12_8_s2:Z O
*I vs_32_12:A I
*CAP
1 pgm_pp12_8_s2:1 1.447803e-02
*RES
1 lt_pp12_8_s2:Z pgm_pp12_8_s2:1 1.642941e+01
2 pgm_pp12_8_s2:1 vs_32_12:A 1.000000e-03
*END

*D_NET pgm_pp12_8_s3 9.652020e-03
*CONN
*I lt_pp12_8_s3:Z O
*I vs_62_12:A I
*I vs_57_12:A I
*CAP
1 pgm_pp12_8_s3:1 9.652020e-03
*RES
1 lt_pp12_8_s3:Z pgm_pp12_8_s3:1 1.095294e+01
2 pgm_pp12_8_s3:1 vs_62_12:A 1.000000e-03
3 pgm_pp12_8_s3:1 vs_57_12:A 1.000000e-03
*END

*D_NET pgm_pp12_9_s0 4.983026e-03
*CONN
*I lt_pp12_9_s0:Z O
*I vs_14_12:A I
*CAP
1 pgm_pp12_9_s0:1 4.983026e-03
*RES
1 lt_pp12_9_s0:Z pgm_pp12_9_s0:1 5.654649e+00
2 pgm_pp12_9_s0:1 vs_14_12:A 1.000000e-03
*END

*D_NET pgm_pp13_0_s0 1.871449e-02
*CONN
*I lt_pp13_0_s0:Z O
*I vs_10_13:A I
*I vs_1_13:A I
*CAP
1 pgm_pp13_0_s0:1 1.871449e-02
*RES
1 lt_pp13_0_s0:Z pgm_pp13_0_s0:1 2.123687e+01
2 pgm_pp13_0_s0:1 vs_10_13:A 1.000000e-03
3 pgm_pp13_0_s0:1 vs_1_13:A 1.000000e-03
*END

*D_NET pgm_pp13_0_s1 2.070829e-02
*CONN
*I lt_pp13_0_s1:Z O
*I vs_30_13:A I
*CAP
1 pgm_pp13_0_s1:1 2.070829e-02
*RES
1 lt_pp13_0_s1:Z pgm_pp13_0_s1:1 2.349940e+01
2 pgm_pp13_0_s1:1 vs_30_13:A 1.000000e-03
*END

*D_NET pgm_pp13_0_s2 1.518373e-02
*CONN
*I lt_pp13_0_s2:Z O
*I vs_42_13:A I
*CAP
1 pgm_pp13_0_s2:1 1.518373e-02
*RES
1 lt_pp13_0_s2:Z pgm_pp13_0_s2:1 1.551407e+01
2 pgm_pp13_0_s2:1 vs_42_13:A 1.000000e-03
*END

*D_NET pgm_pp13_10_s0 1.789386e-02
*CONN
*I lt_pp13_10_s0:Z O
*I vs_0_13:A I
*CAP
1 pgm_pp13_10_s0:1 1.789386e-02
*RES
1 lt_pp13_10_s0:Z pgm_pp13_10_s0:1 2.030563e+01
2 pgm_pp13_10_s0:1 vs_0_13:A 1.000000e-03
*END

*D_NET pgm_pp13_10_s2 8.161853e-03
*CONN
*I lt_pp13_10_s2:Z O
*I vs_39_13:A I
*CAP
1 pgm_pp13_10_s2:1 8.161853e-03
*RES
1 lt_pp13_10_s2:Z pgm_pp13_10_s2:1 9.261924e+00
2 pgm_pp13_10_s2:1 vs_39_13:A 1.000000e-03
*END

*D_NET pgm_pp13_11_s2 2.168594e-03
*CONN
*I lt_pp13_11_s2:Z O
*I vs_46_13:A I
*CAP
1 pgm_pp13_11_s2:1 2.168594e-03
*RES
1 lt_pp13_11_s2:Z pgm_pp13_11_s2:1 2.460882e+00
2 pgm_pp13_11_s2:1 vs_46_13:A 1.000000e-03
*END

*D_NET pgm_pp13_12_s2 1.978162e-02
*CONN
*I lt_pp13_12_s2:Z O
*I vs_33_13:A I
*CAP
1 pgm_pp13_12_s2:1 1.978162e-02
*RES
1 lt_pp13_12_s2:Z pgm_pp13_12_s2:1 2.073168e+01
2 pgm_pp13_12_s2:1 vs_33_13:A 1.000000e-03
*END

*D_NET pgm_pp13_12_s3 9.210599e-03
*CONN
*I lt_pp13_12_s3:Z O
*I vs_57_13:A I
*CAP
1 pgm_pp13_12_s3:1 9.210599e-03
*RES
1 lt_pp13_12_s3:Z pgm_pp13_12_s3:1 1.045202e+01
2 pgm_pp13_12_s3:1 vs_57_13:A 1.000000e-03
*END

*D_NET pgm_pp13_1_s1 1.499055e-03
*CONN
*I lt_pp13_1_s1:Z O
*I vs_17_13:A I
*CAP
1 pgm_pp13_1_s1:1 1.499055e-03
*RES
1 lt_pp13_1_s1:Z pgm_pp13_1_s1:1 1.701101e+00
2 pgm_pp13_1_s1:1 vs_17_13:A 1.000000e-03
*END

*D_NET pgm_pp13_1_s2 8.131204e-03
*CONN
*I lt_pp13_1_s2:Z O
*I vs_38_13:A I
*CAP
1 pgm_pp13_1_s2:1 8.131204e-03
*RES
1 lt_pp13_1_s2:Z pgm_pp13_1_s2:1 7.942930e+00
2 pgm_pp13_1_s2:1 vs_38_13:A 1.000000e-03
*END

*D_NET pgm_pp13_2_s1 2.071422e-02
*CONN
*I lt_pp13_2_s1:Z O
*I vs_31_13:A I
*I vs_27_13:A I
*CAP
1 pgm_pp13_2_s1:1 2.071422e-02
*RES
1 lt_pp13_2_s1:Z pgm_pp13_2_s1:1 2.350613e+01
2 pgm_pp13_2_s1:1 vs_31_13:A 1.000000e-03
3 pgm_pp13_2_s1:1 vs_27_13:A 1.000000e-03
*END

*D_NET pgm_pp13_3_s1 4.141659e-03
*CONN
*I lt_pp13_3_s1:Z O
*I vs_21_13:A I
*CAP
1 pgm_pp13_3_s1:1 4.141659e-03
*RES
1 lt_pp13_3_s1:Z pgm_pp13_3_s1:1 4.699880e+00
2 pgm_pp13_3_s1:1 vs_21_13:A 1.000000e-03
*END

*D_NET pgm_pp13_4_s0 2.156744e-03
*CONN
*I lt_pp13_4_s0:Z O
*I vs_6_13:A I
*CAP
1 pgm_pp13_4_s0:1 2.156744e-03
*RES
1 lt_pp13_4_s0:Z pgm_pp13_4_s0:1 2.447434e+00
2 pgm_pp13_4_s0:1 vs_6_13:A 1.000000e-03
*END

*D_NET pgm_pp13_4_s2 1.347226e-02
*CONN
*I lt_pp13_4_s2:Z O
*I vs_40_13:A I
*I vs_32_13:A I
*CAP
1 pgm_pp13_4_s2:1 1.347226e-02
*RES
1 lt_pp13_4_s2:Z pgm_pp13_4_s2:1 1.385988e+01
2 pgm_pp13_4_s2:1 vs_40_13:A 1.000000e-03
3 pgm_pp13_4_s2:1 vs_32_13:A 1.000000e-03
*END

*D_NET pgm_pp13_5_s0 2.082799e-02
*CONN
*I lt_pp13_5_s0:Z O
*I vs_14_13:A I
*I vs_2_13:A I
*CAP
1 pgm_pp13_5_s0:1 2.082799e-02
*RES
1 lt_pp13_5_s0:Z pgm_pp13_5_s0:1 2.307091e+01
2 pgm_pp13_5_s0:1 vs_14_13:A 1.000000e-03
3 pgm_pp13_5_s0:1 vs_2_13:A 1.000000e-03
*END

*D_NET pgm_pp13_5_s1 9.098022e-03
*CONN
*I lt_pp13_5_s1:Z O
*I vs_28_13:A I
*CAP
1 pgm_pp13_5_s1:1 9.098022e-03
*RES
1 lt_pp13_5_s1:Z pgm_pp13_5_s1:1 1.032427e+01
2 pgm_pp13_5_s1:1 vs_28_13:A 1.000000e-03
*END

*D_NET pgm_pp13_5_s2 4.301637e-03
*CONN
*I lt_pp13_5_s2:Z O
*I vs_35_13:A I
*CAP
1 pgm_pp13_5_s2:1 4.301637e-03
*RES
1 lt_pp13_5_s2:Z pgm_pp13_5_s2:1 4.881421e+00
2 pgm_pp13_5_s2:1 vs_35_13:A 1.000000e-03
*END

*D_NET pgm_pp13_6_s2 8.262580e-03
*CONN
*I lt_pp13_6_s2:Z O
*I vs_36_13:A I
*I vs_34_13:A I
*CAP
1 pgm_pp13_6_s2:1 8.262580e-03
*RES
1 lt_pp13_6_s2:Z pgm_pp13_6_s2:1 9.376228e+00
2 pgm_pp13_6_s2:1 vs_36_13:A 1.000000e-03
3 pgm_pp13_6_s2:1 vs_34_13:A 1.000000e-03
*END

*D_NET pgm_pp13_7_s0 4.343113e-03
*CONN
*I lt_pp13_7_s0:Z O
*I vs_11_13:A I
*CAP
1 pgm_pp13_7_s0:1 4.343113e-03
*RES
1 lt_pp13_7_s0:Z pgm_pp13_7_s0:1 4.928487e+00
2 pgm_pp13_7_s0:1 vs_11_13:A 1.000000e-03
*END

*D_NET pgm_pp13_7_s3 3.955018e-03
*CONN
*I lt_pp13_7_s3:Z O
*I vs_54_13:A I
*CAP
1 pgm_pp13_7_s3:1 3.955018e-03
*RES
1 lt_pp13_7_s3:Z pgm_pp13_7_s3:1 4.488083e+00
2 pgm_pp13_7_s3:1 vs_54_13:A 1.000000e-03
*END

*D_NET pgm_pp13_8_s0 1.058523e-02
*CONN
*I lt_pp13_8_s0:Z O
*I vs_3_13:A I
*CAP
1 pgm_pp13_8_s0:1 1.058523e-02
*RES
1 lt_pp13_8_s0:Z pgm_pp13_8_s0:1 1.201193e+01
2 pgm_pp13_8_s0:1 vs_3_13:A 1.000000e-03
*END

*D_NET pgm_pp13_8_s1 1.959733e-02
*CONN
*I lt_pp13_8_s1:Z O
*I vs_29_13:A I
*I vs_24_13:A I
*I vs_16_13:A I
*CAP
1 pgm_pp13_8_s1:1 1.959733e-02
*RES
1 lt_pp13_8_s1:Z pgm_pp13_8_s1:1 2.223870e+01
2 pgm_pp13_8_s1:1 vs_29_13:A 1.000000e-03
3 pgm_pp13_8_s1:1 vs_24_13:A 1.000000e-03
4 pgm_pp13_8_s1:1 vs_16_13:A 1.000000e-03
*END

*D_NET pgm_pp13_8_s3 1.075409e-02
*CONN
*I lt_pp13_8_s3:Z O
*I vs_50_13:A I
*CAP
1 pgm_pp13_8_s3:1 1.075409e-02
*RES
1 lt_pp13_8_s3:Z pgm_pp13_8_s3:1 1.220355e+01
2 pgm_pp13_8_s3:1 vs_50_13:A 1.000000e-03
*END

*D_NET pgm_pp13_9_s0 3.780227e-03
*CONN
*I lt_pp13_9_s0:Z O
*I vs_9_13:A I
*CAP
1 pgm_pp13_9_s0:1 3.780227e-03
*RES
1 lt_pp13_9_s0:Z pgm_pp13_9_s0:1 4.289733e+00
2 pgm_pp13_9_s0:1 vs_9_13:A 1.000000e-03
*END

*D_NET pgm_pp13_9_s1 4.598199e-03
*CONN
*I lt_pp13_9_s1:Z O
*I vs_25_13:A I
*CAP
1 pgm_pp13_9_s1:1 4.598199e-03
*RES
1 lt_pp13_9_s1:Z pgm_pp13_9_s1:1 4.365677e+00
2 pgm_pp13_9_s1:1 vs_25_13:A 1.000000e-03
*END

*D_NET pgm_pp13_9_s3 2.076755e-03
*CONN
*I lt_pp13_9_s3:Z O
*I vs_58_13:A I
*CAP
1 pgm_pp13_9_s3:1 2.076755e-03
*RES
1 lt_pp13_9_s3:Z pgm_pp13_9_s3:1 2.356664e+00
2 pgm_pp13_9_s3:1 vs_58_13:A 1.000000e-03
*END

*D_NET pgm_pp14_0_s0 1.921281e-02
*CONN
*I lt_pp14_0_s0:Z O
*I vs_13_14:A I
*CAP
1 pgm_pp14_0_s0:1 1.921281e-02
*RES
1 lt_pp14_0_s0:Z pgm_pp14_0_s0:1 2.008620e+01
2 pgm_pp14_0_s0:1 vs_13_14:A 1.000000e-03
*END

*D_NET pgm_pp14_0_s1 1.288094e-02
*CONN
*I lt_pp14_0_s1:Z O
*I vs_23_14:A I
*I vs_20_14:A I
*CAP
1 pgm_pp14_0_s1:1 1.288094e-02
*RES
1 lt_pp14_0_s1:Z pgm_pp14_0_s1:1 1.261294e+01
2 pgm_pp14_0_s1:1 vs_23_14:A 1.000000e-03
3 pgm_pp14_0_s1:1 vs_20_14:A 1.000000e-03
*END

*D_NET pgm_pp14_11_s3 1.747910e-02
*CONN
*I lt_pp14_11_s3:Z O
*I vs_49_14:A I
*CAP
1 pgm_pp14_11_s3:1 1.747910e-02
*RES
1 lt_pp14_11_s3:Z pgm_pp14_11_s3:1 1.983497e+01
2 pgm_pp14_11_s3:1 vs_49_14:A 1.000000e-03
*END

*D_NET pgm_pp14_12_s1 4.908962e-03
*CONN
*I lt_pp14_12_s1:Z O
*I vs_28_14:A I
*CAP
1 pgm_pp14_12_s1:1 4.908962e-03
*RES
1 lt_pp14_12_s1:Z pgm_pp14_12_s1:1 5.570602e+00
2 pgm_pp14_12_s1:1 vs_28_14:A 1.000000e-03
*END

*D_NET pgm_pp14_1_s0 2.559515e-03
*CONN
*I lt_pp14_1_s0:Z O
*I vs_2_14:A I
*CAP
1 pgm_pp14_1_s0:1 2.559515e-03
*RES
1 lt_pp14_1_s0:Z pgm_pp14_1_s0:1 1.908235e+00
2 pgm_pp14_1_s0:1 vs_2_14:A 1.000000e-03
*END

*D_NET pgm_pp14_1_s2 8.787564e-03
*CONN
*I lt_pp14_1_s2:Z O
*I vs_38_14:A I
*CAP
1 pgm_pp14_1_s2:1 8.787564e-03
*RES
1 lt_pp14_1_s2:Z pgm_pp14_1_s2:1 8.255817e+00
2 pgm_pp14_1_s2:1 vs_38_14:A 1.000000e-03
*END

*D_NET pgm_pp14_2_s1 5.913132e-03
*CONN
*I lt_pp14_2_s1:Z O
*I vs_22_14:A I
*CAP
1 pgm_pp14_2_s1:1 5.913132e-03
*RES
1 lt_pp14_2_s1:Z pgm_pp14_2_s1:1 5.713861e+00
2 pgm_pp14_2_s1:1 vs_22_14:A 1.000000e-03
*END

*D_NET pgm_pp14_3_s0 4.215586e-03
*CONN
*I lt_pp14_3_s0:Z O
*I vs_6_14:A I
*CAP
1 pgm_pp14_3_s0:1 4.215586e-03
*RES
1 lt_pp14_3_s0:Z pgm_pp14_3_s0:1 3.787515e+00
2 pgm_pp14_3_s0:1 vs_6_14:A 1.000000e-03
*END

*D_NET pgm_pp14_3_s2 1.702273e-02
*CONN
*I lt_pp14_3_s2:Z O
*I vs_45_14:A I
*I vs_36_14:A I
*I vs_35_14:A I
*CAP
1 pgm_pp14_3_s2:1 1.702273e-02
*RES
1 lt_pp14_3_s2:Z pgm_pp14_3_s2:1 1.832084e+01
2 pgm_pp14_3_s2:1 vs_45_14:A 1.000000e-03
3 pgm_pp14_3_s2:1 vs_36_14:A 1.000000e-03
4 pgm_pp14_3_s2:1 vs_35_14:A 1.000000e-03
*END

*D_NET pgm_pp14_4_s1 5.777298e-03
*CONN
*I lt_pp14_4_s1:Z O
*I vs_24_14:A I
*CAP
1 pgm_pp14_4_s1:1 5.777298e-03
*RES
1 lt_pp14_4_s1:Z pgm_pp14_4_s1:1 5.703697e+00
2 pgm_pp14_4_s1:1 vs_24_14:A 1.000000e-03
*END

*D_NET pgm_pp14_4_s3 4.580118e-03
*CONN
*I lt_pp14_4_s3:Z O
*I vs_50_14:A I
*CAP
1 pgm_pp14_4_s3:1 4.580118e-03
*RES
1 lt_pp14_4_s3:Z pgm_pp14_4_s3:1 5.197436e+00
2 pgm_pp14_4_s3:1 vs_50_14:A 1.000000e-03
*END

*D_NET pgm_pp14_5_s0 2.690004e-03
*CONN
*I lt_pp14_5_s0:Z O
*I vs_4_14:A I
*CAP
1 pgm_pp14_5_s0:1 2.690004e-03
*RES
1 lt_pp14_5_s0:Z pgm_pp14_5_s0:1 3.052569e+00
2 pgm_pp14_5_s0:1 vs_4_14:A 1.000000e-03
*END

*D_NET pgm_pp14_5_s1 1.265013e-02
*CONN
*I lt_pp14_5_s1:Z O
*I vs_30_14:A I
*CAP
1 pgm_pp14_5_s1:1 1.265013e-02
*RES
1 lt_pp14_5_s1:Z pgm_pp14_5_s1:1 1.435514e+01
2 pgm_pp14_5_s1:1 vs_30_14:A 1.000000e-03
*END

*D_NET pgm_pp14_5_s2 8.706964e-03
*CONN
*I lt_pp14_5_s2:Z O
*I vs_33_14:A I
*CAP
1 pgm_pp14_5_s2:1 8.706964e-03
*RES
1 lt_pp14_5_s2:Z pgm_pp14_5_s2:1 9.880507e+00
2 pgm_pp14_5_s2:1 vs_33_14:A 1.000000e-03
*END

*D_NET pgm_pp14_5_s3 4.251274e-03
*CONN
*I lt_pp14_5_s3:Z O
*I vs_57_14:A I
*CAP
1 pgm_pp14_5_s3:1 4.251274e-03
*RES
1 lt_pp14_5_s3:Z pgm_pp14_5_s3:1 4.824269e+00
2 pgm_pp14_5_s3:1 vs_57_14:A 1.000000e-03
*END

*D_NET pgm_pp14_6_s2 1.414254e-02
*CONN
*I lt_pp14_6_s2:Z O
*I vs_32_14:A I
*CAP
1 pgm_pp14_6_s2:1 1.414254e-02
*RES
1 lt_pp14_6_s2:Z pgm_pp14_6_s2:1 1.390061e+01
2 pgm_pp14_6_s2:1 vs_32_14:A 1.000000e-03
*END

*D_NET pgm_pp14_7_s1 1.028008e-03
*CONN
*I lt_pp14_7_s1:Z O
*I vs_25_14:A I
*CAP
1 pgm_pp14_7_s1:1 1.028008e-03
*RES
1 lt_pp14_7_s1:Z pgm_pp14_7_s1:1 1.166565e+00
2 pgm_pp14_7_s1:1 vs_25_14:A 1.000000e-03
*END

*D_NET pgm_pp14_7_s3 4.704545e-03
*CONN
*I lt_pp14_7_s3:Z O
*I vs_53_14:A I
*CAP
1 pgm_pp14_7_s3:1 4.704545e-03
*RES
1 lt_pp14_7_s3:Z pgm_pp14_7_s3:1 5.338634e+00
2 pgm_pp14_7_s3:1 vs_53_14:A 1.000000e-03
*END

*D_NET pgm_pp14_8_s0 1.040897e-02
*CONN
*I lt_pp14_8_s0:Z O
*I vs_15_14:A I
*CAP
1 pgm_pp14_8_s0:1 1.040897e-02
*RES
1 lt_pp14_8_s0:Z pgm_pp14_8_s0:1 1.038372e+01
2 pgm_pp14_8_s0:1 vs_15_14:A 1.000000e-03
*END

*D_NET pgm_pp14_8_s3 1.211452e-02
*CONN
*I lt_pp14_8_s3:Z O
*I vs_51_14:A I
*CAP
1 pgm_pp14_8_s3:1 1.211452e-02
*RES
1 lt_pp14_8_s3:Z pgm_pp14_8_s3:1 1.203119e+01
2 pgm_pp14_8_s3:1 vs_51_14:A 1.000000e-03
*END

*D_NET pgm_pp14_9_s3 2.053802e-03
*CONN
*I lt_pp14_9_s3:Z O
*I vs_58_14:A I
*CAP
1 pgm_pp14_9_s3:1 2.053802e-03
*RES
1 lt_pp14_9_s3:Z pgm_pp14_9_s3:1 1.622321e+00
2 pgm_pp14_9_s3:1 vs_58_14:A 1.000000e-03
*END

*D_NET pgm_pp15_0_s1 1.991082e-02
*CONN
*I lt_pp15_0_s1:Z O
*I vs_27_15:A I
*I vs_24_15:A I
*I vs_20_15:A I
*CAP
1 pgm_pp15_0_s1:1 1.991082e-02
*RES
1 lt_pp15_0_s1:Z pgm_pp15_0_s1:1 1.858621e+01
2 pgm_pp15_0_s1:1 vs_27_15:A 1.000000e-03
3 pgm_pp15_0_s1:1 vs_24_15:A 1.000000e-03
4 pgm_pp15_0_s1:1 vs_20_15:A 1.000000e-03
*END

*D_NET pgm_pp15_0_s3 1.916245e-02
*CONN
*I lt_pp15_0_s3:Z O
*I vs_61_15:A I
*CAP
1 pgm_pp15_0_s3:1 1.916245e-02
*RES
1 lt_pp15_0_s3:Z pgm_pp15_0_s3:1 2.002905e+01
2 pgm_pp15_0_s3:1 vs_61_15:A 1.000000e-03
*END

*D_NET pgm_pp15_10_s0 5.119304e-03
*CONN
*I lt_pp15_10_s0:Z O
*I vs_11_15:A I
*I vs_9_15:A I
*CAP
1 pgm_pp15_10_s0:1 5.119304e-03
*RES
1 lt_pp15_10_s0:Z pgm_pp15_10_s0:1 5.809294e+00
2 pgm_pp15_10_s0:1 vs_11_15:A 1.000000e-03
3 pgm_pp15_10_s0:1 vs_9_15:A 1.000000e-03
*END

*D_NET pgm_pp15_10_s1 2.141351e-03
*CONN
*I lt_pp15_10_s1:Z O
*I vs_28_15:A I
*CAP
1 pgm_pp15_10_s1:1 2.141351e-03
*RES
1 lt_pp15_10_s1:Z pgm_pp15_10_s1:1 1.289731e+00
2 pgm_pp15_10_s1:1 vs_28_15:A 1.000000e-03
*END

*D_NET pgm_pp15_11_s2 2.032316e-03
*CONN
*I lt_pp15_11_s2:Z O
*I vs_46_15:A I
*CAP
1 pgm_pp15_11_s2:1 2.032316e-03
*RES
1 lt_pp15_11_s2:Z pgm_pp15_11_s2:1 2.306236e+00
2 pgm_pp15_11_s2:1 vs_46_15:A 1.000000e-03
*END

*D_NET pgm_pp15_11_s3 1.645215e-02
*CONN
*I lt_pp15_11_s3:Z O
*I vs_51_15:A I
*CAP
1 pgm_pp15_11_s3:1 1.645215e-02
*RES
1 lt_pp15_11_s3:Z pgm_pp15_11_s3:1 1.709743e+01
2 pgm_pp15_11_s3:1 vs_51_15:A 1.000000e-03
*END

*D_NET pgm_pp15_1_s0 1.175176e-02
*CONN
*I lt_pp15_1_s0:Z O
*I vs_8_15:A I
*CAP
1 pgm_pp15_1_s0:1 1.175176e-02
*RES
1 lt_pp15_1_s0:Z pgm_pp15_1_s0:1 1.118759e+01
2 pgm_pp15_1_s0:1 vs_8_15:A 1.000000e-03
*END

*D_NET pgm_pp15_1_s1 1.721247e-02
*CONN
*I lt_pp15_1_s1:Z O
*I vs_29_15:A I
*CAP
1 pgm_pp15_1_s1:1 1.721247e-02
*RES
1 lt_pp15_1_s1:Z pgm_pp15_1_s1:1 1.953241e+01
2 pgm_pp15_1_s1:1 vs_29_15:A 1.000000e-03
*END

*D_NET pgm_pp15_1_s2 3.246966e-03
*CONN
*I lt_pp15_1_s2:Z O
*I vs_33_15:A I
*I vs_32_15:A I
*CAP
1 pgm_pp15_1_s2:1 3.246966e-03
*RES
1 lt_pp15_1_s2:Z pgm_pp15_1_s2:1 3.684599e+00
2 pgm_pp15_1_s2:1 vs_33_15:A 1.000000e-03
3 pgm_pp15_1_s2:1 vs_32_15:A 1.000000e-03
*END

*D_NET pgm_pp15_2_s0 1.672944e-02
*CONN
*I lt_pp15_2_s0:Z O
*I vs_13_15:A I
*I vs_10_15:A I
*I vs_5_15:A I
*CAP
1 pgm_pp15_2_s0:1 1.672944e-02
*RES
1 lt_pp15_2_s0:Z pgm_pp15_2_s0:1 1.798801e+01
2 pgm_pp15_2_s0:1 vs_13_15:A 1.000000e-03
3 pgm_pp15_2_s0:1 vs_10_15:A 1.000000e-03
4 pgm_pp15_2_s0:1 vs_5_15:A 1.000000e-03
*END

*D_NET pgm_pp15_2_s3 4.500129e-03
*CONN
*I lt_pp15_2_s3:Z O
*I vs_48_15:A I
*CAP
1 pgm_pp15_2_s3:1 4.500129e-03
*RES
1 lt_pp15_2_s3:Z pgm_pp15_2_s3:1 5.106665e+00
2 pgm_pp15_2_s3:1 vs_48_15:A 1.000000e-03
*END

*D_NET pgm_pp15_3_s1 6.796113e-03
*CONN
*I lt_pp15_3_s1:Z O
*I vs_23_15:A I
*CAP
1 pgm_pp15_3_s1:1 6.796113e-03
*RES
1 lt_pp15_3_s1:Z pgm_pp15_3_s1:1 7.712107e+00
2 pgm_pp15_3_s1:1 vs_23_15:A 1.000000e-03
*END

*D_NET pgm_pp15_4_s2 1.839750e-03
*CONN
*I lt_pp15_4_s2:Z O
*I vs_36_15:A I
*CAP
1 pgm_pp15_4_s2:1 1.839750e-03
*RES
1 lt_pp15_4_s2:Z pgm_pp15_4_s2:1 2.087715e+00
2 pgm_pp15_4_s2:1 vs_36_15:A 1.000000e-03
*END

*D_NET pgm_pp15_5_s1 4.088333e-04
*CONN
*I lt_pp15_5_s1:Z O
*I vs_22_15:A I
*CAP
1 pgm_pp15_5_s1:1 4.088333e-04
*RES
1 lt_pp15_5_s1:Z pgm_pp15_5_s1:1 4.639367e-01
2 pgm_pp15_5_s1:1 vs_22_15:A 1.000000e-03
*END

*D_NET pgm_pp15_5_s2 8.105564e-03
*CONN
*I lt_pp15_5_s2:Z O
*I vs_43_15:A I
*I vs_40_15:A I
*CAP
1 pgm_pp15_5_s2:1 8.105564e-03
*RES
1 lt_pp15_5_s2:Z pgm_pp15_5_s2:1 9.198049e+00
2 pgm_pp15_5_s2:1 vs_43_15:A 1.000000e-03
3 pgm_pp15_5_s2:1 vs_40_15:A 1.000000e-03
*END

*D_NET pgm_pp15_6_s0 1.103850e-02
*CONN
*I lt_pp15_6_s0:Z O
*I vs_7_15:A I
*I vs_0_15:A I
*CAP
1 pgm_pp15_6_s0:1 1.103850e-02
*RES
1 lt_pp15_6_s0:Z pgm_pp15_6_s0:1 1.252629e+01
2 pgm_pp15_6_s0:1 vs_7_15:A 1.000000e-03
3 pgm_pp15_6_s0:1 vs_0_15:A 1.000000e-03
*END

*D_NET pgm_pp15_6_s1 1.117478e-02
*CONN
*I lt_pp15_6_s1:Z O
*I vs_30_15:A I
*CAP
1 pgm_pp15_6_s1:1 1.117478e-02
*RES
1 lt_pp15_6_s1:Z pgm_pp15_6_s1:1 1.268094e+01
2 pgm_pp15_6_s1:1 vs_30_15:A 1.000000e-03
*END

*D_NET pgm_pp15_6_s3 1.217020e-02
*CONN
*I lt_pp15_6_s3:Z O
*I vs_63_15:A I
*I vs_57_15:A I
*CAP
1 pgm_pp15_6_s3:1 1.217020e-02
*RES
1 lt_pp15_6_s3:Z pgm_pp15_6_s3:1 1.381052e+01
2 pgm_pp15_6_s3:1 vs_63_15:A 1.000000e-03
3 pgm_pp15_6_s3:1 vs_57_15:A 1.000000e-03
*END

*D_NET pgm_pp15_7_s0 1.171396e-02
*CONN
*I lt_pp15_7_s0:Z O
*I vs_1_15:A I
*CAP
1 pgm_pp15_7_s0:1 1.171396e-02
*RES
1 lt_pp15_7_s0:Z pgm_pp15_7_s0:1 1.329279e+01
2 pgm_pp15_7_s0:1 vs_1_15:A 1.000000e-03
*END

*D_NET pgm_pp15_7_s3 4.431783e-03
*CONN
*I lt_pp15_7_s3:Z O
*I vs_59_15:A I
*CAP
1 pgm_pp15_7_s3:1 4.431783e-03
*RES
1 lt_pp15_7_s3:Z pgm_pp15_7_s3:1 3.256616e+00
2 pgm_pp15_7_s3:1 vs_59_15:A 1.000000e-03
*END

*D_NET pgm_pp15_8_s3 3.581735e-03
*CONN
*I lt_pp15_8_s3:Z O
*I vs_60_15:A I
*CAP
1 pgm_pp15_8_s3:1 3.581735e-03
*RES
1 lt_pp15_8_s3:Z pgm_pp15_8_s3:1 4.064489e+00
2 pgm_pp15_8_s3:1 vs_60_15:A 1.000000e-03
*END

*D_NET pgm_pp15_9_s2 1.409528e-02
*CONN
*I lt_pp15_9_s2:Z O
*I vs_39_15:A I
*I vs_34_15:A I
*CAP
1 pgm_pp15_9_s2:1 1.409528e-02
*RES
1 lt_pp15_9_s2:Z pgm_pp15_9_s2:1 1.485484e+01
2 pgm_pp15_9_s2:1 vs_39_15:A 1.000000e-03
3 pgm_pp15_9_s2:1 vs_34_15:A 1.000000e-03
*END

*D_NET pgm_pp16_0_s2 2.488276e-03
*CONN
*I lt_pp16_0_s2:Z O
*I vs_32_16:A I
*CAP
1 pgm_pp16_0_s2:1 2.488276e-03
*RES
1 lt_pp16_0_s2:Z pgm_pp16_0_s2:1 8.195389e-01
2 pgm_pp16_0_s2:1 vs_32_16:A 1.000000e-03
*END

*D_NET pgm_pp16_10_s0 1.025625e-02
*CONN
*I lt_pp16_10_s0:Z O
*I vs_12_16:A I
*I vs_6_16:A I
*CAP
1 pgm_pp16_10_s0:1 1.025625e-02
*RES
1 lt_pp16_10_s0:Z pgm_pp16_10_s0:1 1.064235e+01
2 pgm_pp16_10_s0:1 vs_12_16:A 1.000000e-03
3 pgm_pp16_10_s0:1 vs_6_16:A 1.000000e-03
*END

*D_NET pgm_pp16_10_s2 1.457283e-02
*CONN
*I lt_pp16_10_s2:Z O
*I vs_34_16:A I
*CAP
1 pgm_pp16_10_s2:1 1.457283e-02
*RES
1 lt_pp16_10_s2:Z pgm_pp16_10_s2:1 1.653699e+01
2 pgm_pp16_10_s2:1 vs_34_16:A 1.000000e-03
*END

*D_NET pgm_pp16_11_s0 1.275532e-02
*CONN
*I lt_pp16_11_s0:Z O
*I vs_7_16:A I
*I vs_5_16:A I
*CAP
1 pgm_pp16_11_s0:1 1.275532e-02
*RES
1 lt_pp16_11_s0:Z pgm_pp16_11_s0:1 1.304631e+01
2 pgm_pp16_11_s0:1 vs_7_16:A 1.000000e-03
3 pgm_pp16_11_s0:1 vs_5_16:A 1.000000e-03
*END

*D_NET pgm_pp16_11_s3 4.324315e-03
*CONN
*I lt_pp16_11_s3:Z O
*I vs_61_16:A I
*I vs_60_16:A I
*CAP
1 pgm_pp16_11_s3:1 4.324315e-03
*RES
1 lt_pp16_11_s3:Z pgm_pp16_11_s3:1 3.622940e+00
2 pgm_pp16_11_s3:1 vs_61_16:A 1.000000e-03
3 pgm_pp16_11_s3:1 vs_60_16:A 1.000000e-03
*END

*D_NET pgm_pp16_12_s1 2.456573e-03
*CONN
*I lt_pp16_12_s1:Z O
*I vs_31_16:A I
*CAP
1 pgm_pp16_12_s1:1 2.456573e-03
*RES
1 lt_pp16_12_s1:Z pgm_pp16_12_s1:1 1.071522e+00
2 pgm_pp16_12_s1:1 vs_31_16:A 1.000000e-03
*END

*D_NET pgm_pp16_12_s2 1.561078e-02
*CONN
*I lt_pp16_12_s2:Z O
*I vs_37_16:A I
*I vs_36_16:A I
*CAP
1 pgm_pp16_12_s2:1 1.561078e-02
*RES
1 lt_pp16_12_s2:Z pgm_pp16_12_s2:1 1.614266e+01
2 pgm_pp16_12_s2:1 vs_37_16:A 1.000000e-03
3 pgm_pp16_12_s2:1 vs_36_16:A 1.000000e-03
*END

*D_NET pgm_pp16_1_s0 1.343034e-02
*CONN
*I lt_pp16_1_s0:Z O
*I vs_10_16:A I
*CAP
1 pgm_pp16_1_s0:1 1.343034e-02
*RES
1 lt_pp16_1_s0:Z pgm_pp16_1_s0:1 1.366833e+01
2 pgm_pp16_1_s0:1 vs_10_16:A 1.000000e-03
*END

*D_NET pgm_pp16_1_s1 1.060065e-02
*CONN
*I lt_pp16_1_s1:Z O
*I vs_23_16:A I
*CAP
1 pgm_pp16_1_s1:1 1.060065e-02
*RES
1 lt_pp16_1_s1:Z pgm_pp16_1_s1:1 1.031328e+01
2 pgm_pp16_1_s1:1 vs_23_16:A 1.000000e-03
*END

*D_NET pgm_pp16_1_s2 2.013505e-02
*CONN
*I lt_pp16_1_s2:Z O
*I vs_46_16:A I
*CAP
1 pgm_pp16_1_s2:1 2.013505e-02
*RES
1 lt_pp16_1_s2:Z pgm_pp16_1_s2:1 2.142070e+01
2 pgm_pp16_1_s2:1 vs_46_16:A 1.000000e-03
*END

*D_NET pgm_pp16_2_s1 9.214615e-03
*CONN
*I lt_pp16_2_s1:Z O
*I vs_24_16:A I
*CAP
1 pgm_pp16_2_s1:1 9.214615e-03
*RES
1 lt_pp16_2_s1:Z pgm_pp16_2_s1:1 8.884407e+00
2 pgm_pp16_2_s1:1 vs_24_16:A 1.000000e-03
*END

*D_NET pgm_pp16_2_s2 8.224067e-03
*CONN
*I lt_pp16_2_s2:Z O
*I vs_39_16:A I
*CAP
1 pgm_pp16_2_s2:1 8.224067e-03
*RES
1 lt_pp16_2_s2:Z pgm_pp16_2_s2:1 9.332523e+00
2 pgm_pp16_2_s2:1 vs_39_16:A 1.000000e-03
*END

*D_NET pgm_pp16_2_s3 1.044895e-02
*CONN
*I lt_pp16_2_s3:Z O
*I vs_57_16:A I
*I vs_55_16:A I
*CAP
1 pgm_pp16_2_s3:1 1.044895e-02
*RES
1 lt_pp16_2_s3:Z pgm_pp16_2_s3:1 1.185728e+01
2 pgm_pp16_2_s3:1 vs_57_16:A 1.000000e-03
3 pgm_pp16_2_s3:1 vs_55_16:A 1.000000e-03
*END

*D_NET pgm_pp16_3_s0 1.792654e-03
*CONN
*I lt_pp16_3_s0:Z O
*I vs_4_16:A I
*CAP
1 pgm_pp16_3_s0:1 1.792654e-03
*RES
1 lt_pp16_3_s0:Z pgm_pp16_3_s0:1 1.181995e+00
2 pgm_pp16_3_s0:1 vs_4_16:A 1.000000e-03
*END

*D_NET pgm_pp16_3_s2 1.594051e-02
*CONN
*I lt_pp16_3_s2:Z O
*I vs_45_16:A I
*I vs_40_16:A I
*CAP
1 pgm_pp16_3_s2:1 1.594051e-02
*RES
1 lt_pp16_3_s2:Z pgm_pp16_3_s2:1 1.680479e+01
2 pgm_pp16_3_s2:1 vs_45_16:A 1.000000e-03
3 pgm_pp16_3_s2:1 vs_40_16:A 1.000000e-03
*END

*D_NET pgm_pp16_4_s0 4.494204e-03
*CONN
*I lt_pp16_4_s0:Z O
*I vs_2_16:A I
*CAP
1 pgm_pp16_4_s0:1 4.494204e-03
*RES
1 lt_pp16_4_s0:Z pgm_pp16_4_s0:1 5.099942e+00
2 pgm_pp16_4_s0:1 vs_2_16:A 1.000000e-03
*END

*D_NET pgm_pp16_4_s2 3.235116e-03
*CONN
*I lt_pp16_4_s2:Z O
*I vs_35_16:A I
*CAP
1 pgm_pp16_4_s2:1 3.235116e-03
*RES
1 lt_pp16_4_s2:Z pgm_pp16_4_s2:1 3.671151e+00
2 pgm_pp16_4_s2:1 vs_35_16:A 1.000000e-03
*END

*D_NET pgm_pp16_5_s3 4.437915e-03
*CONN
*I lt_pp16_5_s3:Z O
*I vs_51_16:A I
*CAP
1 pgm_pp16_5_s3:1 4.437915e-03
*RES
1 lt_pp16_5_s3:Z pgm_pp16_5_s3:1 5.036066e+00
2 pgm_pp16_5_s3:1 vs_51_16:A 1.000000e-03
*END

*D_NET pgm_pp16_6_s0 5.868831e-03
*CONN
*I lt_pp16_6_s0:Z O
*I vs_11_16:A I
*CAP
1 pgm_pp16_6_s0:1 5.868831e-03
*RES
1 lt_pp16_6_s0:Z pgm_pp16_6_s0:1 6.659845e+00
2 pgm_pp16_6_s0:1 vs_11_16:A 1.000000e-03
*END

*D_NET pgm_pp16_6_s2 9.909763e-03
*CONN
*I lt_pp16_6_s2:Z O
*I vs_33_16:A I
*CAP
1 pgm_pp16_6_s2:1 9.909763e-03
*RES
1 lt_pp16_6_s2:Z pgm_pp16_6_s2:1 1.124542e+01
2 pgm_pp16_6_s2:1 vs_33_16:A 1.000000e-03
*END

*D_NET pgm_pp16_7_s0 9.928508e-03
*CONN
*I lt_pp16_7_s0:Z O
*I vs_15_16:A I
*CAP
1 pgm_pp16_7_s0:1 9.928508e-03
*RES
1 lt_pp16_7_s0:Z pgm_pp16_7_s0:1 1.063039e+01
2 pgm_pp16_7_s0:1 vs_15_16:A 1.000000e-03
*END

*D_NET pgm_pp16_7_s1 7.678956e-03
*CONN
*I lt_pp16_7_s1:Z O
*I vs_29_16:A I
*CAP
1 pgm_pp16_7_s1:1 7.678956e-03
*RES
1 lt_pp16_7_s1:Z pgm_pp16_7_s1:1 8.713941e+00
2 pgm_pp16_7_s1:1 vs_29_16:A 1.000000e-03
*END

*D_NET pgm_pp16_7_s3 1.368141e-02
*CONN
*I lt_pp16_7_s3:Z O
*I vs_48_16:A I
*CAP
1 pgm_pp16_7_s3:1 1.368141e-02
*RES
1 lt_pp16_7_s3:Z pgm_pp16_7_s3:1 1.467314e+01
2 pgm_pp16_7_s3:1 vs_48_16:A 1.000000e-03
*END

*D_NET pgm_pp16_8_s1 1.666219e-02
*CONN
*I lt_pp16_8_s1:Z O
*I vs_27_16:A I
*I vs_16_16:A I
*CAP
1 pgm_pp16_8_s1:1 1.666219e-02
*RES
1 lt_pp16_8_s1:Z pgm_pp16_8_s1:1 1.819965e+01
2 pgm_pp16_8_s1:1 vs_27_16:A 1.000000e-03
3 pgm_pp16_8_s1:1 vs_16_16:A 1.000000e-03
*END

*D_NET pgm_pp16_8_s2 2.373011e-03
*CONN
*I lt_pp16_8_s2:Z O
*I vs_42_16:A I
*I vs_41_16:A I
*CAP
1 pgm_pp16_8_s2:1 2.373011e-03
*RES
1 lt_pp16_8_s2:Z pgm_pp16_8_s2:1 2.692850e+00
2 pgm_pp16_8_s2:1 vs_42_16:A 1.000000e-03
3 pgm_pp16_8_s2:1 vs_41_16:A 1.000000e-03
*END

*D_NET pgm_pp16_9_s0 5.119304e-03
*CONN
*I lt_pp16_9_s0:Z O
*I vs_14_16:A I
*CAP
1 pgm_pp16_9_s0:1 5.119304e-03
*RES
1 lt_pp16_9_s0:Z pgm_pp16_9_s0:1 5.809294e+00
2 pgm_pp16_9_s0:1 vs_14_16:A 1.000000e-03
*END

*D_NET pgm_pp16_9_s1 7.723394e-03
*CONN
*I lt_pp16_9_s1:Z O
*I vs_22_16:A I
*CAP
1 pgm_pp16_9_s1:1 7.723394e-03
*RES
1 lt_pp16_9_s1:Z pgm_pp16_9_s1:1 8.764369e+00
2 pgm_pp16_9_s1:1 vs_22_16:A 1.000000e-03
*END

*D_NET pgm_pp17_0_s1 1.235953e-02
*CONN
*I lt_pp17_0_s1:Z O
*I vs_23_17:A I
*CAP
1 pgm_pp17_0_s1:1 1.235953e-02
*RES
1 lt_pp17_0_s1:Z pgm_pp17_0_s1:1 1.202126e+01
2 pgm_pp17_0_s1:1 vs_23_17:A 1.000000e-03
*END

*D_NET pgm_pp17_0_s2 1.258720e-02
*CONN
*I lt_pp17_0_s2:Z O
*I vs_39_17:A I
*CAP
1 pgm_pp17_0_s2:1 1.258720e-02
*RES
1 lt_pp17_0_s2:Z pgm_pp17_0_s2:1 1.213564e+01
2 pgm_pp17_0_s2:1 vs_39_17:A 1.000000e-03
*END

*D_NET pgm_pp17_10_s2 1.955586e-02
*CONN
*I lt_pp17_10_s2:Z O
*I vs_45_17:A I
*I vs_32_17:A I
*CAP
1 pgm_pp17_10_s2:1 1.955586e-02
*RES
1 lt_pp17_10_s2:Z pgm_pp17_10_s2:1 2.219164e+01
2 pgm_pp17_10_s2:1 vs_45_17:A 1.000000e-03
3 pgm_pp17_10_s2:1 vs_32_17:A 1.000000e-03
*END

*D_NET pgm_pp17_11_s0 1.169829e-02
*CONN
*I lt_pp17_11_s0:Z O
*I vs_9_17:A I
*I vs_6_17:A I
*CAP
1 pgm_pp17_11_s0:1 1.169829e-02
*RES
1 lt_pp17_11_s0:Z pgm_pp17_11_s0:1 9.029831e+00
2 pgm_pp17_11_s0:1 vs_9_17:A 1.000000e-03
3 pgm_pp17_11_s0:1 vs_6_17:A 1.000000e-03
*END

*D_NET pgm_pp17_11_s1 1.627038e-02
*CONN
*I lt_pp17_11_s1:Z O
*I vs_18_17:A I
*CAP
1 pgm_pp17_11_s1:1 1.627038e-02
*RES
1 lt_pp17_11_s1:Z pgm_pp17_11_s1:1 1.846334e+01
2 pgm_pp17_11_s1:1 vs_18_17:A 1.000000e-03
*END

*D_NET pgm_pp17_11_s2 7.047350e-03
*CONN
*I lt_pp17_11_s2:Z O
*I vs_41_17:A I
*CAP
1 pgm_pp17_11_s2:1 7.047350e-03
*RES
1 lt_pp17_11_s2:Z pgm_pp17_11_s2:1 6.856971e+00
2 pgm_pp17_11_s2:1 vs_41_17:A 1.000000e-03
*END

*D_NET pgm_pp17_12_s0 2.441149e-03
*CONN
*I lt_pp17_12_s0:Z O
*I vs_14_17:A I
*CAP
1 pgm_pp17_12_s0:1 2.441149e-03
*RES
1 lt_pp17_12_s0:Z pgm_pp17_12_s0:1 2.770173e+00
2 pgm_pp17_12_s0:1 vs_14_17:A 1.000000e-03
*END

*D_NET pgm_pp17_1_s2 1.962992e-02
*CONN
*I lt_pp17_1_s2:Z O
*I vs_47_17:A I
*CAP
1 pgm_pp17_1_s2:1 1.962992e-02
*RES
1 lt_pp17_1_s2:Z pgm_pp17_1_s2:1 2.227568e+01
2 pgm_pp17_1_s2:1 vs_47_17:A 1.000000e-03
*END

*D_NET pgm_pp17_1_s3 2.258967e-03
*CONN
*I lt_pp17_1_s3:Z O
*I vs_49_17:A I
*CAP
1 pgm_pp17_1_s3:1 2.258967e-03
*RES
1 lt_pp17_1_s3:Z pgm_pp17_1_s3:1 1.135242e+00
2 pgm_pp17_1_s3:1 vs_49_17:A 1.000000e-03
*END

*D_NET pgm_pp17_2_s2 1.088445e-02
*CONN
*I lt_pp17_2_s2:Z O
*I vs_40_17:A I
*I vs_34_17:A I
*CAP
1 pgm_pp17_2_s2:1 1.088445e-02
*RES
1 lt_pp17_2_s2:Z pgm_pp17_2_s2:1 1.235147e+01
2 pgm_pp17_2_s2:1 vs_40_17:A 1.000000e-03
3 pgm_pp17_2_s2:1 vs_34_17:A 1.000000e-03
*END

*D_NET pgm_pp17_2_s3 3.794016e-03
*CONN
*I lt_pp17_2_s3:Z O
*I vs_52_17:A I
*CAP
1 pgm_pp17_2_s3:1 3.794016e-03
*RES
1 lt_pp17_2_s3:Z pgm_pp17_2_s3:1 3.021167e+00
2 pgm_pp17_2_s3:1 vs_52_17:A 1.000000e-03
*END

*D_NET pgm_pp17_3_s1 3.984949e-03
*CONN
*I lt_pp17_3_s1:Z O
*I vs_21_17:A I
*CAP
1 pgm_pp17_3_s1:1 3.984949e-03
*RES
1 lt_pp17_3_s1:Z pgm_pp17_3_s1:1 3.669772e+00
2 pgm_pp17_3_s1:1 vs_21_17:A 1.000000e-03
*END

*D_NET pgm_pp17_3_s2 1.062374e-02
*CONN
*I lt_pp17_3_s2:Z O
*I vs_43_17:A I
*CAP
1 pgm_pp17_3_s2:1 1.062374e-02
*RES
1 lt_pp17_3_s2:Z pgm_pp17_3_s2:1 1.205563e+01
2 pgm_pp17_3_s2:1 vs_43_17:A 1.000000e-03
*END

*D_NET pgm_pp17_4_s0 8.126302e-03
*CONN
*I lt_pp17_4_s0:Z O
*I vs_10_17:A I
*I vs_8_17:A I
*CAP
1 pgm_pp17_4_s0:1 8.126302e-03
*RES
1 lt_pp17_4_s0:Z pgm_pp17_4_s0:1 9.221582e+00
2 pgm_pp17_4_s0:1 vs_10_17:A 1.000000e-03
3 pgm_pp17_4_s0:1 vs_8_17:A 1.000000e-03
*END

*D_NET pgm_pp17_4_s1 5.471848e-03
*CONN
*I lt_pp17_4_s1:Z O
*I vs_24_17:A I
*CAP
1 pgm_pp17_4_s1:1 5.471848e-03
*RES
1 lt_pp17_4_s1:Z pgm_pp17_4_s1:1 6.209355e+00
2 pgm_pp17_4_s1:1 vs_24_17:A 1.000000e-03
*END

*D_NET pgm_pp17_7_s1 1.044895e-02
*CONN
*I lt_pp17_7_s1:Z O
*I vs_31_17:A I
*CAP
1 pgm_pp17_7_s1:1 1.044895e-02
*RES
1 lt_pp17_7_s1:Z pgm_pp17_7_s1:1 1.185728e+01
2 pgm_pp17_7_s1:1 vs_31_17:A 1.000000e-03
*END

*D_NET pgm_pp17_8_s1 7.471576e-03
*CONN
*I lt_pp17_8_s1:Z O
*I vs_30_17:A I
*CAP
1 pgm_pp17_8_s1:1 7.471576e-03
*RES
1 lt_pp17_8_s1:Z pgm_pp17_8_s1:1 8.478611e+00
2 pgm_pp17_8_s1:1 vs_30_17:A 1.000000e-03
*END

*D_NET pgm_pp17_8_s3 2.423374e-03
*CONN
*I lt_pp17_8_s3:Z O
*I vs_57_17:A I
*I vs_56_17:A I
*CAP
1 pgm_pp17_8_s3:1 2.423374e-03
*RES
1 lt_pp17_8_s3:Z pgm_pp17_8_s3:1 2.750001e+00
2 pgm_pp17_8_s3:1 vs_57_17:A 1.000000e-03
3 pgm_pp17_8_s3:1 vs_56_17:A 1.000000e-03
*END

*D_NET pgm_pp17_9_s1 3.149201e-03
*CONN
*I lt_pp17_9_s1:Z O
*I vs_25_17:A I
*CAP
1 pgm_pp17_9_s1:1 3.149201e-03
*RES
1 lt_pp17_9_s1:Z pgm_pp17_9_s1:1 3.573657e+00
2 pgm_pp17_9_s1:1 vs_25_17:A 1.000000e-03
*END

*D_NET pgm_pp17_9_s3 1.683521e-02
*CONN
*I lt_pp17_9_s3:Z O
*I vs_48_17:A I
*CAP
1 pgm_pp17_9_s3:1 1.683521e-02
*RES
1 lt_pp17_9_s3:Z pgm_pp17_9_s3:1 1.782007e+01
2 pgm_pp17_9_s3:1 vs_48_17:A 1.000000e-03
*END

*D_NET pgm_pp18_0_s0 7.483595e-03
*CONN
*I lt_pp18_0_s0:Z O
*I vs_4_18:A I
*CAP
1 pgm_pp18_0_s0:1 7.483595e-03
*RES
1 lt_pp18_0_s0:Z pgm_pp18_0_s0:1 6.632117e+00
2 pgm_pp18_0_s0:1 vs_4_18:A 1.000000e-03
*END

*D_NET pgm_pp18_0_s2 1.171073e-02
*CONN
*I lt_pp18_0_s2:Z O
*I vs_39_18:A I
*I vs_37_18:A I
*CAP
1 pgm_pp18_0_s2:1 1.171073e-02
*RES
1 lt_pp18_0_s2:Z pgm_pp18_0_s2:1 1.128501e+01
2 pgm_pp18_0_s2:1 vs_39_18:A 1.000000e-03
3 pgm_pp18_0_s2:1 vs_37_18:A 1.000000e-03
*END

*D_NET pgm_pp18_0_s3 6.239151e-03
*CONN
*I lt_pp18_0_s3:Z O
*I vs_51_18:A I
*I vs_49_18:A I
*CAP
1 pgm_pp18_0_s3:1 6.239151e-03
*RES
1 lt_pp18_0_s3:Z pgm_pp18_0_s3:1 7.080077e+00
2 pgm_pp18_0_s3:1 vs_51_18:A 1.000000e-03
3 pgm_pp18_0_s3:1 vs_49_18:A 1.000000e-03
*END

*D_NET pgm_pp18_11_s1 1.708805e-02
*CONN
*I lt_pp18_11_s1:Z O
*I vs_29_18:A I
*I vs_21_18:A I
*I vs_18_18:A I
*CAP
1 pgm_pp18_11_s1:1 1.708805e-02
*RES
1 lt_pp18_11_s1:Z pgm_pp18_11_s1:1 1.939121e+01
2 pgm_pp18_11_s1:1 vs_29_18:A 1.000000e-03
3 pgm_pp18_11_s1:1 vs_21_18:A 1.000000e-03
4 pgm_pp18_11_s1:1 vs_18_18:A 1.000000e-03
*END

*D_NET pgm_pp18_11_s2 2.001209e-02
*CONN
*I lt_pp18_11_s2:Z O
*I vs_41_18:A I
*I vs_33_18:A I
*CAP
1 pgm_pp18_11_s2:1 2.001209e-02
*RES
1 lt_pp18_11_s2:Z pgm_pp18_11_s2:1 2.270936e+01
2 pgm_pp18_11_s2:1 vs_41_18:A 1.000000e-03
3 pgm_pp18_11_s2:1 vs_33_18:A 1.000000e-03
*END

*D_NET pgm_pp18_11_s3 1.398921e-02
*CONN
*I lt_pp18_11_s3:Z O
*I vs_52_18:A I
*CAP
1 pgm_pp18_11_s3:1 1.398921e-02
*RES
1 lt_pp18_11_s3:Z pgm_pp18_11_s3:1 1.587470e+01
2 pgm_pp18_11_s3:1 vs_52_18:A 1.000000e-03
*END

*D_NET pgm_pp18_12_s2 2.097346e-02
*CONN
*I lt_pp18_12_s2:Z O
*I vs_46_18:A I
*I vs_34_18:A I
*CAP
1 pgm_pp18_12_s2:1 2.097346e-02
*RES
1 lt_pp18_12_s2:Z pgm_pp18_12_s2:1 2.237211e+01
2 pgm_pp18_12_s2:1 vs_46_18:A 1.000000e-03
3 pgm_pp18_12_s2:1 vs_34_18:A 1.000000e-03
*END

*D_NET pgm_pp18_12_s3 1.404018e-02
*CONN
*I lt_pp18_12_s3:Z O
*I vs_54_18:A I
*CAP
1 pgm_pp18_12_s3:1 1.404018e-02
*RES
1 lt_pp18_12_s3:Z pgm_pp18_12_s3:1 1.421639e+01
2 pgm_pp18_12_s3:1 vs_54_18:A 1.000000e-03
*END

*D_NET pgm_pp18_1_s1 6.280795e-03
*CONN
*I lt_pp18_1_s1:Z O
*I vs_20_18:A I
*CAP
1 pgm_pp18_1_s1:1 6.280795e-03
*RES
1 lt_pp18_1_s1:Z pgm_pp18_1_s1:1 5.267202e+00
2 pgm_pp18_1_s1:1 vs_20_18:A 1.000000e-03
*END

*D_NET pgm_pp18_1_s3 3.161052e-03
*CONN
*I lt_pp18_1_s3:Z O
*I vs_48_18:A I
*CAP
1 pgm_pp18_1_s3:1 3.161052e-03
*RES
1 lt_pp18_1_s3:Z pgm_pp18_1_s3:1 3.587105e+00
2 pgm_pp18_1_s3:1 vs_48_18:A 1.000000e-03
*END

*D_NET pgm_pp18_2_s1 1.809828e-02
*CONN
*I lt_pp18_2_s1:Z O
*I vs_31_18:A I
*I vs_30_18:A I
*CAP
1 pgm_pp18_2_s1:1 1.809828e-02
*RES
1 lt_pp18_2_s1:Z pgm_pp18_2_s1:1 2.053760e+01
2 pgm_pp18_2_s1:1 vs_31_18:A 1.000000e-03
3 pgm_pp18_2_s1:1 vs_30_18:A 1.000000e-03
*END

*D_NET pgm_pp18_2_s3 2.072014e-02
*CONN
*I lt_pp18_2_s3:Z O
*I vs_63_18:A I
*I vs_53_18:A I
*CAP
1 pgm_pp18_2_s3:1 2.072014e-02
*RES
1 lt_pp18_2_s3:Z pgm_pp18_2_s3:1 2.351285e+01
2 pgm_pp18_2_s3:1 vs_63_18:A 1.000000e-03
3 pgm_pp18_2_s3:1 vs_53_18:A 1.000000e-03
*END

*D_NET pgm_pp18_3_s0 8.751402e-03
*CONN
*I lt_pp18_3_s0:Z O
*I vs_9_18:A I
*I vs_8_18:A I
*CAP
1 pgm_pp18_3_s0:1 8.751402e-03
*RES
1 lt_pp18_3_s0:Z pgm_pp18_3_s0:1 9.930934e+00
2 pgm_pp18_3_s0:1 vs_9_18:A 1.000000e-03
3 pgm_pp18_3_s0:1 vs_8_18:A 1.000000e-03
*END

*D_NET pgm_pp18_4_s0 1.686789e-02
*CONN
*I lt_pp18_4_s0:Z O
*I vs_15_18:A I
*CAP
1 pgm_pp18_4_s0:1 1.686789e-02
*RES
1 lt_pp18_4_s0:Z pgm_pp18_4_s0:1 1.467618e+01
2 pgm_pp18_4_s0:1 vs_15_18:A 1.000000e-03
*END

*D_NET pgm_pp18_4_s1 1.312710e-02
*CONN
*I lt_pp18_4_s1:Z O
*I vs_26_18:A I
*I vs_17_18:A I
*CAP
1 pgm_pp18_4_s1:1 1.312710e-02
*RES
1 lt_pp18_4_s1:Z pgm_pp18_4_s1:1 1.489640e+01
2 pgm_pp18_4_s1:1 vs_26_18:A 1.000000e-03
3 pgm_pp18_4_s1:1 vs_17_18:A 1.000000e-03
*END

*D_NET pgm_pp18_4_s2 5.279282e-03
*CONN
*I lt_pp18_4_s2:Z O
*I vs_40_18:A I
*CAP
1 pgm_pp18_4_s2:1 5.279282e-03
*RES
1 lt_pp18_4_s2:Z pgm_pp18_4_s2:1 5.990835e+00
2 pgm_pp18_4_s2:1 vs_40_18:A 1.000000e-03
*END

*D_NET pgm_pp18_4_s3 7.223027e-03
*CONN
*I lt_pp18_4_s3:Z O
*I vs_56_18:A I
*CAP
1 pgm_pp18_4_s3:1 7.223027e-03
*RES
1 lt_pp18_4_s3:Z pgm_pp18_4_s3:1 7.344285e+00
2 pgm_pp18_4_s3:1 vs_56_18:A 1.000000e-03
*END

*D_NET pgm_pp18_5_s0 2.725555e-04
*CONN
*I lt_pp18_5_s0:Z O
*I vs_6_18:A I
*CAP
1 pgm_pp18_5_s0:1 2.725555e-04
*RES
1 lt_pp18_5_s0:Z pgm_pp18_5_s0:1 3.092911e-01
2 pgm_pp18_5_s0:1 vs_6_18:A 1.000000e-03
*END

*D_NET pgm_pp18_5_s3 6.905727e-03
*CONN
*I lt_pp18_5_s3:Z O
*I vs_59_18:A I
*I vs_57_18:A I
*CAP
1 pgm_pp18_5_s3:1 6.905727e-03
*RES
1 lt_pp18_5_s3:Z pgm_pp18_5_s3:1 7.836496e+00
2 pgm_pp18_5_s3:1 vs_59_18:A 1.000000e-03
3 pgm_pp18_5_s3:1 vs_57_18:A 1.000000e-03
*END

*D_NET pgm_pp18_6_s1 2.503363e-03
*CONN
*I lt_pp18_6_s1:Z O
*I vs_25_18:A I
*CAP
1 pgm_pp18_6_s1:1 2.503363e-03
*RES
1 lt_pp18_6_s1:Z pgm_pp18_6_s1:1 2.840772e+00
2 pgm_pp18_6_s1:1 vs_25_18:A 1.000000e-03
*END

*D_NET pgm_pp18_6_s3 4.580118e-03
*CONN
*I lt_pp18_6_s3:Z O
*I vs_58_18:A I
*CAP
1 pgm_pp18_6_s3:1 4.580118e-03
*RES
1 lt_pp18_6_s3:Z pgm_pp18_6_s3:1 5.197436e+00
2 pgm_pp18_6_s3:1 vs_58_18:A 1.000000e-03
*END

*D_NET pgm_pp18_7_s2 1.041636e-02
*CONN
*I lt_pp18_7_s2:Z O
*I vs_35_18:A I
*CAP
1 pgm_pp18_7_s2:1 1.041636e-02
*RES
1 lt_pp18_7_s2:Z pgm_pp18_7_s2:1 1.182030e+01
2 pgm_pp18_7_s2:1 vs_35_18:A 1.000000e-03
*END

*D_NET pgm_pp18_7_s3 2.559652e-03
*CONN
*I lt_pp18_7_s3:Z O
*I vs_55_18:A I
*CAP
1 pgm_pp18_7_s3:1 2.559652e-03
*RES
1 lt_pp18_7_s3:Z pgm_pp18_7_s3:1 2.904647e+00
2 pgm_pp18_7_s3:1 vs_55_18:A 1.000000e-03
*END

*D_NET pgm_pp18_8_s2 5.880682e-03
*CONN
*I lt_pp18_8_s2:Z O
*I vs_45_18:A I
*I vs_42_18:A I
*CAP
1 pgm_pp18_8_s2:1 5.880682e-03
*RES
1 lt_pp18_8_s2:Z pgm_pp18_8_s2:1 6.673292e+00
2 pgm_pp18_8_s2:1 vs_45_18:A 1.000000e-03
3 pgm_pp18_8_s2:1 vs_42_18:A 1.000000e-03
*END

*D_NET pgm_pp18_9_s1 1.541420e-02
*CONN
*I lt_pp18_9_s1:Z O
*I vs_16_18:A I
*CAP
1 pgm_pp18_9_s1:1 1.541420e-02
*RES
1 lt_pp18_9_s1:Z pgm_pp18_9_s1:1 1.749176e+01
2 pgm_pp18_9_s1:1 vs_16_18:A 1.000000e-03
*END

*D_NET pgm_pp18_9_s3 1.389219e-02
*CONN
*I lt_pp18_9_s3:Z O
*I vs_50_18:A I
*CAP
1 pgm_pp18_9_s3:1 1.389219e-02
*RES
1 lt_pp18_9_s3:Z pgm_pp18_9_s3:1 1.505631e+01
2 pgm_pp18_9_s3:1 vs_50_18:A 1.000000e-03
*END

*D_NET pgm_pp19_0_s0 8.914511e-03
*CONN
*I lt_pp19_0_s0:Z O
*I vs_5_19:A I
*CAP
1 pgm_pp19_0_s0:1 8.914511e-03
*RES
1 lt_pp19_0_s0:Z pgm_pp19_0_s0:1 8.255895e+00
2 pgm_pp19_0_s0:1 vs_5_19:A 1.000000e-03
*END

*D_NET pgm_pp19_0_s2 4.612874e-03
*CONN
*I lt_pp19_0_s2:Z O
*I vs_34_19:A I
*CAP
1 pgm_pp19_0_s2:1 4.612874e-03
*RES
1 lt_pp19_0_s2:Z pgm_pp19_0_s2:1 3.374474e+00
2 pgm_pp19_0_s2:1 vs_34_19:A 1.000000e-03
*END

*D_NET pgm_pp19_11_s0 1.775166e-02
*CONN
*I lt_pp19_11_s0:Z O
*I vs_1_19:A I
*CAP
1 pgm_pp19_11_s0:1 1.775166e-02
*RES
1 lt_pp19_11_s0:Z pgm_pp19_11_s0:1 2.014427e+01
2 pgm_pp19_11_s0:1 vs_1_19:A 1.000000e-03
*END

*D_NET pgm_pp19_11_s3 9.878672e-03
*CONN
*I lt_pp19_11_s3:Z O
*I vs_55_19:A I
*CAP
1 pgm_pp19_11_s3:1 9.878672e-03
*RES
1 lt_pp19_11_s3:Z pgm_pp19_11_s3:1 9.781946e+00
2 pgm_pp19_11_s3:1 vs_55_19:A 1.000000e-03
*END

*D_NET pgm_pp19_12_s0 1.830862e-02
*CONN
*I lt_pp19_12_s0:Z O
*I vs_10_19:A I
*I vs_3_19:A I
*CAP
1 pgm_pp19_12_s0:1 1.830862e-02
*RES
1 lt_pp19_12_s0:Z pgm_pp19_12_s0:1 2.077629e+01
2 pgm_pp19_12_s0:1 vs_10_19:A 1.000000e-03
3 pgm_pp19_12_s0:1 vs_3_19:A 1.000000e-03
*END

*D_NET pgm_pp19_12_s3 1.936329e-02
*CONN
*I lt_pp19_12_s3:Z O
*I vs_49_19:A I
*CAP
1 pgm_pp19_12_s3:1 1.936329e-02
*RES
1 lt_pp19_12_s3:Z pgm_pp19_12_s3:1 2.197312e+01
2 pgm_pp19_12_s3:1 vs_49_19:A 1.000000e-03
*END

*D_NET pgm_pp19_1_s1 1.364112e-02
*CONN
*I lt_pp19_1_s1:Z O
*I vs_26_19:A I
*CAP
1 pgm_pp19_1_s1:1 1.364112e-02
*RES
1 lt_pp19_1_s1:Z pgm_pp19_1_s1:1 1.405151e+01
2 pgm_pp19_1_s1:1 vs_26_19:A 1.000000e-03
*END

*D_NET pgm_pp19_2_s0 8.644750e-03
*CONN
*I lt_pp19_2_s0:Z O
*I vs_8_19:A I
*CAP
1 pgm_pp19_2_s0:1 8.644750e-03
*RES
1 lt_pp19_2_s0:Z pgm_pp19_2_s0:1 9.809907e+00
2 pgm_pp19_2_s0:1 vs_8_19:A 1.000000e-03
*END

*D_NET pgm_pp19_2_s1 2.083170e-02
*CONN
*I lt_pp19_2_s1:Z O
*I vs_28_19:A I
*I vs_16_19:A I
*CAP
1 pgm_pp19_2_s1:1 2.083170e-02
*RES
1 lt_pp19_2_s1:Z pgm_pp19_2_s1:1 2.235522e+01
2 pgm_pp19_2_s1:1 vs_28_19:A 1.000000e-03
3 pgm_pp19_2_s1:1 vs_16_19:A 1.000000e-03
*END

*D_NET pgm_pp19_2_s2 9.803417e-03
*CONN
*I lt_pp19_2_s2:Z O
*I vs_40_19:A I
*I vs_38_19:A I
*CAP
1 pgm_pp19_2_s2:1 9.803417e-03
*RES
1 lt_pp19_2_s2:Z pgm_pp19_2_s2:1 1.027246e+01
2 pgm_pp19_2_s2:1 vs_40_19:A 1.000000e-03
3 pgm_pp19_2_s2:1 vs_38_19:A 1.000000e-03
*END

*D_NET pgm_pp19_3_s1 8.597655e-03
*CONN
*I lt_pp19_3_s1:Z O
*I vs_25_19:A I
*CAP
1 pgm_pp19_3_s1:1 8.597655e-03
*RES
1 lt_pp19_3_s1:Z pgm_pp19_3_s1:1 8.904188e+00
2 pgm_pp19_3_s1:1 vs_25_19:A 1.000000e-03
*END

*D_NET pgm_pp19_3_s2 6.025267e-03
*CONN
*I lt_pp19_3_s2:Z O
*I vs_39_19:A I
*CAP
1 pgm_pp19_3_s2:1 6.025267e-03
*RES
1 lt_pp19_3_s2:Z pgm_pp19_3_s2:1 5.697130e+00
2 pgm_pp19_3_s2:1 vs_39_19:A 1.000000e-03
*END

*D_NET pgm_pp19_3_s3 1.232129e-02
*CONN
*I lt_pp19_3_s3:Z O
*I vs_60_19:A I
*CAP
1 pgm_pp19_3_s3:1 1.232129e-02
*RES
1 lt_pp19_3_s3:Z pgm_pp19_3_s3:1 1.398198e+01
2 pgm_pp19_3_s3:1 vs_60_19:A 1.000000e-03
*END

*D_NET pgm_pp19_4_s0 2.119143e-02
*CONN
*I lt_pp19_4_s0:Z O
*I vs_14_19:A I
*I vs_0_19:A I
*CAP
1 pgm_pp19_4_s0:1 2.119143e-02
*RES
1 lt_pp19_4_s0:Z pgm_pp19_4_s0:1 2.241914e+01
2 pgm_pp19_4_s0:1 vs_14_19:A 1.000000e-03
3 pgm_pp19_4_s0:1 vs_0_19:A 1.000000e-03
*END

*D_NET pgm_pp19_4_s1 1.350927e-03
*CONN
*I lt_pp19_4_s1:Z O
*I vs_20_19:A I
*CAP
1 pgm_pp19_4_s1:1 1.350927e-03
*RES
1 lt_pp19_4_s1:Z pgm_pp19_4_s1:1 1.533008e+00
2 pgm_pp19_4_s1:1 vs_20_19:A 1.000000e-03
*END

*D_NET pgm_pp19_4_s2 4.126846e-03
*CONN
*I lt_pp19_4_s2:Z O
*I vs_36_19:A I
*CAP
1 pgm_pp19_4_s2:1 4.126846e-03
*RES
1 lt_pp19_4_s2:Z pgm_pp19_4_s2:1 4.683071e+00
2 pgm_pp19_4_s2:1 vs_36_19:A 1.000000e-03
*END

*D_NET pgm_pp19_4_s3 1.821974e-03
*CONN
*I lt_pp19_4_s3:Z O
*I vs_52_19:A I
*CAP
1 pgm_pp19_4_s3:1 1.821974e-03
*RES
1 lt_pp19_4_s3:Z pgm_pp19_4_s3:1 2.067544e+00
2 pgm_pp19_4_s3:1 vs_52_19:A 1.000000e-03
*END

*D_NET pgm_pp19_5_s1 6.765395e-03
*CONN
*I lt_pp19_5_s1:Z O
*I vs_18_19:A I
*CAP
1 pgm_pp19_5_s1:1 6.765395e-03
*RES
1 lt_pp19_5_s1:Z pgm_pp19_5_s1:1 5.616797e+00
2 pgm_pp19_5_s1:1 vs_18_19:A 1.000000e-03
*END

*D_NET pgm_pp19_5_s3 1.361415e-02
*CONN
*I lt_pp19_5_s3:Z O
*I vs_63_19:A I
*CAP
1 pgm_pp19_5_s3:1 1.361415e-02
*RES
1 lt_pp19_5_s3:Z pgm_pp19_5_s3:1 1.488478e+01
2 pgm_pp19_5_s3:1 vs_63_19:A 1.000000e-03
*END

*D_NET pgm_pp19_6_s1 1.345002e-03
*CONN
*I lt_pp19_6_s1:Z O
*I vs_24_19:A I
*I vs_23_19:A I
*CAP
1 pgm_pp19_6_s1:1 1.345002e-03
*RES
1 lt_pp19_6_s1:Z pgm_pp19_6_s1:1 1.526284e+00
2 pgm_pp19_6_s1:1 vs_24_19:A 1.000000e-03
3 pgm_pp19_6_s1:1 vs_23_19:A 1.000000e-03
*END

*D_NET pgm_pp19_6_s2 1.862500e-02
*CONN
*I lt_pp19_6_s2:Z O
*I vs_46_19:A I
*I vs_43_19:A I
*I vs_35_19:A I
*CAP
1 pgm_pp19_6_s2:1 1.862500e-02
*RES
1 lt_pp19_6_s2:Z pgm_pp19_6_s2:1 1.960696e+01
2 pgm_pp19_6_s2:1 vs_46_19:A 1.000000e-03
3 pgm_pp19_6_s2:1 vs_43_19:A 1.000000e-03
4 pgm_pp19_6_s2:1 vs_35_19:A 1.000000e-03
*END

*D_NET pgm_pp19_8_s0 7.747094e-03
*CONN
*I lt_pp19_8_s0:Z O
*I vs_4_19:A I
*CAP
1 pgm_pp19_8_s0:1 7.747094e-03
*RES
1 lt_pp19_8_s0:Z pgm_pp19_8_s0:1 8.791264e+00
2 pgm_pp19_8_s0:1 vs_4_19:A 1.000000e-03
*END

*D_NET pgm_pp19_9_s2 1.532236e-02
*CONN
*I lt_pp19_9_s2:Z O
*I vs_32_19:A I
*CAP
1 pgm_pp19_9_s2:1 1.532236e-02
*RES
1 lt_pp19_9_s2:Z pgm_pp19_9_s2:1 1.738754e+01
2 pgm_pp19_9_s2:1 vs_32_19:A 1.000000e-03
*END

*D_NET pgm_pp1_0_s1 4.804998e-03
*CONN
*I lt_pp1_0_s1:Z O
*I vs_18_1:A I
*CAP
1 pgm_pp1_0_s1:1 4.804998e-03
*RES
1 lt_pp1_0_s1:Z pgm_pp1_0_s1:1 3.448513e+00
2 pgm_pp1_0_s1:1 vs_18_1:A 1.000000e-03
*END

*D_NET pgm_pp1_0_s2 3.030699e-03
*CONN
*I lt_pp1_0_s2:Z O
*I vs_33_1:A I
*CAP
1 pgm_pp1_0_s2:1 3.030699e-03
*RES
1 lt_pp1_0_s2:Z pgm_pp1_0_s2:1 3.439183e+00
2 pgm_pp1_0_s2:1 vs_33_1:A 1.000000e-03
*END

*D_NET pgm_pp1_11_s0 1.153621e-02
*CONN
*I lt_pp1_11_s0:Z O
*I vs_6_1:A I
*CAP
1 pgm_pp1_11_s0:1 1.153621e-02
*RES
1 lt_pp1_11_s0:Z pgm_pp1_11_s0:1 1.309108e+01
2 pgm_pp1_11_s0:1 vs_6_1:A 1.000000e-03
*END

*D_NET pgm_pp1_11_s1 2.626325e-03
*CONN
*I lt_pp1_11_s1:Z O
*I vs_30_1:A I
*CAP
1 pgm_pp1_11_s1:1 2.626325e-03
*RES
1 lt_pp1_11_s1:Z pgm_pp1_11_s1:1 1.552112e+00
2 pgm_pp1_11_s1:1 vs_30_1:A 1.000000e-03
*END

*D_NET pgm_pp1_12_s2 2.441149e-03
*CONN
*I lt_pp1_12_s2:Z O
*I vs_46_1:A I
*CAP
1 pgm_pp1_12_s2:1 2.441149e-03
*RES
1 lt_pp1_12_s2:Z pgm_pp1_12_s2:1 2.770173e+00
2 pgm_pp1_12_s2:1 vs_46_1:A 1.000000e-03
*END

*D_NET pgm_pp1_12_s3 9.027905e-03
*CONN
*I lt_pp1_12_s3:Z O
*I vs_57_1:A I
*CAP
1 pgm_pp1_12_s3:1 9.027905e-03
*RES
1 lt_pp1_12_s3:Z pgm_pp1_12_s3:1 7.896295e+00
2 pgm_pp1_12_s3:1 vs_57_1:A 1.000000e-03
*END

*D_NET pgm_pp1_1_s1 1.499055e-03
*CONN
*I lt_pp1_1_s1:Z O
*I vs_17_1:A I
*CAP
1 pgm_pp1_1_s1:1 1.499055e-03
*RES
1 lt_pp1_1_s1:Z pgm_pp1_1_s1:1 1.701101e+00
2 pgm_pp1_1_s1:1 vs_17_1:A 1.000000e-03
*END

*D_NET pgm_pp1_1_s3 1.374733e-02
*CONN
*I lt_pp1_1_s3:Z O
*I vs_58_1:A I
*CAP
1 pgm_pp1_1_s3:1 1.374733e-02
*RES
1 lt_pp1_1_s3:Z pgm_pp1_1_s3:1 1.402805e+01
2 pgm_pp1_1_s3:1 vs_58_1:A 1.000000e-03
*END

*D_NET pgm_pp1_2_s0 1.411306e-02
*CONN
*I lt_pp1_2_s0:Z O
*I vs_12_1:A I
*CAP
1 pgm_pp1_2_s0:1 1.411306e-02
*RES
1 lt_pp1_2_s0:Z pgm_pp1_2_s0:1 1.487501e+01
2 pgm_pp1_2_s0:1 vs_12_1:A 1.000000e-03
*END

*D_NET pgm_pp1_2_s2 4.858598e-03
*CONN
*I lt_pp1_2_s2:Z O
*I vs_32_1:A I
*CAP
1 pgm_pp1_2_s2:1 4.858598e-03
*RES
1 lt_pp1_2_s2:Z pgm_pp1_2_s2:1 5.513450e+00
2 pgm_pp1_2_s2:1 vs_32_1:A 1.000000e-03
*END

*D_NET pgm_pp1_2_s3 1.629408e-03
*CONN
*I lt_pp1_2_s3:Z O
*I vs_50_1:A I
*CAP
1 pgm_pp1_2_s3:1 1.629408e-03
*RES
1 lt_pp1_2_s3:Z pgm_pp1_2_s3:1 1.849023e+00
2 pgm_pp1_2_s3:1 vs_50_1:A 1.000000e-03
*END

*D_NET pgm_pp1_3_s0 1.709397e-03
*CONN
*I lt_pp1_3_s0:Z O
*I vs_3_1:A I
*CAP
1 pgm_pp1_3_s0:1 1.709397e-03
*RES
1 lt_pp1_3_s0:Z pgm_pp1_3_s0:1 1.939793e+00
2 pgm_pp1_3_s0:1 vs_3_1:A 1.000000e-03
*END

*D_NET pgm_pp1_3_s2 1.709397e-03
*CONN
*I lt_pp1_3_s2:Z O
*I vs_35_1:A I
*CAP
1 pgm_pp1_3_s2:1 1.709397e-03
*RES
1 lt_pp1_3_s2:Z pgm_pp1_3_s2:1 1.939793e+00
2 pgm_pp1_3_s2:1 vs_35_1:A 1.000000e-03
*END

*D_NET pgm_pp1_3_s3 4.586043e-03
*CONN
*I lt_pp1_3_s3:Z O
*I vs_49_1:A I
*CAP
1 pgm_pp1_3_s3:1 4.586043e-03
*RES
1 lt_pp1_3_s3:Z pgm_pp1_3_s3:1 5.204159e+00
2 pgm_pp1_3_s3:1 vs_49_1:A 1.000000e-03
*END

*D_NET pgm_pp1_4_s1 9.829774e-03
*CONN
*I lt_pp1_4_s1:Z O
*I vs_26_1:A I
*I vs_23_1:A I
*I vs_20_1:A I
*CAP
1 pgm_pp1_4_s1:1 9.829774e-03
*RES
1 lt_pp1_4_s1:Z pgm_pp1_4_s1:1 1.115465e+01
2 pgm_pp1_4_s1:1 vs_26_1:A 1.000000e-03
3 pgm_pp1_4_s1:1 vs_23_1:A 1.000000e-03
4 pgm_pp1_4_s1:1 vs_20_1:A 1.000000e-03
*END

*D_NET pgm_pp1_4_s3 1.474466e-02
*CONN
*I lt_pp1_4_s3:Z O
*I vs_63_1:A I
*CAP
1 pgm_pp1_4_s3:1 1.474466e-02
*RES
1 lt_pp1_4_s3:Z pgm_pp1_4_s3:1 1.673198e+01
2 pgm_pp1_4_s3:1 vs_63_1:A 1.000000e-03
*END

*D_NET pgm_pp1_5_s0 6.005109e-03
*CONN
*I lt_pp1_5_s0:Z O
*I vs_8_1:A I
*I vs_4_1:A I
*CAP
1 pgm_pp1_5_s0:1 6.005109e-03
*RES
1 lt_pp1_5_s0:Z pgm_pp1_5_s0:1 6.814490e+00
2 pgm_pp1_5_s0:1 vs_8_1:A 1.000000e-03
3 pgm_pp1_5_s0:1 vs_4_1:A 1.000000e-03
*END

*D_NET pgm_pp1_5_s1 2.725555e-04
*CONN
*I lt_pp1_5_s1:Z O
*I vs_22_1:A I
*CAP
1 pgm_pp1_5_s1:1 2.725555e-04
*RES
1 lt_pp1_5_s1:Z pgm_pp1_5_s1:1 3.092911e-01
2 pgm_pp1_5_s1:1 vs_22_1:A 1.000000e-03
*END

*D_NET pgm_pp1_6_s0 9.284663e-03
*CONN
*I lt_pp1_6_s0:Z O
*I vs_2_1:A I
*I vs_1_1:A I
*CAP
1 pgm_pp1_6_s0:1 9.284663e-03
*RES
1 lt_pp1_6_s0:Z pgm_pp1_6_s0:1 1.053607e+01
2 pgm_pp1_6_s0:1 vs_2_1:A 1.000000e-03
3 pgm_pp1_6_s0:1 vs_1_1:A 1.000000e-03
*END

*D_NET pgm_pp1_6_s3 7.350111e-03
*CONN
*I lt_pp1_6_s3:Z O
*I vs_60_1:A I
*CAP
1 pgm_pp1_6_s3:1 7.350111e-03
*RES
1 lt_pp1_6_s3:Z pgm_pp1_6_s3:1 8.340775e+00
2 pgm_pp1_6_s3:1 vs_60_1:A 1.000000e-03
*END

*D_NET pgm_pp1_7_s0 3.198610e-03
*CONN
*I lt_pp1_7_s0:Z O
*I vs_10_1:A I
*CAP
1 pgm_pp1_7_s0:1 3.198610e-03
*RES
1 lt_pp1_7_s0:Z pgm_pp1_7_s0:1 2.577130e+00
2 pgm_pp1_7_s0:1 vs_10_1:A 1.000000e-03
*END

*D_NET pgm_pp1_7_s2 2.559652e-03
*CONN
*I lt_pp1_7_s2:Z O
*I vs_42_1:A I
*CAP
1 pgm_pp1_7_s2:1 2.559652e-03
*RES
1 lt_pp1_7_s2:Z pgm_pp1_7_s2:1 2.904647e+00
2 pgm_pp1_7_s2:1 vs_42_1:A 1.000000e-03
*END

*D_NET pgm_pp1_8_s2 5.163742e-03
*CONN
*I lt_pp1_8_s2:Z O
*I vs_45_1:A I
*CAP
1 pgm_pp1_8_s2:1 5.163742e-03
*RES
1 lt_pp1_8_s2:Z pgm_pp1_8_s2:1 5.859722e+00
2 pgm_pp1_8_s2:1 vs_45_1:A 1.000000e-03
*END

*D_NET pgm_pp1_9_s0 1.568188e-02
*CONN
*I lt_pp1_9_s0:Z O
*I vs_0_1:A I
*CAP
1 pgm_pp1_9_s0:1 1.568188e-02
*RES
1 lt_pp1_9_s0:Z pgm_pp1_9_s0:1 1.567873e+01
2 pgm_pp1_9_s0:1 vs_0_1:A 1.000000e-03
*END

*D_NET pgm_pp1_9_s2 2.031427e-02
*CONN
*I lt_pp1_9_s2:Z O
*I vs_47_1:A I
*I vs_41_1:A I
*I vs_34_1:A I
*CAP
1 pgm_pp1_9_s2:1 2.031427e-02
*RES
1 lt_pp1_9_s2:Z pgm_pp1_9_s2:1 2.305227e+01
2 pgm_pp1_9_s2:1 vs_47_1:A 1.000000e-03
3 pgm_pp1_9_s2:1 vs_41_1:A 1.000000e-03
4 pgm_pp1_9_s2:1 vs_34_1:A 1.000000e-03
*END

*D_NET pgm_pp1_9_s3 1.716071e-03
*CONN
*I lt_pp1_9_s3:Z O
*I vs_59_1:A I
*CAP
1 pgm_pp1_9_s3:1 1.716071e-03
*RES
1 lt_pp1_9_s3:Z pgm_pp1_9_s3:1 1.239069e+00
2 pgm_pp1_9_s3:1 vs_59_1:A 1.000000e-03
*END

*D_NET pgm_pp20_0_s1 2.828014e-02
*CONN
*I lt_pp20_0_s1:Z O
*I vs_27_20:A I
*CAP
1 pgm_pp20_0_s1:1 2.828014e-02
*RES
1 lt_pp20_0_s1:Z pgm_pp20_0_s1:1 1.944481e+01
2 pgm_pp20_0_s1:1 vs_27_20:A 1.000000e-03
*END

*D_NET pgm_pp20_0_s2 1.633824e-02
*CONN
*I lt_pp20_0_s2:Z O
*I vs_42_20:A I
*CAP
1 pgm_pp20_0_s2:1 1.633824e-02
*RES
1 lt_pp20_0_s2:Z pgm_pp20_0_s2:1 1.653623e+01
2 pgm_pp20_0_s2:1 vs_42_20:A 1.000000e-03
*END

*D_NET pgm_pp20_0_s3 2.134289e-02
*CONN
*I lt_pp20_0_s3:Z O
*I vs_61_20:A I
*I vs_59_20:A I
*I vs_55_20:A I
*CAP
1 pgm_pp20_0_s3:1 2.134289e-02
*RES
1 lt_pp20_0_s3:Z pgm_pp20_0_s3:1 2.250338e+01
2 pgm_pp20_0_s3:1 vs_61_20:A 1.000000e-03
3 pgm_pp20_0_s3:1 vs_59_20:A 1.000000e-03
4 pgm_pp20_0_s3:1 vs_55_20:A 1.000000e-03
*END

*D_NET pgm_pp20_10_s0 5.528137e-03
*CONN
*I lt_pp20_10_s0:Z O
*I vs_15_20:A I
*CAP
1 pgm_pp20_10_s0:1 5.528137e-03
*RES
1 lt_pp20_10_s0:Z pgm_pp20_10_s0:1 6.273231e+00
2 pgm_pp20_10_s0:1 vs_15_20:A 1.000000e-03
*END

*D_NET pgm_pp20_11_s0 2.168594e-03
*CONN
*I lt_pp20_11_s0:Z O
*I vs_14_20:A I
*CAP
1 pgm_pp20_11_s0:1 2.168594e-03
*RES
1 lt_pp20_11_s0:Z pgm_pp20_11_s0:1 2.460882e+00
2 pgm_pp20_11_s0:1 vs_14_20:A 1.000000e-03
*END

*D_NET pgm_pp20_11_s3 6.414007e-03
*CONN
*I lt_pp20_11_s3:Z O
*I vs_58_20:A I
*CAP
1 pgm_pp20_11_s3:1 6.414007e-03
*RES
1 lt_pp20_11_s3:Z pgm_pp20_11_s3:1 4.254013e+00
2 pgm_pp20_11_s3:1 vs_58_20:A 1.000000e-03
*END

*D_NET pgm_pp20_12_s2 3.599510e-03
*CONN
*I lt_pp20_12_s2:Z O
*I vs_45_20:A I
*CAP
1 pgm_pp20_12_s2:1 3.599510e-03
*RES
1 lt_pp20_12_s2:Z pgm_pp20_12_s2:1 4.084660e+00
2 pgm_pp20_12_s2:1 vs_45_20:A 1.000000e-03
*END

*D_NET pgm_pp20_12_s3 2.672225e-02
*CONN
*I lt_pp20_12_s3:Z O
*I vs_50_20:A I
*CAP
1 pgm_pp20_12_s3:1 2.672225e-02
*RES
1 lt_pp20_12_s3:Z pgm_pp20_12_s3:1 2.070051e+01
2 pgm_pp20_12_s3:1 vs_50_20:A 1.000000e-03
*END

*D_NET pgm_pp20_1_s1 1.587193e-02
*CONN
*I lt_pp20_1_s1:Z O
*I vs_28_20:A I
*CAP
1 pgm_pp20_1_s1:1 1.587193e-02
*RES
1 lt_pp20_1_s1:Z pgm_pp20_1_s1:1 1.658299e+01
2 pgm_pp20_1_s1:1 vs_28_20:A 1.000000e-03
*END

*D_NET pgm_pp20_1_s2 8.763252e-03
*CONN
*I lt_pp20_1_s2:Z O
*I vs_38_20:A I
*I vs_36_20:A I
*CAP
1 pgm_pp20_1_s2:1 8.763252e-03
*RES
1 lt_pp20_1_s2:Z pgm_pp20_1_s2:1 9.944382e+00
2 pgm_pp20_1_s2:1 vs_38_20:A 1.000000e-03
3 pgm_pp20_1_s2:1 vs_36_20:A 1.000000e-03
*END

*D_NET pgm_pp20_1_s3 1.449805e-02
*CONN
*I lt_pp20_1_s3:Z O
*I vs_56_20:A I
*I vs_48_20:A I
*CAP
1 pgm_pp20_1_s3:1 1.449805e-02
*RES
1 lt_pp20_1_s3:Z pgm_pp20_1_s3:1 1.430404e+01
2 pgm_pp20_1_s3:1 vs_56_20:A 1.000000e-03
3 pgm_pp20_1_s3:1 vs_48_20:A 1.000000e-03
*END

*D_NET pgm_pp20_2_s0 1.869644e-02
*CONN
*I lt_pp20_2_s0:Z O
*I vs_12_20:A I
*I vs_8_20:A I
*I vs_6_20:A I
*I vs_5_20:A I
*CAP
1 pgm_pp20_2_s0:1 1.869644e-02
*RES
1 lt_pp20_2_s0:Z pgm_pp20_2_s0:1 1.922387e+01
2 pgm_pp20_2_s0:1 vs_12_20:A 1.000000e-03
3 pgm_pp20_2_s0:1 vs_8_20:A 1.000000e-03
4 pgm_pp20_2_s0:1 vs_6_20:A 1.000000e-03
5 pgm_pp20_2_s0:1 vs_5_20:A 1.000000e-03
*END

*D_NET pgm_pp20_2_s1 1.872324e-02
*CONN
*I lt_pp20_2_s1:Z O
*I vs_30_20:A I
*I vs_18_20:A I
*CAP
1 pgm_pp20_2_s1:1 1.872324e-02
*RES
1 lt_pp20_2_s1:Z pgm_pp20_2_s1:1 2.025054e+01
2 pgm_pp20_2_s1:1 vs_30_20:A 1.000000e-03
3 pgm_pp20_2_s1:1 vs_18_20:A 1.000000e-03
*END

*D_NET pgm_pp20_2_s2 2.340415e-02
*CONN
*I lt_pp20_2_s2:Z O
*I vs_47_20:A I
*CAP
1 pgm_pp20_2_s2:1 2.340415e-02
*RES
1 lt_pp20_2_s2:Z pgm_pp20_2_s2:1 1.981478e+01
2 pgm_pp20_2_s2:1 vs_47_20:A 1.000000e-03
*END

*D_NET pgm_pp20_3_s1 5.199293e-03
*CONN
*I lt_pp20_3_s1:Z O
*I vs_16_20:A I
*CAP
1 pgm_pp20_3_s1:1 5.199293e-03
*RES
1 lt_pp20_3_s1:Z pgm_pp20_3_s1:1 5.900064e+00
2 pgm_pp20_3_s1:1 vs_16_20:A 1.000000e-03
*END

*D_NET pgm_pp20_4_s1 1.787905e-02
*CONN
*I lt_pp20_4_s1:Z O
*I vs_31_20:A I
*I vs_19_20:A I
*CAP
1 pgm_pp20_4_s1:1 1.787905e-02
*RES
1 lt_pp20_4_s1:Z pgm_pp20_4_s1:1 2.028883e+01
2 pgm_pp20_4_s1:1 vs_31_20:A 1.000000e-03
3 pgm_pp20_4_s1:1 vs_19_20:A 1.000000e-03
*END

*D_NET pgm_pp20_4_s2 1.347965e-02
*CONN
*I lt_pp20_4_s2:Z O
*I vs_46_20:A I
*CAP
1 pgm_pp20_4_s2:1 1.347965e-02
*RES
1 lt_pp20_4_s2:Z pgm_pp20_4_s2:1 1.529646e+01
2 pgm_pp20_4_s2:1 vs_46_20:A 1.000000e-03
*END

*D_NET pgm_pp20_4_s3 1.596881e-02
*CONN
*I lt_pp20_4_s3:Z O
*I vs_62_20:A I
*I vs_54_20:A I
*CAP
1 pgm_pp20_4_s3:1 1.596881e-02
*RES
1 lt_pp20_4_s3:Z pgm_pp20_4_s3:1 1.640497e+01
2 pgm_pp20_4_s3:1 vs_62_20:A 1.000000e-03
3 pgm_pp20_4_s3:1 vs_54_20:A 1.000000e-03
*END

*D_NET pgm_pp20_5_s1 1.884188e-03
*CONN
*I lt_pp20_5_s1:Z O
*I vs_23_20:A I
*CAP
1 pgm_pp20_5_s1:1 1.884188e-03
*RES
1 lt_pp20_5_s1:Z pgm_pp20_5_s1:1 2.138143e+00
2 pgm_pp20_5_s1:1 vs_23_20:A 1.000000e-03
*END

*D_NET pgm_pp20_8_s1 5.975484e-03
*CONN
*I lt_pp20_8_s1:Z O
*I vs_22_20:A I
*CAP
1 pgm_pp20_8_s1:1 5.975484e-03
*RES
1 lt_pp20_8_s1:Z pgm_pp20_8_s1:1 6.780872e+00
2 pgm_pp20_8_s1:1 vs_22_20:A 1.000000e-03
*END

*D_NET pgm_pp20_8_s2 2.156744e-03
*CONN
*I lt_pp20_8_s2:Z O
*I vs_43_20:A I
*CAP
1 pgm_pp20_8_s2:1 2.156744e-03
*RES
1 lt_pp20_8_s2:Z pgm_pp20_8_s2:1 2.447434e+00
2 pgm_pp20_8_s2:1 vs_43_20:A 1.000000e-03
*END

*D_NET pgm_pp20_9_s0 3.688387e-03
*CONN
*I lt_pp20_9_s0:Z O
*I vs_13_20:A I
*CAP
1 pgm_pp20_9_s0:1 3.688387e-03
*RES
1 lt_pp20_9_s0:Z pgm_pp20_9_s0:1 4.185516e+00
2 pgm_pp20_9_s0:1 vs_13_20:A 1.000000e-03
*END

*D_NET pgm_pp20_9_s2 1.255237e-02
*CONN
*I lt_pp20_9_s2:Z O
*I vs_34_20:A I
*CAP
1 pgm_pp20_9_s2:1 1.255237e-02
*RES
1 lt_pp20_9_s2:Z pgm_pp20_9_s2:1 1.424420e+01
2 pgm_pp20_9_s2:1 vs_34_20:A 1.000000e-03
*END

*D_NET pgm_pp21_0_s0 2.199405e-02
*CONN
*I lt_pp21_0_s0:Z O
*I vs_15_21:A I
*I vs_11_21:A I
*I vs_9_21:A I
*I vs_8_21:A I
*I vs_1_21:A I
*CAP
1 pgm_pp21_0_s0:1 2.199405e-02
*RES
1 lt_pp21_0_s0:Z pgm_pp21_0_s0:1 2.495845e+01
2 pgm_pp21_0_s0:1 vs_15_21:A 1.000000e-03
3 pgm_pp21_0_s0:1 vs_11_21:A 1.000000e-03
4 pgm_pp21_0_s0:1 vs_9_21:A 1.000000e-03
5 pgm_pp21_0_s0:1 vs_8_21:A 1.000000e-03
6 pgm_pp21_0_s0:1 vs_1_21:A 1.000000e-03
*END

*D_NET pgm_pp21_0_s1 2.128896e-02
*CONN
*I lt_pp21_0_s1:Z O
*I vs_30_21:A I
*I vs_28_21:A I
*I vs_23_21:A I
*I vs_22_21:A I
*I vs_21_21:A I
*I vs_20_21:A I
*I vs_19_21:A I
*I vs_16_21:A I
*CAP
1 pgm_pp21_0_s1:1 2.128896e-02
*RES
1 lt_pp21_0_s1:Z pgm_pp21_0_s1:1 2.415833e+01
2 pgm_pp21_0_s1:1 vs_30_21:A 1.000000e-03
3 pgm_pp21_0_s1:1 vs_28_21:A 1.000000e-03
4 pgm_pp21_0_s1:1 vs_23_21:A 1.000000e-03
5 pgm_pp21_0_s1:1 vs_22_21:A 1.000000e-03
6 pgm_pp21_0_s1:1 vs_21_21:A 1.000000e-03
7 pgm_pp21_0_s1:1 vs_20_21:A 1.000000e-03
8 pgm_pp21_0_s1:1 vs_19_21:A 1.000000e-03
9 pgm_pp21_0_s1:1 vs_16_21:A 1.000000e-03
*END

*D_NET pgm_pp21_0_s2 2.085836e-02
*CONN
*I lt_pp21_0_s2:Z O
*I vs_46_21:A I
*I vs_39_21:A I
*I vs_38_21:A I
*I vs_34_21:A I
*CAP
1 pgm_pp21_0_s2:1 2.085836e-02
*RES
1 lt_pp21_0_s2:Z pgm_pp21_0_s2:1 2.238548e+01
2 pgm_pp21_0_s2:1 vs_46_21:A 1.000000e-03
3 pgm_pp21_0_s2:1 vs_39_21:A 1.000000e-03
4 pgm_pp21_0_s2:1 vs_38_21:A 1.000000e-03
5 pgm_pp21_0_s2:1 vs_34_21:A 1.000000e-03
*END

*D_NET pgm_pp21_0_s3 1.068003e-02
*CONN
*I lt_pp21_0_s3:Z O
*I vs_58_21:A I
*I vs_56_21:A I
*I vs_52_21:A I
*I vs_51_21:A I
*CAP
1 pgm_pp21_0_s3:1 1.068003e-02
*RES
1 lt_pp21_0_s3:Z pgm_pp21_0_s3:1 1.211951e+01
2 pgm_pp21_0_s3:1 vs_58_21:A 1.000000e-03
3 pgm_pp21_0_s3:1 vs_56_21:A 1.000000e-03
4 pgm_pp21_0_s3:1 vs_52_21:A 1.000000e-03
5 pgm_pp21_0_s3:1 vs_51_21:A 1.000000e-03
*END

*D_NET pgm_pp2_0_s0 1.641258e-02
*CONN
*I lt_pp2_0_s0:Z O
*I vs_8_2:A I
*I vs_3_2:A I
*I vs_1_2:A I
*CAP
1 pgm_pp2_0_s0:1 1.641258e-02
*RES
1 lt_pp2_0_s0:Z pgm_pp2_0_s0:1 1.862470e+01
2 pgm_pp2_0_s0:1 vs_8_2:A 1.000000e-03
3 pgm_pp2_0_s0:1 vs_3_2:A 1.000000e-03
4 pgm_pp2_0_s0:1 vs_1_2:A 1.000000e-03
*END

*D_NET pgm_pp2_0_s1 2.224883e-03
*CONN
*I lt_pp2_0_s1:Z O
*I vs_16_2:A I
*CAP
1 pgm_pp2_0_s1:1 2.224883e-03
*RES
1 lt_pp2_0_s1:Z pgm_pp2_0_s1:1 2.524757e+00
2 pgm_pp2_0_s1:1 vs_16_2:A 1.000000e-03
*END

*D_NET pgm_pp2_0_s3 1.125153e-02
*CONN
*I lt_pp2_0_s3:Z O
*I vs_55_2:A I
*CAP
1 pgm_pp2_0_s3:1 1.125153e-02
*RES
1 lt_pp2_0_s3:Z pgm_pp2_0_s3:1 1.076392e+01
2 pgm_pp2_0_s3:1 vs_55_2:A 1.000000e-03
*END

*D_NET pgm_pp2_12_s0 1.195490e-02
*CONN
*I lt_pp2_12_s0:Z O
*I vs_7_2:A I
*CAP
1 pgm_pp2_12_s0:1 1.195490e-02
*RES
1 lt_pp2_12_s0:Z pgm_pp2_12_s0:1 1.292990e+01
2 pgm_pp2_12_s0:1 vs_7_2:A 1.000000e-03
*END

*D_NET pgm_pp2_1_s0 3.362506e-03
*CONN
*I lt_pp2_1_s0:Z O
*I vs_2_2:A I
*CAP
1 pgm_pp2_1_s0:1 3.362506e-03
*RES
1 lt_pp2_1_s0:Z pgm_pp2_1_s0:1 3.815711e+00
2 pgm_pp2_1_s0:1 vs_2_2:A 1.000000e-03
*END

*D_NET pgm_pp2_1_s1 1.475161e-02
*CONN
*I lt_pp2_1_s1:Z O
*I vs_26_2:A I
*CAP
1 pgm_pp2_1_s1:1 1.475161e-02
*RES
1 lt_pp2_1_s1:Z pgm_pp2_1_s1:1 1.477957e+01
2 pgm_pp2_1_s1:1 vs_26_2:A 1.000000e-03
*END

*D_NET pgm_pp2_2_s1 1.943129e-02
*CONN
*I lt_pp2_2_s1:Z O
*I vs_29_2:A I
*I vs_23_2:A I
*I vs_17_2:A I
*CAP
1 pgm_pp2_2_s1:1 1.943129e-02
*RES
1 lt_pp2_2_s1:Z pgm_pp2_2_s1:1 2.105403e+01
2 pgm_pp2_2_s1:1 vs_29_2:A 1.000000e-03
3 pgm_pp2_2_s1:1 vs_23_2:A 1.000000e-03
4 pgm_pp2_2_s1:1 vs_17_2:A 1.000000e-03
*END

*D_NET pgm_pp2_2_s3 1.829085e-02
*CONN
*I lt_pp2_2_s3:Z O
*I vs_63_2:A I
*I vs_59_2:A I
*CAP
1 pgm_pp2_2_s3:1 1.829085e-02
*RES
1 lt_pp2_2_s3:Z pgm_pp2_2_s3:1 2.075612e+01
2 pgm_pp2_2_s3:1 vs_63_2:A 1.000000e-03
3 pgm_pp2_2_s3:1 vs_59_2:A 1.000000e-03
*END

*D_NET pgm_pp2_3_s0 1.363074e-02
*CONN
*I lt_pp2_3_s0:Z O
*I vs_13_2:A I
*I vs_11_2:A I
*I vs_10_2:A I
*CAP
1 pgm_pp2_3_s0:1 1.363074e-02
*RES
1 lt_pp2_3_s0:Z pgm_pp2_3_s0:1 1.546792e+01
2 pgm_pp2_3_s0:1 vs_13_2:A 1.000000e-03
3 pgm_pp2_3_s0:1 vs_11_2:A 1.000000e-03
4 pgm_pp2_3_s0:1 vs_10_2:A 1.000000e-03
*END

*D_NET pgm_pp2_3_s2 6.621322e-03
*CONN
*I lt_pp2_3_s2:Z O
*I vs_36_2:A I
*I vs_33_2:A I
*CAP
1 pgm_pp2_3_s2:1 6.621322e-03
*RES
1 lt_pp2_3_s2:Z pgm_pp2_3_s2:1 7.513757e+00
2 pgm_pp2_3_s2:1 vs_36_2:A 1.000000e-03
3 pgm_pp2_3_s2:1 vs_33_2:A 1.000000e-03
*END

*D_NET pgm_pp2_3_s3 1.341151e-02
*CONN
*I lt_pp2_3_s3:Z O
*I vs_60_2:A I
*I vs_56_2:A I
*CAP
1 pgm_pp2_3_s3:1 1.341151e-02
*RES
1 lt_pp2_3_s3:Z pgm_pp2_3_s3:1 1.521914e+01
2 pgm_pp2_3_s3:1 vs_60_2:A 1.000000e-03
3 pgm_pp2_3_s3:1 vs_56_2:A 1.000000e-03
*END

*D_NET pgm_pp2_5_s1 8.603274e-03
*CONN
*I lt_pp2_5_s1:Z O
*I vs_28_2:A I
*CAP
1 pgm_pp2_5_s1:1 8.603274e-03
*RES
1 lt_pp2_5_s1:Z pgm_pp2_5_s1:1 9.762841e+00
2 pgm_pp2_5_s1:1 vs_28_2:A 1.000000e-03
*END

*D_NET pgm_pp2_5_s3 1.915326e-02
*CONN
*I lt_pp2_5_s3:Z O
*I vs_62_2:A I
*I vs_61_2:A I
*I vs_50_2:A I
*CAP
1 pgm_pp2_5_s3:1 1.915326e-02
*RES
1 lt_pp2_5_s3:Z pgm_pp2_5_s3:1 2.088250e+01
2 pgm_pp2_5_s3:1 vs_62_2:A 1.000000e-03
3 pgm_pp2_5_s3:1 vs_61_2:A 1.000000e-03
4 pgm_pp2_5_s3:1 vs_50_2:A 1.000000e-03
*END

*D_NET pgm_pp2_6_s3 3.910579e-03
*CONN
*I lt_pp2_6_s3:Z O
*I vs_53_2:A I
*CAP
1 pgm_pp2_6_s3:1 3.910579e-03
*RES
1 lt_pp2_6_s3:Z pgm_pp2_6_s3:1 4.437655e+00
2 pgm_pp2_6_s3:1 vs_53_2:A 1.000000e-03
*END

*D_NET pgm_pp2_7_s3 8.256655e-03
*CONN
*I lt_pp2_7_s3:Z O
*I vs_51_2:A I
*CAP
1 pgm_pp2_7_s3:1 8.256655e-03
*RES
1 lt_pp2_7_s3:Z pgm_pp2_7_s3:1 9.369504e+00
2 pgm_pp2_7_s3:1 vs_51_2:A 1.000000e-03
*END

*D_NET pgm_pp2_8_s0 9.280776e-03
*CONN
*I lt_pp2_8_s0:Z O
*I vs_4_2:A I
*CAP
1 pgm_pp2_8_s0:1 9.280776e-03
*RES
1 lt_pp2_8_s0:Z pgm_pp2_8_s0:1 6.054857e+00
2 pgm_pp2_8_s0:1 vs_4_2:A 1.000000e-03
*END

*D_NET pgm_pp2_8_s1 7.610817e-03
*CONN
*I lt_pp2_8_s1:Z O
*I vs_31_2:A I
*CAP
1 pgm_pp2_8_s1:1 7.610817e-03
*RES
1 lt_pp2_8_s1:Z pgm_pp2_8_s1:1 8.636618e+00
2 pgm_pp2_8_s1:1 vs_31_2:A 1.000000e-03
*END

*D_NET pgm_pp2_8_s3 8.117414e-04
*CONN
*I lt_pp2_8_s3:Z O
*I vs_58_2:A I
*CAP
1 pgm_pp2_8_s3:1 8.117414e-04
*RES
1 lt_pp2_8_s3:Z pgm_pp2_8_s3:1 9.211496e-01
2 pgm_pp2_8_s3:1 vs_58_2:A 1.000000e-03
*END

*D_NET pgm_pp2_9_s2 1.353001e-02
*CONN
*I lt_pp2_9_s2:Z O
*I vs_34_2:A I
*CAP
1 pgm_pp2_9_s2:1 1.353001e-02
*RES
1 lt_pp2_9_s2:Z pgm_pp2_9_s2:1 1.535361e+01
2 pgm_pp2_9_s2:1 vs_34_2:A 1.000000e-03
*END

*D_NET pgm_pp2_9_s3 1.537272e-02
*CONN
*I lt_pp2_9_s3:Z O
*I vs_48_2:A I
*CAP
1 pgm_pp2_9_s3:1 1.537272e-02
*RES
1 lt_pp2_9_s3:Z pgm_pp2_9_s3:1 1.744469e+01
2 pgm_pp2_9_s3:1 vs_48_2:A 1.000000e-03
*END

*D_NET pgm_pp3_0_s0 9.910340e-03
*CONN
*I lt_pp3_0_s0:Z O
*I vs_6_3:A I
*CAP
1 pgm_pp3_0_s0:1 9.910340e-03
*RES
1 lt_pp3_0_s0:Z pgm_pp3_0_s0:1 9.141805e+00
2 pgm_pp3_0_s0:1 vs_6_3:A 1.000000e-03
*END

*D_NET pgm_pp3_0_s2 2.178667e-02
*CONN
*I lt_pp3_0_s2:Z O
*I vs_47_3:A I
*CAP
1 pgm_pp3_0_s2:1 2.178667e-02
*RES
1 lt_pp3_0_s2:Z pgm_pp3_0_s2:1 2.472312e+01
2 pgm_pp3_0_s2:1 vs_47_3:A 1.000000e-03
*END

*D_NET pgm_pp3_11_s1 1.613491e-02
*CONN
*I lt_pp3_11_s1:Z O
*I vs_19_3:A I
*CAP
1 pgm_pp3_11_s1:1 1.613491e-02
*RES
1 lt_pp3_11_s1:Z pgm_pp3_11_s1:1 1.402061e+01
2 pgm_pp3_11_s1:1 vs_19_3:A 1.000000e-03
*END

*D_NET pgm_pp3_11_s3 1.412549e-02
*CONN
*I lt_pp3_11_s3:Z O
*I vs_52_3:A I
*CAP
1 pgm_pp3_11_s3:1 1.412549e-02
*RES
1 lt_pp3_11_s3:Z pgm_pp3_11_s3:1 1.602935e+01
2 pgm_pp3_11_s3:1 vs_52_3:A 1.000000e-03
*END

*D_NET pgm_pp3_12_s0 3.796093e-03
*CONN
*I lt_pp3_12_s0:Z O
*I vs_13_3:A I
*CAP
1 pgm_pp3_12_s0:1 3.796093e-03
*RES
1 lt_pp3_12_s0:Z pgm_pp3_12_s0:1 2.735565e+00
2 pgm_pp3_12_s0:1 vs_13_3:A 1.000000e-03
*END

*D_NET pgm_pp3_12_s1 1.936329e-02
*CONN
*I lt_pp3_12_s1:Z O
*I vs_17_3:A I
*CAP
1 pgm_pp3_12_s1:1 1.936329e-02
*RES
1 lt_pp3_12_s1:Z pgm_pp3_12_s1:1 2.197312e+01
2 pgm_pp3_12_s1:1 vs_17_3:A 1.000000e-03
*END

*D_NET pgm_pp3_1_s2 1.231549e-02
*CONN
*I lt_pp3_1_s2:Z O
*I vs_39_3:A I
*I vs_38_3:A I
*I vs_37_3:A I
*CAP
1 pgm_pp3_1_s2:1 1.231549e-02
*RES
1 lt_pp3_1_s2:Z pgm_pp3_1_s2:1 7.920624e+00
2 pgm_pp3_1_s2:1 vs_39_3:A 1.000000e-03
3 pgm_pp3_1_s2:1 vs_38_3:A 1.000000e-03
4 pgm_pp3_1_s2:1 vs_37_3:A 1.000000e-03
*END

*D_NET pgm_pp3_2_s3 9.607002e-03
*CONN
*I lt_pp3_2_s3:Z O
*I vs_56_3:A I
*I vs_53_3:A I
*CAP
1 pgm_pp3_2_s3:1 9.607002e-03
*RES
1 lt_pp3_2_s3:Z pgm_pp3_2_s3:1 9.761618e+00
2 pgm_pp3_2_s3:1 vs_56_3:A 1.000000e-03
3 pgm_pp3_2_s3:1 vs_53_3:A 1.000000e-03
*END

*D_NET pgm_pp3_3_s1 4.414214e-03
*CONN
*I lt_pp3_3_s1:Z O
*I vs_22_3:A I
*I vs_21_3:A I
*CAP
1 pgm_pp3_3_s1:1 4.414214e-03
*RES
1 lt_pp3_3_s1:Z pgm_pp3_3_s1:1 5.009171e+00
2 pgm_pp3_3_s1:1 vs_22_3:A 1.000000e-03
3 pgm_pp3_3_s1:1 vs_21_3:A 1.000000e-03
*END

*D_NET pgm_pp3_3_s3 2.832207e-03
*CONN
*I lt_pp3_3_s3:Z O
*I vs_50_3:A I
*CAP
1 pgm_pp3_3_s3:1 2.832207e-03
*RES
1 lt_pp3_3_s3:Z pgm_pp3_3_s3:1 3.213938e+00
2 pgm_pp3_3_s3:1 vs_50_3:A 1.000000e-03
*END

*D_NET pgm_pp3_4_s1 1.414326e-02
*CONN
*I lt_pp3_4_s1:Z O
*I vs_31_3:A I
*CAP
1 pgm_pp3_4_s1:1 1.414326e-02
*RES
1 lt_pp3_4_s1:Z pgm_pp3_4_s1:1 1.604952e+01
2 pgm_pp3_4_s1:1 vs_31_3:A 1.000000e-03
*END

*D_NET pgm_pp3_4_s2 2.962560e-03
*CONN
*I lt_pp3_4_s2:Z O
*I vs_35_3:A I
*CAP
1 pgm_pp3_4_s2:1 2.962560e-03
*RES
1 lt_pp3_4_s2:Z pgm_pp3_4_s2:1 3.361860e+00
2 pgm_pp3_4_s2:1 vs_35_3:A 1.000000e-03
*END

*D_NET pgm_pp3_5_s1 7.948647e-03
*CONN
*I lt_pp3_5_s1:Z O
*I vs_16_3:A I
*CAP
1 pgm_pp3_5_s1:1 7.948647e-03
*RES
1 lt_pp3_5_s1:Z pgm_pp3_5_s1:1 5.838995e+00
2 pgm_pp3_5_s1:1 vs_16_3:A 1.000000e-03
*END

*D_NET pgm_pp3_5_s2 6.767678e-03
*CONN
*I lt_pp3_5_s2:Z O
*I vs_34_3:A I
*CAP
1 pgm_pp3_5_s2:1 6.767678e-03
*RES
1 lt_pp3_5_s2:Z pgm_pp3_5_s2:1 7.115522e+00
2 pgm_pp3_5_s2:1 vs_34_3:A 1.000000e-03
*END

*D_NET pgm_pp3_5_s3 1.481280e-03
*CONN
*I lt_pp3_5_s3:Z O
*I vs_55_3:A I
*CAP
1 pgm_pp3_5_s3:1 1.481280e-03
*RES
1 lt_pp3_5_s3:Z pgm_pp3_5_s3:1 1.680930e+00
2 pgm_pp3_5_s3:1 vs_55_3:A 1.000000e-03
*END

*D_NET pgm_pp3_6_s0 8.360069e-03
*CONN
*I lt_pp3_6_s0:Z O
*I vs_2_3:A I
*CAP
1 pgm_pp3_6_s0:1 8.360069e-03
*RES
1 lt_pp3_6_s0:Z pgm_pp3_6_s0:1 6.938127e+00
2 pgm_pp3_6_s0:1 vs_2_3:A 1.000000e-03
*END

*D_NET pgm_pp3_7_s0 1.103257e-02
*CONN
*I lt_pp3_7_s0:Z O
*I vs_5_3:A I
*I vs_1_3:A I
*CAP
1 pgm_pp3_7_s0:1 1.103257e-02
*RES
1 lt_pp3_7_s0:Z pgm_pp3_7_s0:1 1.251957e+01
2 pgm_pp3_7_s0:1 vs_5_3:A 1.000000e-03
3 pgm_pp3_7_s0:1 vs_1_3:A 1.000000e-03
*END

*D_NET pgm_pp3_7_s2 3.445457e-03
*CONN
*I lt_pp3_7_s2:Z O
*I vs_43_3:A I
*CAP
1 pgm_pp3_7_s2:1 3.445457e-03
*RES
1 lt_pp3_7_s2:Z pgm_pp3_7_s2:1 3.909843e+00
2 pgm_pp3_7_s2:1 vs_43_3:A 1.000000e-03
*END

*D_NET pgm_pp3_9_s1 1.170211e-03
*CONN
*I lt_pp3_9_s1:Z O
*I vs_27_3:A I
*CAP
1 pgm_pp3_9_s1:1 1.170211e-03
*RES
1 lt_pp3_9_s1:Z pgm_pp3_9_s1:1 1.327935e+00
2 pgm_pp3_9_s1:1 vs_27_3:A 1.000000e-03
*END

*D_NET pgm_pp4_0_s1 3.383244e-03
*CONN
*I lt_pp4_0_s1:Z O
*I vs_17_4:A I
*CAP
1 pgm_pp4_0_s1:1 3.383244e-03
*RES
1 lt_pp4_0_s1:Z pgm_pp4_0_s1:1 3.839244e+00
2 pgm_pp4_0_s1:1 vs_17_4:A 1.000000e-03
*END

*D_NET pgm_pp4_0_s2 1.721468e-02
*CONN
*I lt_pp4_0_s2:Z O
*I vs_43_4:A I
*CAP
1 pgm_pp4_0_s2:1 1.721468e-02
*RES
1 lt_pp4_0_s2:Z pgm_pp4_0_s2:1 1.699871e+01
2 pgm_pp4_0_s2:1 vs_43_4:A 1.000000e-03
*END

*D_NET pgm_pp4_0_s3 1.691564e-02
*CONN
*I lt_pp4_0_s3:Z O
*I vs_59_4:A I
*CAP
1 pgm_pp4_0_s3:1 1.691564e-02
*RES
1 lt_pp4_0_s3:Z pgm_pp4_0_s3:1 1.805533e+01
2 pgm_pp4_0_s3:1 vs_59_4:A 1.000000e-03
*END

*D_NET pgm_pp4_10_s0 5.445013e-03
*CONN
*I lt_pp4_10_s0:Z O
*I vs_9_4:A I
*CAP
1 pgm_pp4_10_s0:1 5.445013e-03
*RES
1 lt_pp4_10_s0:Z pgm_pp4_10_s0:1 4.794529e+00
2 pgm_pp4_10_s0:1 vs_9_4:A 1.000000e-03
*END

*D_NET pgm_pp4_10_s1 3.321030e-03
*CONN
*I lt_pp4_10_s1:Z O
*I vs_26_4:A I
*CAP
1 pgm_pp4_10_s1:1 3.321030e-03
*RES
1 lt_pp4_10_s1:Z pgm_pp4_10_s1:1 3.768645e+00
2 pgm_pp4_10_s1:1 vs_26_4:A 1.000000e-03
*END

*D_NET pgm_pp4_10_s3 9.148385e-03
*CONN
*I lt_pp4_10_s3:Z O
*I vs_54_4:A I
*CAP
1 pgm_pp4_10_s3:1 9.148385e-03
*RES
1 lt_pp4_10_s3:Z pgm_pp4_10_s3:1 1.038142e+01
2 pgm_pp4_10_s3:1 vs_54_4:A 1.000000e-03
*END

*D_NET pgm_pp4_11_s1 1.248423e-02
*CONN
*I lt_pp4_11_s1:Z O
*I vs_21_4:A I
*CAP
1 pgm_pp4_11_s1:1 1.248423e-02
*RES
1 lt_pp4_11_s1:Z pgm_pp4_11_s1:1 1.416688e+01
2 pgm_pp4_11_s1:1 vs_21_4:A 1.000000e-03
*END

*D_NET pgm_pp4_12_s0 6.445065e-03
*CONN
*I lt_pp4_12_s0:Z O
*I vs_11_4:A I
*CAP
1 pgm_pp4_12_s0:1 6.445065e-03
*RES
1 lt_pp4_12_s0:Z pgm_pp4_12_s0:1 5.885550e+00
2 pgm_pp4_12_s0:1 vs_11_4:A 1.000000e-03
*END

*D_NET pgm_pp4_12_s1 1.642443e-02
*CONN
*I lt_pp4_12_s1:Z O
*I vs_20_4:A I
*CAP
1 pgm_pp4_12_s1:1 1.642443e-02
*RES
1 lt_pp4_12_s1:Z pgm_pp4_12_s1:1 1.863815e+01
2 pgm_pp4_12_s1:1 vs_20_4:A 1.000000e-03
*END

*D_NET pgm_pp4_1_s2 6.394258e-03
*CONN
*I lt_pp4_1_s2:Z O
*I vs_37_4:A I
*CAP
1 pgm_pp4_1_s2:1 6.394258e-03
*RES
1 lt_pp4_1_s2:Z pgm_pp4_1_s2:1 5.683916e+00
2 pgm_pp4_1_s2:1 vs_37_4:A 1.000000e-03
*END

*D_NET pgm_pp4_1_s3 1.235271e-02
*CONN
*I lt_pp4_1_s3:Z O
*I vs_56_4:A I
*CAP
1 pgm_pp4_1_s3:1 1.235271e-02
*RES
1 lt_pp4_1_s3:Z pgm_pp4_1_s3:1 1.172557e+01
2 pgm_pp4_1_s3:1 vs_56_4:A 1.000000e-03
*END

*D_NET pgm_pp4_2_s0 2.364888e-02
*CONN
*I lt_pp4_2_s0:Z O
*I vs_14_4:A I
*I vs_5_4:A I
*CAP
1 pgm_pp4_2_s0:1 2.364888e-02
*RES
1 lt_pp4_2_s0:Z pgm_pp4_2_s0:1 2.051192e+01
2 pgm_pp4_2_s0:1 vs_14_4:A 1.000000e-03
3 pgm_pp4_2_s0:1 vs_5_4:A 1.000000e-03
*END

*D_NET pgm_pp4_2_s1 1.731616e-02
*CONN
*I lt_pp4_2_s1:Z O
*I vs_27_4:A I
*I vs_22_4:A I
*I vs_16_4:A I
*CAP
1 pgm_pp4_2_s1:1 1.731616e-02
*RES
1 lt_pp4_2_s1:Z pgm_pp4_2_s1:1 1.965007e+01
2 pgm_pp4_2_s1:1 vs_27_4:A 1.000000e-03
3 pgm_pp4_2_s1:1 vs_22_4:A 1.000000e-03
4 pgm_pp4_2_s1:1 vs_16_4:A 1.000000e-03
*END

*D_NET pgm_pp4_2_s2 1.648665e-02
*CONN
*I lt_pp4_2_s2:Z O
*I vs_46_4:A I
*CAP
1 pgm_pp4_2_s2:1 1.648665e-02
*RES
1 lt_pp4_2_s2:Z pgm_pp4_2_s2:1 1.870875e+01
2 pgm_pp4_2_s2:1 vs_46_4:A 1.000000e-03
*END

*D_NET pgm_pp4_2_s3 4.500129e-03
*CONN
*I lt_pp4_2_s3:Z O
*I vs_48_4:A I
*CAP
1 pgm_pp4_2_s3:1 4.500129e-03
*RES
1 lt_pp4_2_s3:Z pgm_pp4_2_s3:1 5.106665e+00
2 pgm_pp4_2_s3:1 vs_48_4:A 1.000000e-03
*END

*D_NET pgm_pp4_3_s1 1.232129e-02
*CONN
*I lt_pp4_3_s1:Z O
*I vs_28_4:A I
*CAP
1 pgm_pp4_3_s1:1 1.232129e-02
*RES
1 lt_pp4_3_s1:Z pgm_pp4_3_s1:1 1.398198e+01
2 pgm_pp4_3_s1:1 vs_28_4:A 1.000000e-03
*END

*D_NET pgm_pp4_3_s2 8.206291e-03
*CONN
*I lt_pp4_3_s2:Z O
*I vs_41_4:A I
*CAP
1 pgm_pp4_3_s2:1 8.206291e-03
*RES
1 lt_pp4_3_s2:Z pgm_pp4_3_s2:1 9.312352e+00
2 pgm_pp4_3_s2:1 vs_41_4:A 1.000000e-03
*END

*D_NET pgm_pp4_5_s0 1.147696e-02
*CONN
*I lt_pp4_5_s0:Z O
*I vs_13_4:A I
*I vs_12_4:A I
*CAP
1 pgm_pp4_5_s0:1 1.147696e-02
*RES
1 lt_pp4_5_s0:Z pgm_pp4_5_s0:1 1.302385e+01
2 pgm_pp4_5_s0:1 vs_13_4:A 1.000000e-03
3 pgm_pp4_5_s0:1 vs_12_4:A 1.000000e-03
*END

*D_NET pgm_pp4_6_s0 4.574193e-03
*CONN
*I lt_pp4_6_s0:Z O
*I vs_4_4:A I
*CAP
1 pgm_pp4_6_s0:1 4.574193e-03
*RES
1 lt_pp4_6_s0:Z pgm_pp4_6_s0:1 5.190712e+00
2 pgm_pp4_6_s0:1 vs_4_4:A 1.000000e-03
*END

*D_NET pgm_pp4_7_s0 1.260647e-02
*CONN
*I lt_pp4_7_s0:Z O
*I vs_0_4:A I
*CAP
1 pgm_pp4_7_s0:1 1.260647e-02
*RES
1 lt_pp4_7_s0:Z pgm_pp4_7_s0:1 9.640076e+00
2 pgm_pp4_7_s0:1 vs_0_4:A 1.000000e-03
*END

*D_NET pgm_pp4_7_s2 2.373011e-03
*CONN
*I lt_pp4_7_s2:Z O
*I vs_39_4:A I
*CAP
1 pgm_pp4_7_s2:1 2.373011e-03
*RES
1 lt_pp4_7_s2:Z pgm_pp4_7_s2:1 2.692850e+00
2 pgm_pp4_7_s2:1 vs_39_4:A 1.000000e-03
*END

*D_NET pgm_pp4_7_s3 8.801766e-03
*CONN
*I lt_pp4_7_s3:Z O
*I vs_62_4:A I
*CAP
1 pgm_pp4_7_s3:1 8.801766e-03
*RES
1 lt_pp4_7_s3:Z pgm_pp4_7_s3:1 9.988086e+00
2 pgm_pp4_7_s3:1 vs_62_4:A 1.000000e-03
*END

*D_NET pgm_pp4_8_s2 2.775919e-03
*CONN
*I lt_pp4_8_s2:Z O
*I vs_40_4:A I
*CAP
1 pgm_pp4_8_s2:1 2.775919e-03
*RES
1 lt_pp4_8_s2:Z pgm_pp4_8_s2:1 3.150063e+00
2 pgm_pp4_8_s2:1 vs_40_4:A 1.000000e-03
*END

*D_NET pgm_pp4_8_s3 4.580118e-03
*CONN
*I lt_pp4_8_s3:Z O
*I vs_55_4:A I
*CAP
1 pgm_pp4_8_s3:1 4.580118e-03
*RES
1 lt_pp4_8_s3:Z pgm_pp4_8_s3:1 5.197436e+00
2 pgm_pp4_8_s3:1 vs_55_4:A 1.000000e-03
*END

*D_NET pgm_pp4_9_s3 2.192294e-03
*CONN
*I lt_pp4_9_s3:Z O
*I vs_60_4:A I
*CAP
1 pgm_pp4_9_s3:1 2.192294e-03
*RES
1 lt_pp4_9_s3:Z pgm_pp4_9_s3:1 2.487776e+00
2 pgm_pp4_9_s3:1 vs_60_4:A 1.000000e-03
*END

*D_NET pgm_pp5_0_s0 1.941958e-02
*CONN
*I lt_pp5_0_s0:Z O
*I vs_13_5:A I
*CAP
1 pgm_pp5_0_s0:1 1.941958e-02
*RES
1 lt_pp5_0_s0:Z pgm_pp5_0_s0:1 2.203699e+01
2 pgm_pp5_0_s0:1 vs_13_5:A 1.000000e-03
*END

*D_NET pgm_pp5_0_s3 7.080687e-03
*CONN
*I lt_pp5_0_s3:Z O
*I vs_52_5:A I
*CAP
1 pgm_pp5_0_s3:1 7.080687e-03
*RES
1 lt_pp5_0_s3:Z pgm_pp5_0_s3:1 6.174904e+00
2 pgm_pp5_0_s3:1 vs_52_5:A 1.000000e-03
*END

*D_NET pgm_pp5_10_s1 1.886531e-02
*CONN
*I lt_pp5_10_s1:Z O
*I vs_26_5:A I
*I vs_18_5:A I
*I vs_17_5:A I
*CAP
1 pgm_pp5_10_s1:1 1.886531e-02
*RES
1 lt_pp5_10_s1:Z pgm_pp5_10_s1:1 1.940970e+01
2 pgm_pp5_10_s1:1 vs_26_5:A 1.000000e-03
3 pgm_pp5_10_s1:1 vs_18_5:A 1.000000e-03
4 pgm_pp5_10_s1:1 vs_17_5:A 1.000000e-03
*END

*D_NET pgm_pp5_11_s0 1.083854e-02
*CONN
*I lt_pp5_11_s0:Z O
*I vs_15_5:A I
*I vs_9_5:A I
*CAP
1 pgm_pp5_11_s0:1 1.083854e-02
*RES
1 lt_pp5_11_s0:Z pgm_pp5_11_s0:1 1.087119e+01
2 pgm_pp5_11_s0:1 vs_15_5:A 1.000000e-03
3 pgm_pp5_11_s0:1 vs_9_5:A 1.000000e-03
*END

*D_NET pgm_pp5_11_s1 1.292698e-02
*CONN
*I lt_pp5_11_s1:Z O
*I vs_21_5:A I
*CAP
1 pgm_pp5_11_s1:1 1.292698e-02
*RES
1 lt_pp5_11_s1:Z pgm_pp5_11_s1:1 1.347899e+01
2 pgm_pp5_11_s1:1 vs_21_5:A 1.000000e-03
*END

*D_NET pgm_pp5_12_s2 1.077187e-02
*CONN
*I lt_pp5_12_s2:Z O
*I vs_46_5:A I
*I vs_40_5:A I
*CAP
1 pgm_pp5_12_s2:1 1.077187e-02
*RES
1 lt_pp5_12_s2:Z pgm_pp5_12_s2:1 1.222372e+01
2 pgm_pp5_12_s2:1 vs_46_5:A 1.000000e-03
3 pgm_pp5_12_s2:1 vs_40_5:A 1.000000e-03
*END

*D_NET pgm_pp5_1_s3 3.866141e-03
*CONN
*I lt_pp5_1_s3:Z O
*I vs_51_5:A I
*CAP
1 pgm_pp5_1_s3:1 3.866141e-03
*RES
1 lt_pp5_1_s3:Z pgm_pp5_1_s3:1 4.387227e+00
2 pgm_pp5_1_s3:1 vs_51_5:A 1.000000e-03
*END

*D_NET pgm_pp5_2_s1 9.936697e-03
*CONN
*I lt_pp5_2_s1:Z O
*I vs_24_5:A I
*CAP
1 pgm_pp5_2_s1:1 9.936697e-03
*RES
1 lt_pp5_2_s1:Z pgm_pp5_2_s1:1 1.003559e+01
2 pgm_pp5_2_s1:1 vs_24_5:A 1.000000e-03
*END

*D_NET pgm_pp5_2_s2 1.859602e-02
*CONN
*I lt_pp5_2_s2:Z O
*I vs_42_5:A I
*I vs_32_5:A I
*CAP
1 pgm_pp5_2_s2:1 1.859602e-02
*RES
1 lt_pp5_2_s2:Z pgm_pp5_2_s2:1 1.824604e+01
2 pgm_pp5_2_s2:1 vs_42_5:A 1.000000e-03
3 pgm_pp5_2_s2:1 vs_32_5:A 1.000000e-03
*END

*D_NET pgm_pp5_2_s3 1.134337e-02
*CONN
*I lt_pp5_2_s3:Z O
*I vs_57_5:A I
*CAP
1 pgm_pp5_2_s3:1 1.134337e-02
*RES
1 lt_pp5_2_s3:Z pgm_pp5_2_s3:1 1.086814e+01
2 pgm_pp5_2_s3:1 vs_57_5:A 1.000000e-03
*END

*D_NET pgm_pp5_3_s1 5.335571e-03
*CONN
*I lt_pp5_3_s1:Z O
*I vs_16_5:A I
*CAP
1 pgm_pp5_3_s1:1 5.335571e-03
*RES
1 lt_pp5_3_s1:Z pgm_pp5_3_s1:1 6.054710e+00
2 pgm_pp5_3_s1:1 vs_16_5:A 1.000000e-03
*END

*D_NET pgm_pp5_3_s2 1.278641e-02
*CONN
*I lt_pp5_3_s2:Z O
*I vs_44_5:A I
*I vs_37_5:A I
*CAP
1 pgm_pp5_3_s2:1 1.278641e-02
*RES
1 lt_pp5_3_s2:Z pgm_pp5_3_s2:1 1.450979e+01
2 pgm_pp5_3_s2:1 vs_44_5:A 1.000000e-03
3 pgm_pp5_3_s2:1 vs_37_5:A 1.000000e-03
*END

*D_NET pgm_pp5_3_s3 1.714198e-02
*CONN
*I lt_pp5_3_s3:Z O
*I vs_60_5:A I
*I vs_50_5:A I
*CAP
1 pgm_pp5_3_s3:1 1.714198e-02
*RES
1 lt_pp5_3_s3:Z pgm_pp5_3_s3:1 1.774206e+01
2 pgm_pp5_3_s3:1 vs_60_5:A 1.000000e-03
3 pgm_pp5_3_s3:1 vs_50_5:A 1.000000e-03
*END

*D_NET pgm_pp5_4_s2 2.293021e-03
*CONN
*I lt_pp5_4_s2:Z O
*I vs_38_5:A I
*CAP
1 pgm_pp5_4_s2:1 2.293021e-03
*RES
1 lt_pp5_4_s2:Z pgm_pp5_4_s2:1 2.602080e+00
2 pgm_pp5_4_s2:1 vs_38_5:A 1.000000e-03
*END

*D_NET pgm_pp5_5_s1 2.725555e-04
*CONN
*I lt_pp5_5_s1:Z O
*I vs_22_5:A I
*CAP
1 pgm_pp5_5_s1:1 2.725555e-04
*RES
1 lt_pp5_5_s1:Z pgm_pp5_5_s1:1 3.092911e-01
2 pgm_pp5_5_s1:1 vs_22_5:A 1.000000e-03
*END

*D_NET pgm_pp5_6_s0 1.590840e-02
*CONN
*I lt_pp5_6_s0:Z O
*I vs_10_5:A I
*I vs_2_5:A I
*CAP
1 pgm_pp5_6_s0:1 1.590840e-02
*RES
1 lt_pp5_6_s0:Z pgm_pp5_6_s0:1 1.405594e+01
2 pgm_pp5_6_s0:1 vs_10_5:A 1.000000e-03
3 pgm_pp5_6_s0:1 vs_2_5:A 1.000000e-03
*END

*D_NET pgm_pp5_7_s1 6.624284e-03
*CONN
*I lt_pp5_7_s1:Z O
*I vs_20_5:A I
*CAP
1 pgm_pp5_7_s1:1 6.624284e-03
*RES
1 lt_pp5_7_s1:Z pgm_pp5_7_s1:1 7.517119e+00
2 pgm_pp5_7_s1:1 vs_20_5:A 1.000000e-03
*END

*D_NET pgm_pp5_7_s2 9.601657e-03
*CONN
*I lt_pp5_7_s2:Z O
*I vs_36_5:A I
*I vs_34_5:A I
*CAP
1 pgm_pp5_7_s2:1 9.601657e-03
*RES
1 lt_pp5_7_s2:Z pgm_pp5_7_s2:1 1.089579e+01
2 pgm_pp5_7_s2:1 vs_36_5:A 1.000000e-03
3 pgm_pp5_7_s2:1 vs_34_5:A 1.000000e-03
*END

*D_NET pgm_pp6_0_s0 2.097346e-02
*CONN
*I lt_pp6_0_s0:Z O
*I vs_13_6:A I
*I vs_5_6:A I
*CAP
1 pgm_pp6_0_s0:1 2.097346e-02
*RES
1 lt_pp6_0_s0:Z pgm_pp6_0_s0:1 2.237211e+01
2 pgm_pp6_0_s0:1 vs_13_6:A 1.000000e-03
3 pgm_pp6_0_s0:1 vs_5_6:A 1.000000e-03
*END

*D_NET pgm_pp6_0_s3 1.258570e-02
*CONN
*I lt_pp6_0_s3:Z O
*I vs_55_6:A I
*I vs_54_6:A I
*CAP
1 pgm_pp6_0_s3:1 1.258570e-02
*RES
1 lt_pp6_0_s3:Z pgm_pp6_0_s3:1 1.193988e+01
2 pgm_pp6_0_s3:1 vs_55_6:A 1.000000e-03
3 pgm_pp6_0_s3:1 vs_54_6:A 1.000000e-03
*END

*D_NET pgm_pp6_10_s0 1.023861e-02
*CONN
*I lt_pp6_10_s0:Z O
*I vs_12_6:A I
*I vs_6_6:A I
*CAP
1 pgm_pp6_10_s0:1 1.023861e-02
*RES
1 lt_pp6_10_s0:Z pgm_pp6_10_s0:1 1.161859e+01
2 pgm_pp6_10_s0:1 vs_12_6:A 1.000000e-03
3 pgm_pp6_10_s0:1 vs_6_6:A 1.000000e-03
*END

*D_NET pgm_pp6_11_s1 1.863746e-02
*CONN
*I lt_pp6_11_s1:Z O
*I vs_16_6:A I
*CAP
1 pgm_pp6_11_s1:1 1.863746e-02
*RES
1 lt_pp6_11_s1:Z pgm_pp6_11_s1:1 2.114946e+01
2 pgm_pp6_11_s1:1 vs_16_6:A 1.000000e-03
*END

*D_NET pgm_pp6_12_s1 1.793656e-02
*CONN
*I lt_pp6_12_s1:Z O
*I vs_21_6:A I
*CAP
1 pgm_pp6_12_s1:1 1.793656e-02
*RES
1 lt_pp6_12_s1:Z pgm_pp6_12_s1:1 1.692178e+01
2 pgm_pp6_12_s1:1 vs_21_6:A 1.000000e-03
*END

*D_NET pgm_pp6_12_s3 2.038241e-03
*CONN
*I lt_pp6_12_s3:Z O
*I vs_63_6:A I
*CAP
1 pgm_pp6_12_s3:1 2.038241e-03
*RES
1 lt_pp6_12_s3:Z pgm_pp6_12_s3:1 2.312960e+00
2 pgm_pp6_12_s3:1 vs_63_6:A 1.000000e-03
*END

*D_NET pgm_pp6_1_s0 2.003283e-02
*CONN
*I lt_pp6_1_s0:Z O
*I vs_15_6:A I
*CAP
1 pgm_pp6_1_s0:1 2.003283e-02
*RES
1 lt_pp6_1_s0:Z pgm_pp6_1_s0:1 2.273290e+01
2 pgm_pp6_1_s0:1 vs_15_6:A 1.000000e-03
*END

*D_NET pgm_pp6_1_s1 1.108236e-02
*CONN
*I lt_pp6_1_s1:Z O
*I vs_24_6:A I
*CAP
1 pgm_pp6_1_s1:1 1.108236e-02
*RES
1 lt_pp6_1_s1:Z pgm_pp6_1_s1:1 1.143582e+01
2 pgm_pp6_1_s1:1 vs_24_6:A 1.000000e-03
*END

*D_NET pgm_pp6_2_s1 1.453432e-02
*CONN
*I lt_pp6_2_s1:Z O
*I vs_27_6:A I
*CAP
1 pgm_pp6_2_s1:1 1.453432e-02
*RES
1 lt_pp6_2_s1:Z pgm_pp6_2_s1:1 1.649329e+01
2 pgm_pp6_2_s1:1 vs_27_6:A 1.000000e-03
*END

*D_NET pgm_pp6_3_s0 1.492538e-02
*CONN
*I lt_pp6_3_s0:Z O
*I vs_14_6:A I
*CAP
1 pgm_pp6_3_s0:1 1.492538e-02
*RES
1 lt_pp6_3_s0:Z pgm_pp6_3_s0:1 1.693705e+01
2 pgm_pp6_3_s0:1 vs_14_6:A 1.000000e-03
*END

*D_NET pgm_pp6_3_s3 3.006861e-03
*CONN
*I lt_pp6_3_s3:Z O
*I vs_53_6:A I
*CAP
1 pgm_pp6_3_s3:1 3.006861e-03
*RES
1 lt_pp6_3_s3:Z pgm_pp6_3_s3:1 2.415876e+00
2 pgm_pp6_3_s3:1 vs_53_6:A 1.000000e-03
*END

*D_NET pgm_pp6_4_s1 4.171284e-03
*CONN
*I lt_pp6_4_s1:Z O
*I vs_18_6:A I
*CAP
1 pgm_pp6_4_s1:1 4.171284e-03
*RES
1 lt_pp6_4_s1:Z pgm_pp6_4_s1:1 4.733499e+00
2 pgm_pp6_4_s1:1 vs_18_6:A 1.000000e-03
*END

*D_NET pgm_pp6_4_s3 7.447876e-03
*CONN
*I lt_pp6_4_s3:Z O
*I vs_57_6:A I
*CAP
1 pgm_pp6_4_s3:1 7.447876e-03
*RES
1 lt_pp6_4_s3:Z pgm_pp6_4_s3:1 8.451716e+00
2 pgm_pp6_4_s3:1 vs_57_6:A 1.000000e-03
*END

*D_NET pgm_pp6_5_s2 5.560725e-03
*CONN
*I lt_pp6_5_s2:Z O
*I vs_34_6:A I
*CAP
1 pgm_pp6_5_s2:1 5.560725e-03
*RES
1 lt_pp6_5_s2:Z pgm_pp6_5_s2:1 6.310211e+00
2 pgm_pp6_5_s2:1 vs_34_6:A 1.000000e-03
*END

*D_NET pgm_pp6_5_s3 7.077556e-03
*CONN
*I lt_pp6_5_s3:Z O
*I vs_49_6:A I
*CAP
1 pgm_pp6_5_s3:1 7.077556e-03
*RES
1 lt_pp6_5_s3:Z pgm_pp6_5_s3:1 8.031484e+00
2 pgm_pp6_5_s3:1 vs_49_6:A 1.000000e-03
*END

*D_NET pgm_pp6_7_s3 2.150819e-03
*CONN
*I lt_pp6_7_s3:Z O
*I vs_58_6:A I
*CAP
1 pgm_pp6_7_s3:1 2.150819e-03
*RES
1 lt_pp6_7_s3:Z pgm_pp6_7_s3:1 2.440710e+00
2 pgm_pp6_7_s3:1 vs_58_6:A 1.000000e-03
*END

*D_NET pgm_pp6_8_s1 3.581735e-03
*CONN
*I lt_pp6_8_s1:Z O
*I vs_28_6:A I
*CAP
1 pgm_pp6_8_s1:1 3.581735e-03
*RES
1 lt_pp6_8_s1:Z pgm_pp6_8_s1:1 4.064489e+00
2 pgm_pp6_8_s1:1 vs_28_6:A 1.000000e-03
*END

*D_NET pgm_pp6_8_s2 7.077556e-03
*CONN
*I lt_pp6_8_s2:Z O
*I vs_37_6:A I
*CAP
1 pgm_pp6_8_s2:1 7.077556e-03
*RES
1 lt_pp6_8_s2:Z pgm_pp6_8_s2:1 8.031484e+00
2 pgm_pp6_8_s2:1 vs_37_6:A 1.000000e-03
*END

*D_NET pgm_pp6_8_s3 2.479663e-03
*CONN
*I lt_pp6_8_s3:Z O
*I vs_59_6:A I
*CAP
1 pgm_pp6_8_s3:1 2.479663e-03
*RES
1 lt_pp6_8_s3:Z pgm_pp6_8_s3:1 2.813877e+00
2 pgm_pp6_8_s3:1 vs_59_6:A 1.000000e-03
*END

*D_NET pgm_pp6_9_s2 1.453922e-02
*CONN
*I lt_pp6_9_s2:Z O
*I vs_47_6:A I
*I vs_38_6:A I
*CAP
1 pgm_pp6_9_s2:1 1.453922e-02
*RES
1 lt_pp6_9_s2:Z pgm_pp6_9_s2:1 1.521463e+01
2 pgm_pp6_9_s2:1 vs_47_6:A 1.000000e-03
3 pgm_pp6_9_s2:1 vs_38_6:A 1.000000e-03
*END

*D_NET pgm_pp7_0_s0 7.943914e-03
*CONN
*I lt_pp7_0_s0:Z O
*I vs_4_7:A I
*CAP
1 pgm_pp7_0_s0:1 7.943914e-03
*RES
1 lt_pp7_0_s0:Z pgm_pp7_0_s0:1 5.802324e+00
2 pgm_pp7_0_s0:1 vs_4_7:A 1.000000e-03
*END

*D_NET pgm_pp7_0_s1 1.857113e-02
*CONN
*I lt_pp7_0_s1:Z O
*I vs_26_7:A I
*I vs_23_7:A I
*CAP
1 pgm_pp7_0_s1:1 1.857113e-02
*RES
1 lt_pp7_0_s1:Z pgm_pp7_0_s1:1 1.878211e+01
2 pgm_pp7_0_s1:1 vs_26_7:A 1.000000e-03
3 pgm_pp7_0_s1:1 vs_23_7:A 1.000000e-03
*END

*D_NET pgm_pp7_0_s2 4.612874e-03
*CONN
*I lt_pp7_0_s2:Z O
*I vs_34_7:A I
*CAP
1 pgm_pp7_0_s2:1 4.612874e-03
*RES
1 lt_pp7_0_s2:Z pgm_pp7_0_s2:1 3.374474e+00
2 pgm_pp7_0_s2:1 vs_34_7:A 1.000000e-03
*END

*D_NET pgm_pp7_0_s3 1.029384e-02
*CONN
*I lt_pp7_0_s3:Z O
*I vs_54_7:A I
*CAP
1 pgm_pp7_0_s3:1 1.029384e-02
*RES
1 lt_pp7_0_s3:Z pgm_pp7_0_s3:1 8.919693e+00
2 pgm_pp7_0_s3:1 vs_54_7:A 1.000000e-03
*END

*D_NET pgm_pp7_10_s1 5.617999e-03
*CONN
*I lt_pp7_10_s1:Z O
*I vs_25_7:A I
*CAP
1 pgm_pp7_10_s1:1 5.617999e-03
*RES
1 lt_pp7_10_s1:Z pgm_pp7_10_s1:1 4.026794e+00
2 pgm_pp7_10_s1:1 vs_25_7:A 1.000000e-03
*END

*D_NET pgm_pp7_10_s2 3.507671e-03
*CONN
*I lt_pp7_10_s2:Z O
*I vs_46_7:A I
*CAP
1 pgm_pp7_10_s2:1 3.507671e-03
*RES
1 lt_pp7_10_s2:Z pgm_pp7_10_s2:1 3.980442e+00
2 pgm_pp7_10_s2:1 vs_46_7:A 1.000000e-03
*END

*D_NET pgm_pp7_11_s0 1.896038e-02
*CONN
*I lt_pp7_11_s0:Z O
*I vs_0_7:A I
*CAP
1 pgm_pp7_11_s0:1 1.896038e-02
*RES
1 lt_pp7_11_s0:Z pgm_pp7_11_s0:1 2.151590e+01
2 pgm_pp7_11_s0:1 vs_0_7:A 1.000000e-03
*END

*D_NET pgm_pp7_2_s2 2.434632e-02
*CONN
*I lt_pp7_2_s2:Z O
*I vs_47_7:A I
*I vs_45_7:A I
*I vs_36_7:A I
*I vs_32_7:A I
*CAP
1 pgm_pp7_2_s2:1 2.434632e-02
*RES
1 lt_pp7_2_s2:Z pgm_pp7_2_s2:1 2.762777e+01
2 pgm_pp7_2_s2:1 vs_47_7:A 1.000000e-03
3 pgm_pp7_2_s2:1 vs_45_7:A 1.000000e-03
4 pgm_pp7_2_s2:1 vs_36_7:A 1.000000e-03
5 pgm_pp7_2_s2:1 vs_32_7:A 1.000000e-03
*END

*D_NET pgm_pp7_2_s3 1.122514e-02
*CONN
*I lt_pp7_2_s3:Z O
*I vs_55_7:A I
*I vs_48_7:A I
*CAP
1 pgm_pp7_2_s3:1 1.122514e-02
*RES
1 lt_pp7_2_s3:Z pgm_pp7_2_s3:1 1.273809e+01
2 pgm_pp7_2_s3:1 vs_55_7:A 1.000000e-03
3 pgm_pp7_2_s3:1 vs_48_7:A 1.000000e-03
*END

*D_NET pgm_pp7_4_s3 4.926737e-03
*CONN
*I lt_pp7_4_s3:Z O
*I vs_56_7:A I
*CAP
1 pgm_pp7_4_s3:1 4.926737e-03
*RES
1 lt_pp7_4_s3:Z pgm_pp7_4_s3:1 5.590773e+00
2 pgm_pp7_4_s3:1 vs_56_7:A 1.000000e-03
*END

*D_NET pgm_pp7_6_s0 1.884188e-03
*CONN
*I lt_pp7_6_s0:Z O
*I vs_6_7:A I
*CAP
1 pgm_pp7_6_s0:1 1.884188e-03
*RES
1 lt_pp7_6_s0:Z pgm_pp7_6_s0:1 2.138143e+00
2 pgm_pp7_6_s0:1 vs_6_7:A 1.000000e-03
*END

*D_NET pgm_pp7_6_s1 1.306387e-02
*CONN
*I lt_pp7_6_s1:Z O
*I vs_31_7:A I
*CAP
1 pgm_pp7_6_s1:1 1.306387e-02
*RES
1 lt_pp7_6_s1:Z pgm_pp7_6_s1:1 1.354043e+01
2 pgm_pp7_6_s1:1 vs_31_7:A 1.000000e-03
*END

*D_NET pgm_pp7_6_s3 8.481022e-03
*CONN
*I lt_pp7_6_s3:Z O
*I vs_50_7:A I
*CAP
1 pgm_pp7_6_s3:1 8.481022e-03
*RES
1 lt_pp7_6_s3:Z pgm_pp7_6_s3:1 6.155166e+00
2 pgm_pp7_6_s3:1 vs_50_7:A 1.000000e-03
*END

*D_NET pgm_pp7_7_s1 5.442223e-03
*CONN
*I lt_pp7_7_s1:Z O
*I vs_24_7:A I
*I vs_22_7:A I
*CAP
1 pgm_pp7_7_s1:1 5.442223e-03
*RES
1 lt_pp7_7_s1:Z pgm_pp7_7_s1:1 6.175737e+00
2 pgm_pp7_7_s1:1 vs_24_7:A 1.000000e-03
3 pgm_pp7_7_s1:1 vs_22_7:A 1.000000e-03
*END

*D_NET pgm_pp7_7_s2 8.500776e-03
*CONN
*I lt_pp7_7_s2:Z O
*I vs_35_7:A I
*CAP
1 pgm_pp7_7_s2:1 8.500776e-03
*RES
1 lt_pp7_7_s2:Z pgm_pp7_7_s2:1 9.082210e+00
2 pgm_pp7_7_s2:1 vs_35_7:A 1.000000e-03
*END

*D_NET pgm_pp7_8_s0 1.245756e-02
*CONN
*I lt_pp7_8_s0:Z O
*I vs_1_7:A I
*CAP
1 pgm_pp7_8_s0:1 1.245756e-02
*RES
1 lt_pp7_8_s0:Z pgm_pp7_8_s0:1 1.413662e+01
2 pgm_pp7_8_s0:1 vs_1_7:A 1.000000e-03
*END

*D_NET pgm_pp7_8_s2 2.912196e-03
*CONN
*I lt_pp7_8_s2:Z O
*I vs_40_7:A I
*CAP
1 pgm_pp7_8_s2:1 2.912196e-03
*RES
1 lt_pp7_8_s2:Z pgm_pp7_8_s2:1 3.304708e+00
2 pgm_pp7_8_s2:1 vs_40_7:A 1.000000e-03
*END

*D_NET pgm_pp7_8_s3 1.898408e-02
*CONN
*I lt_pp7_8_s3:Z O
*I vs_61_7:A I
*I vs_49_7:A I
*CAP
1 pgm_pp7_8_s3:1 1.898408e-02
*RES
1 lt_pp7_8_s3:Z pgm_pp7_8_s3:1 2.154280e+01
2 pgm_pp7_8_s3:1 vs_61_7:A 1.000000e-03
3 pgm_pp7_8_s3:1 vs_49_7:A 1.000000e-03
*END

*D_NET pgm_pp7_9_s0 9.991795e-03
*CONN
*I lt_pp7_9_s0:Z O
*I vs_11_7:A I
*I vs_5_7:A I
*CAP
1 pgm_pp7_9_s0:1 9.991795e-03
*RES
1 lt_pp7_9_s0:Z pgm_pp7_9_s0:1 1.067403e+01
2 pgm_pp7_9_s0:1 vs_11_7:A 1.000000e-03
3 pgm_pp7_9_s0:1 vs_5_7:A 1.000000e-03
*END

*D_NET pgm_pp7_9_s2 1.023861e-02
*CONN
*I lt_pp7_9_s2:Z O
*I vs_39_7:A I
*I vs_37_7:A I
*CAP
1 pgm_pp7_9_s2:1 1.023861e-02
*RES
1 lt_pp7_9_s2:Z pgm_pp7_9_s2:1 1.161859e+01
2 pgm_pp7_9_s2:1 vs_39_7:A 1.000000e-03
3 pgm_pp7_9_s2:1 vs_37_7:A 1.000000e-03
*END

*D_NET pgm_pp7_9_s3 1.119671e-02
*CONN
*I lt_pp7_9_s3:Z O
*I vs_52_7:A I
*CAP
1 pgm_pp7_9_s3:1 1.119671e-02
*RES
1 lt_pp7_9_s3:Z pgm_pp7_9_s3:1 1.214150e+01
2 pgm_pp7_9_s3:1 vs_52_7:A 1.000000e-03
*END

*D_NET pgm_pp8_0_s3 1.029813e-02
*CONN
*I lt_pp8_0_s3:Z O
*I vs_54_8:A I
*CAP
1 pgm_pp8_0_s3:1 1.029813e-02
*RES
1 lt_pp8_0_s3:Z pgm_pp8_0_s3:1 8.811883e+00
2 pgm_pp8_0_s3:1 vs_54_8:A 1.000000e-03
*END

*D_NET pgm_pp8_10_s0 7.741169e-03
*CONN
*I lt_pp8_10_s0:Z O
*I vs_13_8:A I
*I vs_9_8:A I
*CAP
1 pgm_pp8_10_s0:1 7.741169e-03
*RES
1 lt_pp8_10_s0:Z pgm_pp8_10_s0:1 8.784540e+00
2 pgm_pp8_10_s0:1 vs_13_8:A 1.000000e-03
3 pgm_pp8_10_s0:1 vs_9_8:A 1.000000e-03
*END

*D_NET pgm_pp8_10_s3 2.283111e-03
*CONN
*I lt_pp8_10_s3:Z O
*I vs_60_8:A I
*CAP
1 pgm_pp8_10_s3:1 2.283111e-03
*RES
1 lt_pp8_10_s3:Z pgm_pp8_10_s3:1 1.306618e+00
2 pgm_pp8_10_s3:1 vs_60_8:A 1.000000e-03
*END

*D_NET pgm_pp8_12_s3 9.755710e-03
*CONN
*I lt_pp8_12_s3:Z O
*I vs_57_8:A I
*CAP
1 pgm_pp8_12_s3:1 9.755710e-03
*RES
1 lt_pp8_12_s3:Z pgm_pp8_12_s3:1 1.107060e+01
2 pgm_pp8_12_s3:1 vs_57_8:A 1.000000e-03
*END

*D_NET pgm_pp8_1_s0 2.314491e-02
*CONN
*I lt_pp8_1_s0:Z O
*I vs_14_8:A I
*CAP
1 pgm_pp8_1_s0:1 2.314491e-02
*RES
1 lt_pp8_1_s0:Z pgm_pp8_1_s0:1 2.096039e+01
2 pgm_pp8_1_s0:1 vs_14_8:A 1.000000e-03
*END

*D_NET pgm_pp8_1_s1 1.426459e-02
*CONN
*I lt_pp8_1_s1:Z O
*I vs_26_8:A I
*I vs_22_8:A I
*CAP
1 pgm_pp8_1_s1:1 1.426459e-02
*RES
1 lt_pp8_1_s1:Z pgm_pp8_1_s1:1 1.519094e+01
2 pgm_pp8_1_s1:1 vs_26_8:A 1.000000e-03
3 pgm_pp8_1_s1:1 vs_22_8:A 1.000000e-03
*END

*D_NET pgm_pp8_1_s2 1.840639e-02
*CONN
*I lt_pp8_1_s2:Z O
*I vs_45_8:A I
*CAP
1 pgm_pp8_1_s2:1 1.840639e-02
*RES
1 lt_pp8_1_s2:Z pgm_pp8_1_s2:1 2.088724e+01
2 pgm_pp8_1_s2:1 vs_45_8:A 1.000000e-03
*END

*D_NET pgm_pp8_2_s0 3.910579e-03
*CONN
*I lt_pp8_2_s0:Z O
*I vs_0_8:A I
*CAP
1 pgm_pp8_2_s0:1 3.910579e-03
*RES
1 lt_pp8_2_s0:Z pgm_pp8_2_s0:1 4.437655e+00
2 pgm_pp8_2_s0:1 vs_0_8:A 1.000000e-03
*END

*D_NET pgm_pp8_2_s1 1.860814e-02
*CONN
*I lt_pp8_2_s1:Z O
*I vs_29_8:A I
*I vs_23_8:A I
*I vs_17_8:A I
*CAP
1 pgm_pp8_2_s1:1 1.860814e-02
*RES
1 lt_pp8_2_s1:Z pgm_pp8_2_s1:1 2.026391e+01
2 pgm_pp8_2_s1:1 vs_29_8:A 1.000000e-03
3 pgm_pp8_2_s1:1 vs_23_8:A 1.000000e-03
4 pgm_pp8_2_s1:1 vs_17_8:A 1.000000e-03
*END

*D_NET pgm_pp8_2_s2 1.533496e-02
*CONN
*I lt_pp8_2_s2:Z O
*I vs_42_8:A I
*I vs_37_8:A I
*CAP
1 pgm_pp8_2_s2:1 1.533496e-02
*RES
1 lt_pp8_2_s2:Z pgm_pp8_2_s2:1 1.669354e+01
2 pgm_pp8_2_s2:1 vs_42_8:A 1.000000e-03
3 pgm_pp8_2_s2:1 vs_37_8:A 1.000000e-03
*END

*D_NET pgm_pp8_2_s3 4.580118e-03
*CONN
*I lt_pp8_2_s3:Z O
*I vs_53_8:A I
*CAP
1 pgm_pp8_2_s3:1 4.580118e-03
*RES
1 lt_pp8_2_s3:Z pgm_pp8_2_s3:1 5.197436e+00
2 pgm_pp8_2_s3:1 vs_53_8:A 1.000000e-03
*END

*D_NET pgm_pp8_3_s0 3.854291e-03
*CONN
*I lt_pp8_3_s0:Z O
*I vs_1_8:A I
*CAP
1 pgm_pp8_3_s0:1 3.854291e-03
*RES
1 lt_pp8_3_s0:Z pgm_pp8_3_s0:1 4.373780e+00
2 pgm_pp8_3_s0:1 vs_1_8:A 1.000000e-03
*END

*D_NET pgm_pp8_4_s0 6.745749e-03
*CONN
*I lt_pp8_4_s0:Z O
*I vs_8_8:A I
*I vs_7_8:A I
*CAP
1 pgm_pp8_4_s0:1 6.745749e-03
*RES
1 lt_pp8_4_s0:Z pgm_pp8_4_s0:1 7.654955e+00
2 pgm_pp8_4_s0:1 vs_8_8:A 1.000000e-03
3 pgm_pp8_4_s0:1 vs_7_8:A 1.000000e-03
*END

*D_NET pgm_pp8_5_s0 1.362778e-04
*CONN
*I lt_pp8_5_s0:Z O
*I vs_6_8:A I
*CAP
1 pgm_pp8_5_s0:1 1.362778e-04
*RES
1 lt_pp8_5_s0:Z pgm_pp8_5_s0:1 1.546456e-01
2 pgm_pp8_5_s0:1 vs_6_8:A 1.000000e-03
*END

*D_NET pgm_pp8_6_s1 4.301637e-03
*CONN
*I lt_pp8_6_s1:Z O
*I vs_20_8:A I
*CAP
1 pgm_pp8_6_s1:1 4.301637e-03
*RES
1 lt_pp8_6_s1:Z pgm_pp8_6_s1:1 4.881421e+00
2 pgm_pp8_6_s1:1 vs_20_8:A 1.000000e-03
*END

*D_NET pgm_pp8_6_s2 7.270122e-03
*CONN
*I lt_pp8_6_s2:Z O
*I vs_44_8:A I
*CAP
1 pgm_pp8_6_s2:1 7.270122e-03
*RES
1 lt_pp8_6_s2:Z pgm_pp8_6_s2:1 8.250004e+00
2 pgm_pp8_6_s2:1 vs_44_8:A 1.000000e-03
*END

*D_NET pgm_pp8_6_s3 1.345002e-03
*CONN
*I lt_pp8_6_s3:Z O
*I vs_56_8:A I
*CAP
1 pgm_pp8_6_s3:1 1.345002e-03
*RES
1 lt_pp8_6_s3:Z pgm_pp8_6_s3:1 1.526284e+00
2 pgm_pp8_6_s3:1 vs_56_8:A 1.000000e-03
*END

*D_NET pgm_pp8_7_s0 1.049042e-02
*CONN
*I lt_pp8_7_s0:Z O
*I vs_3_8:A I
*CAP
1 pgm_pp8_7_s0:1 1.049042e-02
*RES
1 lt_pp8_7_s0:Z pgm_pp8_7_s0:1 1.190435e+01
2 pgm_pp8_7_s0:1 vs_3_8:A 1.000000e-03
*END

*D_NET pgm_pp8_7_s2 1.515710e-02
*CONN
*I lt_pp8_7_s2:Z O
*I vs_32_8:A I
*CAP
1 pgm_pp8_7_s2:1 1.515710e-02
*RES
1 lt_pp8_7_s2:Z pgm_pp8_7_s2:1 1.207124e+01
2 pgm_pp8_7_s2:1 vs_32_8:A 1.000000e-03
*END

*D_NET pgm_pp8_7_s3 7.711544e-03
*CONN
*I lt_pp8_7_s3:Z O
*I vs_51_8:A I
*CAP
1 pgm_pp8_7_s3:1 7.711544e-03
*RES
1 lt_pp8_7_s3:Z pgm_pp8_7_s3:1 8.750922e+00
2 pgm_pp8_7_s3:1 vs_51_8:A 1.000000e-03
*END

*D_NET pgm_pp8_8_s2 7.436026e-03
*CONN
*I lt_pp8_8_s2:Z O
*I vs_38_8:A I
*CAP
1 pgm_pp8_8_s2:1 7.436026e-03
*RES
1 lt_pp8_8_s2:Z pgm_pp8_8_s2:1 8.438269e+00
2 pgm_pp8_8_s2:1 vs_38_8:A 1.000000e-03
*END

*D_NET pgm_pp8_8_s3 1.182654e-02
*CONN
*I lt_pp8_8_s3:Z O
*I vs_49_8:A I
*CAP
1 pgm_pp8_8_s3:1 1.182654e-02
*RES
1 lt_pp8_8_s3:Z pgm_pp8_8_s3:1 1.342055e+01
2 pgm_pp8_8_s3:1 vs_49_8:A 1.000000e-03
*END

*D_NET pgm_pp8_9_s0 1.636081e-03
*CONN
*I lt_pp8_9_s0:Z O
*I vs_11_8:A I
*CAP
1 pgm_pp8_9_s0:1 1.636081e-03
*RES
1 lt_pp8_9_s0:Z pgm_pp8_9_s0:1 1.148299e+00
2 pgm_pp8_9_s0:1 vs_11_8:A 1.000000e-03
*END

*D_NET pgm_pp8_9_s1 4.465769e-03
*CONN
*I lt_pp8_9_s1:Z O
*I vs_24_8:A I
*CAP
1 pgm_pp8_9_s1:1 4.465769e-03
*RES
1 lt_pp8_9_s1:Z pgm_pp8_9_s1:1 4.503357e+00
2 pgm_pp8_9_s1:1 vs_24_8:A 1.000000e-03
*END

*D_NET pgm_pp8_9_s2 5.435717e-03
*CONN
*I lt_pp8_9_s2:Z O
*I vs_40_8:A I
*CAP
1 pgm_pp8_9_s2:1 5.435717e-03
*RES
1 lt_pp8_9_s2:Z pgm_pp8_9_s2:1 5.028119e+00
2 pgm_pp8_9_s2:1 vs_40_8:A 1.000000e-03
*END

*D_NET pgm_pp9_0_s1 7.625355e-03
*CONN
*I lt_pp9_0_s1:Z O
*I vs_20_9:A I
*CAP
1 pgm_pp9_0_s1:1 7.625355e-03
*RES
1 lt_pp9_0_s1:Z pgm_pp9_0_s1:1 6.649004e+00
2 pgm_pp9_0_s1:1 vs_20_9:A 1.000000e-03
*END

*D_NET pgm_pp9_10_s3 1.223479e-02
*CONN
*I lt_pp9_10_s3:Z O
*I vs_52_9:A I
*CAP
1 pgm_pp9_10_s3:1 1.223479e-02
*RES
1 lt_pp9_10_s3:Z pgm_pp9_10_s3:1 1.274359e+01
2 pgm_pp9_10_s3:1 vs_52_9:A 1.000000e-03
*END

*D_NET pgm_pp9_11_s1 1.951304e-03
*CONN
*I lt_pp9_11_s1:Z O
*I vs_29_9:A I
*CAP
1 pgm_pp9_11_s1:1 1.951304e-03
*RES
1 lt_pp9_11_s1:Z pgm_pp9_11_s1:1 9.300901e-01
2 pgm_pp9_11_s1:1 vs_29_9:A 1.000000e-03
*END

*D_NET pgm_pp9_11_s2 7.603426e-03
*CONN
*I lt_pp9_11_s2:Z O
*I vs_41_9:A I
*CAP
1 pgm_pp9_11_s2:1 7.603426e-03
*RES
1 lt_pp9_11_s2:Z pgm_pp9_11_s2:1 7.200037e+00
2 pgm_pp9_11_s2:1 vs_41_9:A 1.000000e-03
*END

*D_NET pgm_pp9_12_s0 1.267741e-02
*CONN
*I lt_pp9_12_s0:Z O
*I vs_13_9:A I
*I vs_12_9:A I
*I vs_7_9:A I
*CAP
1 pgm_pp9_12_s0:1 1.267741e-02
*RES
1 lt_pp9_12_s0:Z pgm_pp9_12_s0:1 1.266994e+01
2 pgm_pp9_12_s0:1 vs_13_9:A 1.000000e-03
3 pgm_pp9_12_s0:1 vs_12_9:A 1.000000e-03
4 pgm_pp9_12_s0:1 vs_7_9:A 1.000000e-03
*END

*D_NET pgm_pp9_12_s1 2.390786e-03
*CONN
*I lt_pp9_12_s1:Z O
*I vs_31_9:A I
*CAP
1 pgm_pp9_12_s1:1 2.390786e-03
*RES
1 lt_pp9_12_s1:Z pgm_pp9_12_s1:1 2.713021e+00
2 pgm_pp9_12_s1:1 vs_31_9:A 1.000000e-03
*END

*D_NET pgm_pp9_12_s3 1.646918e-02
*CONN
*I lt_pp9_12_s3:Z O
*I vs_63_9:A I
*I vs_53_9:A I
*CAP
1 pgm_pp9_12_s3:1 1.646918e-02
*RES
1 lt_pp9_12_s3:Z pgm_pp9_12_s3:1 1.783665e+01
2 pgm_pp9_12_s3:1 vs_63_9:A 1.000000e-03
3 pgm_pp9_12_s3:1 vs_53_9:A 1.000000e-03
*END

*D_NET pgm_pp9_1_s0 2.521139e-03
*CONN
*I lt_pp9_1_s0:Z O
*I vs_2_9:A I
*CAP
1 pgm_pp9_1_s0:1 2.521139e-03
*RES
1 lt_pp9_1_s0:Z pgm_pp9_1_s0:1 2.860943e+00
2 pgm_pp9_1_s0:1 vs_2_9:A 1.000000e-03
*END

*D_NET pgm_pp9_1_s1 3.276591e-03
*CONN
*I lt_pp9_1_s1:Z O
*I vs_18_9:A I
*CAP
1 pgm_pp9_1_s1:1 3.276591e-03
*RES
1 lt_pp9_1_s1:Z pgm_pp9_1_s1:1 3.718217e+00
2 pgm_pp9_1_s1:1 vs_18_9:A 1.000000e-03
*END

*D_NET pgm_pp9_2_s0 9.936732e-03
*CONN
*I lt_pp9_2_s0:Z O
*I vs_9_9:A I
*CAP
1 pgm_pp9_2_s0:1 9.936732e-03
*RES
1 lt_pp9_2_s0:Z pgm_pp9_2_s0:1 1.042375e+01
2 pgm_pp9_2_s0:1 vs_9_9:A 1.000000e-03
*END

*D_NET pgm_pp9_2_s1 6.616450e-03
*CONN
*I lt_pp9_2_s1:Z O
*I vs_22_9:A I
*CAP
1 pgm_pp9_2_s1:1 6.616450e-03
*RES
1 lt_pp9_2_s1:Z pgm_pp9_2_s1:1 5.936056e+00
2 pgm_pp9_2_s1:1 vs_22_9:A 1.000000e-03
*END

*D_NET pgm_pp9_3_s2 5.708853e-03
*CONN
*I lt_pp9_3_s2:Z O
*I vs_39_9:A I
*CAP
1 pgm_pp9_3_s2:1 5.708853e-03
*RES
1 lt_pp9_3_s2:Z pgm_pp9_3_s2:1 6.478304e+00
2 pgm_pp9_3_s2:1 vs_39_9:A 1.000000e-03
*END

*D_NET pgm_pp9_4_s3 5.148929e-03
*CONN
*I lt_pp9_4_s3:Z O
*I vs_50_9:A I
*CAP
1 pgm_pp9_4_s3:1 5.148929e-03
*RES
1 lt_pp9_4_s3:Z pgm_pp9_4_s3:1 5.842913e+00
2 pgm_pp9_4_s3:1 vs_50_9:A 1.000000e-03
*END

*D_NET pgm_pp9_5_s1 8.644750e-03
*CONN
*I lt_pp9_5_s1:Z O
*I vs_16_9:A I
*CAP
1 pgm_pp9_5_s1:1 8.644750e-03
*RES
1 lt_pp9_5_s1:Z pgm_pp9_5_s1:1 9.809907e+00
2 pgm_pp9_5_s1:1 vs_16_9:A 1.000000e-03
*END

*D_NET pgm_pp9_6_s0 1.158259e-02
*CONN
*I lt_pp9_6_s0:Z O
*I vs_8_9:A I
*I vs_1_9:A I
*CAP
1 pgm_pp9_6_s0:1 1.158259e-02
*RES
1 lt_pp9_6_s0:Z pgm_pp9_6_s0:1 1.185950e+01
2 pgm_pp9_6_s0:1 vs_8_9:A 1.000000e-03
3 pgm_pp9_6_s0:1 vs_1_9:A 1.000000e-03
*END

*D_NET pgm_pp9_6_s1 1.282196e-02
*CONN
*I lt_pp9_6_s1:Z O
*I vs_27_9:A I
*I vs_19_9:A I
*CAP
1 pgm_pp9_6_s1:1 1.282196e-02
*RES
1 lt_pp9_6_s1:Z pgm_pp9_6_s1:1 1.455013e+01
2 pgm_pp9_6_s1:1 vs_27_9:A 1.000000e-03
3 pgm_pp9_6_s1:1 vs_19_9:A 1.000000e-03
*END

*D_NET pgm_pp9_8_s1 1.209910e-02
*CONN
*I lt_pp9_8_s1:Z O
*I vs_17_9:A I
*CAP
1 pgm_pp9_8_s1:1 1.209910e-02
*RES
1 lt_pp9_8_s1:Z pgm_pp9_8_s1:1 1.372984e+01
2 pgm_pp9_8_s1:1 vs_17_9:A 1.000000e-03
*END

*D_NET pgm_pp9_9_s2 8.875830e-03
*CONN
*I lt_pp9_9_s2:Z O
*I vs_37_9:A I
*CAP
1 pgm_pp9_9_s2:1 8.875830e-03
*RES
1 lt_pp9_9_s2:Z pgm_pp9_9_s2:1 1.007213e+01
2 pgm_pp9_9_s2:1 vs_37_9:A 1.000000e-03
*END

