*SPEF "ieee 1481-1999"
*DESIGN "top"
*DATE "r3"
*VENDOR "r3_prog_spef"
*PROGRAM "r3_prog_spef.py"
*VERSION "1"
*DESIGN_FLOW "NAME_SCOPE LOCAL" "PIN_CAP NONE"
*DIVIDER /
*DELIMITER :
*BUS_DELIMITER []
*T_UNIT 1 NS
*C_UNIT 1 PF
*R_UNIT 1 OHM
*L_UNIT 1 HENRY

*D_NET pgm_pn0_10_s0 1.778400e-02
*CONN
*I lt_pn0_10_s0:Z O
*I vs_2_0:A I
*CAP
1 pgm_pn0_10_s0:1 1.778400e-02
*RES
1 lt_pn0_10_s0:Z pgm_pn0_10_s0:1 1.475265e+01
2 pgm_pn0_10_s0:1 vs_2_0:A 1.000000e-03
*END

*D_NET pgm_pn0_10_s2 1.523331e-02
*CONN
*I lt_pn0_10_s2:Z O
*I vs_43_0:A I
*I vs_37_0:A I
*I vs_36_0:A I
*CAP
1 pgm_pn0_10_s2:1 1.523331e-02
*RES
1 lt_pn0_10_s2:Z pgm_pn0_10_s2:1 1.590211e+01
2 pgm_pn0_10_s2:1 vs_43_0:A 1.000000e-03
3 pgm_pn0_10_s2:1 vs_37_0:A 1.000000e-03
4 pgm_pn0_10_s2:1 vs_36_0:A 1.000000e-03
*END

*D_NET pgm_pn0_10_s3 1.831856e-02
*CONN
*I lt_pn0_10_s3:Z O
*I vs_55_0:A I
*I vs_49_0:A I
*CAP
1 pgm_pn0_10_s3:1 1.831856e-02
*RES
1 lt_pn0_10_s3:Z pgm_pn0_10_s3:1 1.921540e+01
2 pgm_pn0_10_s3:1 vs_55_0:A 1.000000e-03
3 pgm_pn0_10_s3:1 vs_49_0:A 1.000000e-03
*END

*D_NET pgm_pn0_11_s1 6.600004e-03
*CONN
*I lt_pn0_11_s1:Z O
*I vs_29_0:A I
*I vs_26_0:A I
*CAP
1 pgm_pn0_11_s1:1 6.600004e-03
*RES
1 lt_pn0_11_s1:Z pgm_pn0_11_s1:1 6.349330e+00
2 pgm_pn0_11_s1:1 vs_29_0:A 1.000000e-03
3 pgm_pn0_11_s1:1 vs_26_0:A 1.000000e-03
*END

*D_NET pgm_pn0_11_s2 1.949960e-02
*CONN
*I lt_pn0_11_s2:Z O
*I vs_42_0:A I
*I vs_41_0:A I
*I vs_35_0:A I
*CAP
1 pgm_pn0_11_s2:1 1.949960e-02
*RES
1 lt_pn0_11_s2:Z pgm_pn0_11_s2:1 1.927141e+01
2 pgm_pn0_11_s2:1 vs_42_0:A 1.000000e-03
3 pgm_pn0_11_s2:1 vs_41_0:A 1.000000e-03
4 pgm_pn0_11_s2:1 vs_35_0:A 1.000000e-03
*END

*D_NET pgm_pn0_11_s3 1.713354e-02
*CONN
*I lt_pn0_11_s3:Z O
*I vs_50_0:A I
*CAP
1 pgm_pn0_11_s3:1 1.713354e-02
*RES
1 lt_pn0_11_s3:Z pgm_pn0_11_s3:1 1.787066e+01
2 pgm_pn0_11_s3:1 vs_50_0:A 1.000000e-03
*END

*D_NET pgm_pn0_12_s0 2.575057e-02
*CONN
*I lt_pn0_12_s0:Z O
*I vs_13_0:A I
*I vs_0_0:A I
*CAP
1 pgm_pn0_12_s0:1 2.575057e-02
*RES
1 lt_pn0_12_s0:Z pgm_pn0_12_s0:1 2.922129e+01
2 pgm_pn0_12_s0:1 vs_13_0:A 1.000000e-03
3 pgm_pn0_12_s0:1 vs_0_0:A 1.000000e-03
*END

*D_NET pgm_pn0_12_s1 1.836212e-02
*CONN
*I lt_pn0_12_s1:Z O
*I vs_18_0:A I
*CAP
1 pgm_pn0_12_s1:1 1.836212e-02
*RES
1 lt_pn0_12_s1:Z pgm_pn0_12_s1:1 1.897687e+01
2 pgm_pn0_12_s1:1 vs_18_0:A 1.000000e-03
*END

*D_NET pgm_pn0_12_s3 1.353862e-02
*CONN
*I lt_pn0_12_s3:Z O
*I vs_54_0:A I
*CAP
1 pgm_pn0_12_s3:1 1.353862e-02
*RES
1 lt_pn0_12_s3:Z pgm_pn0_12_s3:1 1.335928e+01
2 pgm_pn0_12_s3:1 vs_54_0:A 1.000000e-03
*END

*D_NET pgm_pn0_1_s1 1.648665e-02
*CONN
*I lt_pn0_1_s1:Z O
*I vs_30_0:A I
*CAP
1 pgm_pn0_1_s1:1 1.648665e-02
*RES
1 lt_pn0_1_s1:Z pgm_pn0_1_s1:1 1.870875e+01
2 pgm_pn0_1_s1:1 vs_30_0:A 1.000000e-03
*END

*D_NET pgm_pn0_3_s0 6.813888e-04
*CONN
*I lt_pn0_3_s0:Z O
*I vs_4_0:A I
*CAP
1 pgm_pn0_3_s0:1 6.813888e-04
*RES
1 lt_pn0_3_s0:Z pgm_pn0_3_s0:1 7.732278e-01
2 pgm_pn0_3_s0:1 vs_4_0:A 1.000000e-03
*END

*D_NET pgm_pn0_6_s0 4.574193e-03
*CONN
*I lt_pn0_6_s0:Z O
*I vs_11_0:A I
*CAP
1 pgm_pn0_6_s0:1 4.574193e-03
*RES
1 lt_pn0_6_s0:Z pgm_pn0_6_s0:1 5.190712e+00
2 pgm_pn0_6_s0:1 vs_11_0:A 1.000000e-03
*END

*D_NET pgm_pn0_6_s1 8.058163e-04
*CONN
*I lt_pn0_6_s1:Z O
*I vs_23_0:A I
*CAP
1 pgm_pn0_6_s1:1 8.058163e-04
*RES
1 lt_pn0_6_s1:Z pgm_pn0_6_s1:1 9.144259e-01
2 pgm_pn0_6_s1:1 vs_23_0:A 1.000000e-03
*END

*D_NET pgm_pn0_6_s2 1.004604e-02
*CONN
*I lt_pn0_6_s2:Z O
*I vs_33_0:A I
*CAP
1 pgm_pn0_6_s2:1 1.004604e-02
*RES
1 lt_pn0_6_s2:Z pgm_pn0_6_s2:1 1.140007e+01
2 pgm_pn0_6_s2:1 vs_33_0:A 1.000000e-03
*END

*D_NET pgm_pn0_8_s0 5.027464e-03
*CONN
*I lt_pn0_8_s0:Z O
*I vs_14_0:A I
*CAP
1 pgm_pn0_8_s0:1 5.027464e-03
*RES
1 lt_pn0_8_s0:Z pgm_pn0_8_s0:1 5.705076e+00
2 pgm_pn0_8_s0:1 vs_14_0:A 1.000000e-03
*END

*D_NET pgm_pn0_8_s1 1.304415e-02
*CONN
*I lt_pn0_8_s1:Z O
*I vs_27_0:A I
*I vs_19_0:A I
*CAP
1 pgm_pn0_8_s1:1 1.304415e-02
*RES
1 lt_pn0_8_s1:Z pgm_pn0_8_s1:1 1.480227e+01
2 pgm_pn0_8_s1:1 vs_27_0:A 1.000000e-03
3 pgm_pn0_8_s1:1 vs_19_0:A 1.000000e-03
*END

*D_NET pgm_pn0_8_s2 7.381371e-03
*CONN
*I lt_pn0_8_s2:Z O
*I vs_38_0:A I
*CAP
1 pgm_pn0_8_s2:1 7.381371e-03
*RES
1 lt_pn0_8_s2:Z pgm_pn0_8_s2:1 7.955909e+00
2 pgm_pn0_8_s2:1 vs_38_0:A 1.000000e-03
*END

*D_NET pgm_pn0_9_s2 1.906407e-02
*CONN
*I lt_pn0_9_s2:Z O
*I vs_47_0:A I
*I vs_34_0:A I
*CAP
1 pgm_pn0_9_s2:1 1.906407e-02
*RES
1 lt_pn0_9_s2:Z pgm_pn0_9_s2:1 2.163357e+01
2 pgm_pn0_9_s2:1 vs_47_0:A 1.000000e-03
3 pgm_pn0_9_s2:1 vs_34_0:A 1.000000e-03
*END

*D_NET pgm_pn0_9_s3 9.432791e-03
*CONN
*I lt_pn0_9_s3:Z O
*I vs_62_0:A I
*I vs_59_0:A I
*I vs_56_0:A I
*CAP
1 pgm_pn0_9_s3:1 9.432791e-03
*RES
1 lt_pn0_9_s3:Z pgm_pn0_9_s3:1 1.070416e+01
2 pgm_pn0_9_s3:1 vs_62_0:A 1.000000e-03
3 pgm_pn0_9_s3:1 vs_59_0:A 1.000000e-03
4 pgm_pn0_9_s3:1 vs_56_0:A 1.000000e-03
*END

*D_NET pgm_pn10_10_s0 1.786424e-02
*CONN
*I lt_pn10_10_s0:Z O
*I vs_1_10:A I
*CAP
1 pgm_pn10_10_s0:1 1.786424e-02
*RES
1 lt_pn10_10_s0:Z pgm_pn10_10_s0:1 2.027202e+01
2 pgm_pn10_10_s0:1 vs_1_10:A 1.000000e-03
*END

*D_NET pgm_pn10_10_s1 1.113939e-02
*CONN
*I lt_pn10_10_s1:Z O
*I vs_31_10:A I
*I vs_25_10:A I
*CAP
1 pgm_pn10_10_s1:1 1.113939e-02
*RES
1 lt_pn10_10_s1:Z pgm_pn10_10_s1:1 1.078065e+01
2 pgm_pn10_10_s1:1 vs_31_10:A 1.000000e-03
3 pgm_pn10_10_s1:1 vs_25_10:A 1.000000e-03
*END

*D_NET pgm_pn10_10_s3 8.871435e-03
*CONN
*I lt_pn10_10_s3:Z O
*I vs_63_10:A I
*I vs_58_10:A I
*CAP
1 pgm_pn10_10_s3:1 8.871435e-03
*RES
1 lt_pn10_10_s3:Z pgm_pn10_10_s3:1 8.482452e+00
2 pgm_pn10_10_s3:1 vs_63_10:A 1.000000e-03
3 pgm_pn10_10_s3:1 vs_58_10:A 1.000000e-03
*END

*D_NET pgm_pn10_11_s2 1.814421e-02
*CONN
*I lt_pn10_11_s2:Z O
*I vs_41_10:A I
*I vs_35_10:A I
*CAP
1 pgm_pn10_11_s2:1 1.814421e-02
*RES
1 lt_pn10_11_s2:Z pgm_pn10_11_s2:1 1.916153e+01
2 pgm_pn10_11_s2:1 vs_41_10:A 1.000000e-03
3 pgm_pn10_11_s2:1 vs_35_10:A 1.000000e-03
*END

*D_NET pgm_pn10_12_s0 1.497278e-02
*CONN
*I lt_pn10_12_s0:Z O
*I vs_6_10:A I
*I vs_5_10:A I
*CAP
1 pgm_pn10_12_s0:1 1.497278e-02
*RES
1 lt_pn10_12_s0:Z pgm_pn10_12_s0:1 1.699084e+01
2 pgm_pn10_12_s0:1 vs_6_10:A 1.000000e-03
3 pgm_pn10_12_s0:1 vs_5_10:A 1.000000e-03
*END

*D_NET pgm_pn10_12_s1 2.132154e-02
*CONN
*I lt_pn10_12_s1:Z O
*I vs_17_10:A I
*CAP
1 pgm_pn10_12_s1:1 2.132154e-02
*RES
1 lt_pn10_12_s1:Z pgm_pn10_12_s1:1 2.419531e+01
2 pgm_pn10_12_s1:1 vs_17_10:A 1.000000e-03
*END

*D_NET pgm_pn10_12_s2 2.258673e-02
*CONN
*I lt_pn10_12_s2:Z O
*I vs_46_10:A I
*I vs_32_10:A I
*CAP
1 pgm_pn10_12_s2:1 2.258673e-02
*RES
1 lt_pn10_12_s2:Z pgm_pn10_12_s2:1 2.377088e+01
2 pgm_pn10_12_s2:1 vs_46_10:A 1.000000e-03
3 pgm_pn10_12_s2:1 vs_32_10:A 1.000000e-03
*END

*D_NET pgm_pn10_12_s3 1.351670e-02
*CONN
*I lt_pn10_12_s3:Z O
*I vs_54_10:A I
*CAP
1 pgm_pn10_12_s3:1 1.351670e-02
*RES
1 lt_pn10_12_s3:Z pgm_pn10_12_s3:1 1.391031e+01
2 pgm_pn10_12_s3:1 vs_54_10:A 1.000000e-03
*END

*D_NET pgm_pn10_3_s0 1.287232e-02
*CONN
*I lt_pn10_3_s0:Z O
*I vs_13_10:A I
*CAP
1 pgm_pn10_3_s0:1 1.287232e-02
*RES
1 lt_pn10_3_s0:Z pgm_pn10_3_s0:1 1.460728e+01
2 pgm_pn10_3_s0:1 vs_13_10:A 1.000000e-03
*END

*D_NET pgm_pn10_3_s1 1.119241e-02
*CONN
*I lt_pn10_3_s1:Z O
*I vs_27_10:A I
*CAP
1 pgm_pn10_3_s1:1 1.119241e-02
*RES
1 lt_pn10_3_s1:Z pgm_pn10_3_s1:1 1.170470e+01
2 pgm_pn10_3_s1:1 vs_27_10:A 1.000000e-03
*END

*D_NET pgm_pn10_3_s2 1.085482e-02
*CONN
*I lt_pn10_3_s2:Z O
*I vs_44_10:A I
*CAP
1 pgm_pn10_3_s2:1 1.085482e-02
*RES
1 lt_pn10_3_s2:Z pgm_pn10_3_s2:1 1.231786e+01
2 pgm_pn10_3_s2:1 vs_44_10:A 1.000000e-03
*END

*D_NET pgm_pn10_4_s0 1.216131e-02
*CONN
*I lt_pn10_4_s0:Z O
*I vs_14_10:A I
*CAP
1 pgm_pn10_4_s0:1 1.216131e-02
*RES
1 lt_pn10_4_s0:Z pgm_pn10_4_s0:1 1.380044e+01
2 pgm_pn10_4_s0:1 vs_14_10:A 1.000000e-03
*END

*D_NET pgm_pn10_5_s2 4.888224e-04
*CONN
*I lt_pn10_5_s2:Z O
*I vs_39_10:A I
*CAP
1 pgm_pn10_5_s2:1 4.888224e-04
*RES
1 lt_pn10_5_s2:Z pgm_pn10_5_s2:1 5.547069e-01
2 pgm_pn10_5_s2:1 vs_39_10:A 1.000000e-03
*END

*D_NET pgm_pn10_6_s0 5.868831e-03
*CONN
*I lt_pn10_6_s0:Z O
*I vs_12_10:A I
*CAP
1 pgm_pn10_6_s0:1 5.868831e-03
*RES
1 lt_pn10_6_s0:Z pgm_pn10_6_s0:1 6.659845e+00
2 pgm_pn10_6_s0:1 vs_12_10:A 1.000000e-03
*END

*D_NET pgm_pn10_9_s0 1.915043e-02
*CONN
*I lt_pn10_9_s0:Z O
*I vs_0_10:A I
*CAP
1 pgm_pn10_9_s0:1 1.915043e-02
*RES
1 lt_pn10_9_s0:Z pgm_pn10_9_s0:1 1.861943e+01
2 pgm_pn10_9_s0:1 vs_0_10:A 1.000000e-03
*END

*D_NET pgm_pn10_9_s1 7.200518e-03
*CONN
*I lt_pn10_9_s1:Z O
*I vs_23_10:A I
*CAP
1 pgm_pn10_9_s1:1 7.200518e-03
*RES
1 lt_pn10_9_s1:Z pgm_pn10_9_s1:1 6.742824e+00
2 pgm_pn10_9_s1:1 vs_23_10:A 1.000000e-03
*END

*D_NET pgm_pn10_9_s2 2.832207e-03
*CONN
*I lt_pn10_9_s2:Z O
*I vs_45_10:A I
*CAP
1 pgm_pn10_9_s2:1 2.832207e-03
*RES
1 lt_pn10_9_s2:Z pgm_pn10_9_s2:1 3.213938e+00
2 pgm_pn10_9_s2:1 vs_45_10:A 1.000000e-03
*END

*D_NET pgm_pn10_9_s3 1.484464e-02
*CONN
*I lt_pn10_9_s3:Z O
*I vs_60_10:A I
*I vs_51_10:A I
*CAP
1 pgm_pn10_9_s3:1 1.484464e-02
*RES
1 lt_pn10_9_s3:Z pgm_pn10_9_s3:1 1.430922e+01
2 pgm_pn10_9_s3:1 vs_60_10:A 1.000000e-03
3 pgm_pn10_9_s3:1 vs_51_10:A 1.000000e-03
*END

*D_NET pgm_pn11_10_s0 1.039549e-02
*CONN
*I lt_pn11_10_s0:Z O
*I vs_5_11:A I
*CAP
1 pgm_pn11_10_s0:1 1.039549e-02
*RES
1 lt_pn11_10_s0:Z pgm_pn11_10_s0:1 1.080035e+01
2 pgm_pn11_10_s0:1 vs_5_11:A 1.000000e-03
*END

*D_NET pgm_pn11_10_s1 5.572575e-03
*CONN
*I lt_pn11_10_s1:Z O
*I vs_25_11:A I
*CAP
1 pgm_pn11_10_s1:1 5.572575e-03
*RES
1 lt_pn11_10_s1:Z pgm_pn11_10_s1:1 6.323659e+00
2 pgm_pn11_10_s1:1 vs_25_11:A 1.000000e-03
*END

*D_NET pgm_pn11_10_s2 8.496381e-03
*CONN
*I lt_pn11_10_s2:Z O
*I vs_43_11:A I
*I vs_40_11:A I
*CAP
1 pgm_pn11_10_s2:1 8.496381e-03
*RES
1 lt_pn11_10_s2:Z pgm_pn11_10_s2:1 7.480930e+00
2 pgm_pn11_10_s2:1 vs_43_11:A 1.000000e-03
3 pgm_pn11_10_s2:1 vs_40_11:A 1.000000e-03
*END

*D_NET pgm_pn11_10_s3 4.212760e-03
*CONN
*I lt_pn11_10_s3:Z O
*I vs_59_11:A I
*CAP
1 pgm_pn11_10_s3:1 4.212760e-03
*RES
1 lt_pn11_10_s3:Z pgm_pn11_10_s3:1 4.780565e+00
2 pgm_pn11_10_s3:1 vs_59_11:A 1.000000e-03
*END

*D_NET pgm_pn11_11_s0 1.139499e-02
*CONN
*I lt_pn11_11_s0:Z O
*I vs_6_11:A I
*CAP
1 pgm_pn11_11_s0:1 1.139499e-02
*RES
1 lt_pn11_11_s0:Z pgm_pn11_11_s0:1 1.058242e+01
2 pgm_pn11_11_s0:1 vs_6_11:A 1.000000e-03
*END

*D_NET pgm_pn11_11_s1 1.343109e-02
*CONN
*I lt_pn11_11_s1:Z O
*I vs_30_11:A I
*I vs_29_11:A I
*I vs_23_11:A I
*I vs_22_11:A I
*CAP
1 pgm_pn11_11_s1:1 1.343109e-02
*RES
1 lt_pn11_11_s1:Z pgm_pn11_11_s1:1 1.296089e+01
2 pgm_pn11_11_s1:1 vs_30_11:A 1.000000e-03
3 pgm_pn11_11_s1:1 vs_29_11:A 1.000000e-03
4 pgm_pn11_11_s1:1 vs_23_11:A 1.000000e-03
5 pgm_pn11_11_s1:1 vs_22_11:A 1.000000e-03
*END

*D_NET pgm_pn11_11_s2 1.025417e-02
*CONN
*I lt_pn11_11_s2:Z O
*I vs_39_11:A I
*CAP
1 pgm_pn11_11_s2:1 1.025417e-02
*RES
1 lt_pn11_11_s2:Z pgm_pn11_11_s2:1 1.092795e+01
2 pgm_pn11_11_s2:1 vs_39_11:A 1.000000e-03
*END

*D_NET pgm_pn11_12_s2 1.540000e-02
*CONN
*I lt_pn11_12_s2:Z O
*I vs_36_11:A I
*CAP
1 pgm_pn11_12_s2:1 1.540000e-02
*RES
1 lt_pn11_12_s2:Z pgm_pn11_12_s2:1 1.575949e+01
2 pgm_pn11_12_s2:1 vs_36_11:A 1.000000e-03
*END

*D_NET pgm_pn11_1_s3 1.492538e-02
*CONN
*I lt_pn11_1_s3:Z O
*I vs_61_11:A I
*CAP
1 pgm_pn11_1_s3:1 1.492538e-02
*RES
1 lt_pn11_1_s3:Z pgm_pn11_1_s3:1 1.693705e+01
2 pgm_pn11_1_s3:1 vs_61_11:A 1.000000e-03
*END

*D_NET pgm_pn11_3_s1 5.868831e-03
*CONN
*I lt_pn11_3_s1:Z O
*I vs_16_11:A I
*CAP
1 pgm_pn11_3_s1:1 5.868831e-03
*RES
1 lt_pn11_3_s1:Z pgm_pn11_3_s1:1 6.659845e+00
2 pgm_pn11_3_s1:1 vs_16_11:A 1.000000e-03
*END

*D_NET pgm_pn11_3_s3 1.096859e-02
*CONN
*I lt_pn11_3_s3:Z O
*I vs_60_11:A I
*CAP
1 pgm_pn11_3_s3:1 1.096859e-02
*RES
1 lt_pn11_3_s3:Z pgm_pn11_3_s3:1 1.188264e+01
2 pgm_pn11_3_s3:1 vs_60_11:A 1.000000e-03
*END

*D_NET pgm_pn11_4_s0 7.530828e-03
*CONN
*I lt_pn11_4_s0:Z O
*I vs_11_11:A I
*CAP
1 pgm_pn11_4_s0:1 7.530828e-03
*RES
1 lt_pn11_4_s0:Z pgm_pn11_4_s0:1 8.545848e+00
2 pgm_pn11_4_s0:1 vs_11_11:A 1.000000e-03
*END

*D_NET pgm_pn11_7_s3 1.481280e-03
*CONN
*I lt_pn11_7_s3:Z O
*I vs_56_11:A I
*CAP
1 pgm_pn11_7_s3:1 1.481280e-03
*RES
1 lt_pn11_7_s3:Z pgm_pn11_7_s3:1 1.680930e+00
2 pgm_pn11_7_s3:1 vs_56_11:A 1.000000e-03
*END

*D_NET pgm_pn11_8_s2 6.600584e-03
*CONN
*I lt_pn11_8_s2:Z O
*I vs_38_11:A I
*CAP
1 pgm_pn11_8_s2:1 6.600584e-03
*RES
1 lt_pn11_8_s2:Z pgm_pn11_8_s2:1 7.490224e+00
2 pgm_pn11_8_s2:1 vs_38_11:A 1.000000e-03
*END

*D_NET pgm_pn11_9_s0 5.302811e-03
*CONN
*I lt_pn11_9_s0:Z O
*I vs_8_11:A I
*CAP
1 pgm_pn11_9_s0:1 5.302811e-03
*RES
1 lt_pn11_9_s0:Z pgm_pn11_9_s0:1 4.633160e+00
2 pgm_pn11_9_s0:1 vs_8_11:A 1.000000e-03
*END

*D_NET pgm_pn11_9_s1 1.589015e-02
*CONN
*I lt_pn11_9_s1:Z O
*I vs_28_11:A I
*I vs_21_11:A I
*I vs_18_11:A I
*CAP
1 pgm_pn11_9_s1:1 1.589015e-02
*RES
1 lt_pn11_9_s1:Z pgm_pn11_9_s1:1 1.674764e+01
2 pgm_pn11_9_s1:1 vs_28_11:A 1.000000e-03
3 pgm_pn11_9_s1:1 vs_21_11:A 1.000000e-03
4 pgm_pn11_9_s1:1 vs_18_11:A 1.000000e-03
*END

*D_NET pgm_pn11_9_s2 1.880041e-02
*CONN
*I lt_pn11_9_s2:Z O
*I vs_46_11:A I
*I vs_44_11:A I
*I vs_34_11:A I
*CAP
1 pgm_pn11_9_s2:1 1.880041e-02
*RES
1 lt_pn11_9_s2:Z pgm_pn11_9_s2:1 2.133436e+01
2 pgm_pn11_9_s2:1 vs_46_11:A 1.000000e-03
3 pgm_pn11_9_s2:1 vs_44_11:A 1.000000e-03
4 pgm_pn11_9_s2:1 vs_34_11:A 1.000000e-03
*END

*D_NET pgm_pn11_9_s3 1.042821e-02
*CONN
*I lt_pn11_9_s3:Z O
*I vs_53_11:A I
*CAP
1 pgm_pn11_9_s3:1 1.042821e-02
*RES
1 lt_pn11_9_s3:Z pgm_pn11_9_s3:1 1.183375e+01
2 pgm_pn11_9_s3:1 vs_53_11:A 1.000000e-03
*END

*D_NET pgm_pn12_0_s2 8.732840e-03
*CONN
*I lt_pn12_0_s2:Z O
*I vs_38_12:A I
*CAP
1 pgm_pn12_0_s2:1 8.732840e-03
*RES
1 lt_pn12_0_s2:Z pgm_pn12_0_s2:1 6.985543e+00
2 pgm_pn12_0_s2:1 vs_38_12:A 1.000000e-03
*END

*D_NET pgm_pn12_0_s3 1.926257e-02
*CONN
*I lt_pn12_0_s3:Z O
*I vs_63_12:A I
*CAP
1 pgm_pn12_0_s3:1 1.926257e-02
*RES
1 lt_pn12_0_s3:Z pgm_pn12_0_s3:1 2.185881e+01
2 pgm_pn12_0_s3:1 vs_63_12:A 1.000000e-03
*END

*D_NET pgm_pn12_10_s0 1.813178e-02
*CONN
*I lt_pn12_10_s0:Z O
*I vs_8_12:A I
*I vs_1_12:A I
*CAP
1 pgm_pn12_10_s0:1 1.813178e-02
*RES
1 lt_pn12_10_s0:Z pgm_pn12_10_s0:1 1.800719e+01
2 pgm_pn12_10_s0:1 vs_8_12:A 1.000000e-03
3 pgm_pn12_10_s0:1 vs_1_12:A 1.000000e-03
*END

*D_NET pgm_pn12_10_s1 1.591783e-02
*CONN
*I lt_pn12_10_s1:Z O
*I vs_17_12:A I
*CAP
1 pgm_pn12_10_s1:1 1.591783e-02
*RES
1 lt_pn12_10_s1:Z pgm_pn12_10_s1:1 1.806327e+01
2 pgm_pn12_10_s1:1 vs_17_12:A 1.000000e-03
*END

*D_NET pgm_pn12_10_s2 4.455690e-03
*CONN
*I lt_pn12_10_s2:Z O
*I vs_47_12:A I
*CAP
1 pgm_pn12_10_s2:1 4.455690e-03
*RES
1 lt_pn12_10_s2:Z pgm_pn12_10_s2:1 5.056237e+00
2 pgm_pn12_10_s2:1 vs_47_12:A 1.000000e-03
*END

*D_NET pgm_pn12_10_s3 1.265013e-02
*CONN
*I lt_pn12_10_s3:Z O
*I vs_52_12:A I
*CAP
1 pgm_pn12_10_s3:1 1.265013e-02
*RES
1 lt_pn12_10_s3:Z pgm_pn12_10_s3:1 1.435514e+01
2 pgm_pn12_10_s3:1 vs_52_12:A 1.000000e-03
*END

*D_NET pgm_pn12_11_s1 1.031860e-02
*CONN
*I lt_pn12_11_s1:Z O
*I vs_23_12:A I
*CAP
1 pgm_pn12_11_s1:1 1.031860e-02
*RES
1 lt_pn12_11_s1:Z pgm_pn12_11_s1:1 1.170936e+01
2 pgm_pn12_11_s1:1 vs_23_12:A 1.000000e-03
*END

*D_NET pgm_pn12_11_s3 5.612959e-03
*CONN
*I lt_pn12_11_s3:Z O
*I vs_59_12:A I
*CAP
1 pgm_pn12_11_s3:1 5.612959e-03
*RES
1 lt_pn12_11_s3:Z pgm_pn12_11_s3:1 4.309034e+00
2 pgm_pn12_11_s3:1 vs_59_12:A 1.000000e-03
*END

*D_NET pgm_pn12_12_s0 1.416104e-02
*CONN
*I lt_pn12_12_s0:Z O
*I vs_15_12:A I
*I vs_9_12:A I
*I vs_7_12:A I
*CAP
1 pgm_pn12_12_s0:1 1.416104e-02
*RES
1 lt_pn12_12_s0:Z pgm_pn12_12_s0:1 1.606969e+01
2 pgm_pn12_12_s0:1 vs_15_12:A 1.000000e-03
3 pgm_pn12_12_s0:1 vs_9_12:A 1.000000e-03
4 pgm_pn12_12_s0:1 vs_7_12:A 1.000000e-03
*END

*D_NET pgm_pn12_12_s1 1.320770e-02
*CONN
*I lt_pn12_12_s1:Z O
*I vs_30_12:A I
*I vs_24_12:A I
*CAP
1 pgm_pn12_12_s1:1 1.320770e-02
*RES
1 lt_pn12_12_s1:Z pgm_pn12_12_s1:1 1.327171e+01
2 pgm_pn12_12_s1:1 vs_30_12:A 1.000000e-03
3 pgm_pn12_12_s1:1 vs_24_12:A 1.000000e-03
*END

*D_NET pgm_pn12_12_s2 2.289364e-02
*CONN
*I lt_pn12_12_s2:Z O
*I vs_42_12:A I
*I vs_32_12:A I
*CAP
1 pgm_pn12_12_s2:1 2.289364e-02
*RES
1 lt_pn12_12_s2:Z pgm_pn12_12_s2:1 2.469508e+01
2 pgm_pn12_12_s2:1 vs_42_12:A 1.000000e-03
3 pgm_pn12_12_s2:1 vs_32_12:A 1.000000e-03
*END

*D_NET pgm_pn12_12_s3 1.010825e-02
*CONN
*I lt_pn12_12_s3:Z O
*I vs_60_12:A I
*I vs_57_12:A I
*CAP
1 pgm_pn12_12_s3:1 1.010825e-02
*RES
1 lt_pn12_12_s3:Z pgm_pn12_12_s3:1 1.147067e+01
2 pgm_pn12_12_s3:1 vs_60_12:A 1.000000e-03
3 pgm_pn12_12_s3:1 vs_57_12:A 1.000000e-03
*END

*D_NET pgm_pn12_2_s0 1.470319e-02
*CONN
*I lt_pn12_2_s0:Z O
*I vs_14_12:A I
*CAP
1 pgm_pn12_2_s0:1 1.470319e-02
*RES
1 lt_pn12_2_s0:Z pgm_pn12_2_s0:1 1.668491e+01
2 pgm_pn12_2_s0:1 vs_14_12:A 1.000000e-03
*END

*D_NET pgm_pn12_3_s1 3.451382e-03
*CONN
*I lt_pn12_3_s1:Z O
*I vs_18_12:A I
*CAP
1 pgm_pn12_3_s1:1 3.451382e-03
*RES
1 lt_pn12_3_s1:Z pgm_pn12_3_s1:1 3.916567e+00
2 pgm_pn12_3_s1:1 vs_18_12:A 1.000000e-03
*END

*D_NET pgm_pn12_3_s2 1.084297e-03
*CONN
*I lt_pn12_3_s2:Z O
*I vs_36_12:A I
*CAP
1 pgm_pn12_3_s2:1 1.084297e-03
*RES
1 lt_pn12_3_s2:Z pgm_pn12_3_s2:1 1.230441e+00
2 pgm_pn12_3_s2:1 vs_36_12:A 1.000000e-03
*END

*D_NET pgm_pn12_5_s0 1.406102e-02
*CONN
*I lt_pn12_5_s0:Z O
*I vs_12_12:A I
*I vs_10_12:A I
*CAP
1 pgm_pn12_5_s0:1 1.406102e-02
*RES
1 lt_pn12_5_s0:Z pgm_pn12_5_s0:1 1.485978e+01
2 pgm_pn12_5_s0:1 vs_12_12:A 1.000000e-03
3 pgm_pn12_5_s0:1 vs_10_12:A 1.000000e-03
*END

*D_NET pgm_pn12_5_s3 8.917306e-04
*CONN
*I lt_pn12_5_s3:Z O
*I vs_54_12:A I
*CAP
1 pgm_pn12_5_s3:1 8.917306e-04
*RES
1 lt_pn12_5_s3:Z pgm_pn12_5_s3:1 1.011920e+00
2 pgm_pn12_5_s3:1 vs_54_12:A 1.000000e-03
*END

*D_NET pgm_pn12_7_s0 9.737935e-03
*CONN
*I lt_pn12_7_s0:Z O
*I vs_2_12:A I
*CAP
1 pgm_pn12_7_s0:1 9.737935e-03
*RES
1 lt_pn12_7_s0:Z pgm_pn12_7_s0:1 1.105043e+01
2 pgm_pn12_7_s0:1 vs_2_12:A 1.000000e-03
*END

*D_NET pgm_pn12_8_s0 4.340899e-03
*CONN
*I lt_pn12_8_s0:Z O
*I vs_13_12:A I
*CAP
1 pgm_pn12_8_s0:1 4.340899e-03
*RES
1 lt_pn12_8_s0:Z pgm_pn12_8_s0:1 4.217677e+00
2 pgm_pn12_8_s0:1 vs_13_12:A 1.000000e-03
*END

*D_NET pgm_pn12_8_s1 9.590112e-03
*CONN
*I lt_pn12_8_s1:Z O
*I vs_20_12:A I
*CAP
1 pgm_pn12_8_s1:1 9.590112e-03
*RES
1 lt_pn12_8_s1:Z pgm_pn12_8_s1:1 1.003041e+01
2 pgm_pn12_8_s1:1 vs_20_12:A 1.000000e-03
*END

*D_NET pgm_pn12_8_s2 1.229152e-02
*CONN
*I lt_pn12_8_s2:Z O
*I vs_43_12:A I
*I vs_35_12:A I
*CAP
1 pgm_pn12_8_s2:1 1.229152e-02
*RES
1 lt_pn12_8_s2:Z pgm_pn12_8_s2:1 1.295195e+01
2 pgm_pn12_8_s2:1 vs_43_12:A 1.000000e-03
3 pgm_pn12_8_s2:1 vs_35_12:A 1.000000e-03
*END

*D_NET pgm_pn12_9_s0 1.658768e-02
*CONN
*I lt_pn12_9_s0:Z O
*I vs_4_12:A I
*I vs_0_12:A I
*CAP
1 pgm_pn12_9_s0:1 1.658768e-02
*RES
1 lt_pn12_9_s0:Z pgm_pn12_9_s0:1 1.797112e+01
2 pgm_pn12_9_s0:1 vs_4_12:A 1.000000e-03
3 pgm_pn12_9_s0:1 vs_0_12:A 1.000000e-03
*END

*D_NET pgm_pn12_9_s1 6.793150e-03
*CONN
*I lt_pn12_9_s1:Z O
*I vs_29_12:A I
*I vs_25_12:A I
*CAP
1 pgm_pn12_9_s1:1 6.793150e-03
*RES
1 lt_pn12_9_s1:Z pgm_pn12_9_s1:1 7.708745e+00
2 pgm_pn12_9_s1:1 vs_29_12:A 1.000000e-03
3 pgm_pn12_9_s1:1 vs_25_12:A 1.000000e-03
*END

*D_NET pgm_pn12_9_s2 7.594095e-03
*CONN
*I lt_pn12_9_s2:Z O
*I vs_40_12:A I
*CAP
1 pgm_pn12_9_s2:1 7.594095e-03
*RES
1 lt_pn12_9_s2:Z pgm_pn12_9_s2:1 7.045470e+00
2 pgm_pn12_9_s2:1 vs_40_12:A 1.000000e-03
*END

*D_NET pgm_pn12_9_s3 1.475059e-02
*CONN
*I lt_pn12_9_s3:Z O
*I vs_53_12:A I
*I vs_49_12:A I
*CAP
1 pgm_pn12_9_s3:1 1.475059e-02
*RES
1 lt_pn12_9_s3:Z pgm_pn12_9_s3:1 1.673870e+01
2 pgm_pn12_9_s3:1 vs_53_12:A 1.000000e-03
3 pgm_pn12_9_s3:1 vs_49_12:A 1.000000e-03
*END

*D_NET pgm_pn13_10_s1 1.876472e-02
*CONN
*I lt_pn13_10_s1:Z O
*I vs_31_13:A I
*I vs_30_13:A I
*I vs_19_13:A I
*CAP
1 pgm_pn13_10_s1:1 1.876472e-02
*RES
1 lt_pn13_10_s1:Z pgm_pn13_10_s1:1 2.029761e+01
2 pgm_pn13_10_s1:1 vs_31_13:A 1.000000e-03
3 pgm_pn13_10_s1:1 vs_30_13:A 1.000000e-03
4 pgm_pn13_10_s1:1 vs_19_13:A 1.000000e-03
*END

*D_NET pgm_pn13_10_s2 1.175012e-02
*CONN
*I lt_pn13_10_s2:Z O
*I vs_38_13:A I
*CAP
1 pgm_pn13_10_s2:1 1.175012e-02
*RES
1 lt_pn13_10_s2:Z pgm_pn13_10_s2:1 1.161768e+01
2 pgm_pn13_10_s2:1 vs_38_13:A 1.000000e-03
*END

*D_NET pgm_pn13_10_s3 1.096341e-02
*CONN
*I lt_pn13_10_s3:Z O
*I vs_58_13:A I
*I vs_54_13:A I
*CAP
1 pgm_pn13_10_s3:1 1.096341e-02
*RES
1 lt_pn13_10_s3:Z pgm_pn13_10_s3:1 1.115687e+01
2 pgm_pn13_10_s3:1 vs_58_13:A 1.000000e-03
3 pgm_pn13_10_s3:1 vs_54_13:A 1.000000e-03
*END

*D_NET pgm_pn13_11_s2 4.113087e-03
*CONN
*I lt_pn13_11_s2:Z O
*I vs_44_13:A I
*CAP
1 pgm_pn13_11_s2:1 4.113087e-03
*RES
1 lt_pn13_11_s2:Z pgm_pn13_11_s2:1 3.095284e+00
2 pgm_pn13_11_s2:1 vs_44_13:A 1.000000e-03
*END

*D_NET pgm_pn13_12_s0 3.146239e-03
*CONN
*I lt_pn13_12_s0:Z O
*I vs_15_13:A I
*I vs_14_13:A I
*CAP
1 pgm_pn13_12_s0:1 3.146239e-03
*RES
1 lt_pn13_12_s0:Z pgm_pn13_12_s0:1 3.570295e+00
2 pgm_pn13_12_s0:1 vs_15_13:A 1.000000e-03
3 pgm_pn13_12_s0:1 vs_14_13:A 1.000000e-03
*END

*D_NET pgm_pn13_12_s1 1.535199e-02
*CONN
*I lt_pn13_12_s1:Z O
*I vs_26_13:A I
*I vs_21_13:A I
*CAP
1 pgm_pn13_12_s1:1 1.535199e-02
*RES
1 lt_pn13_12_s1:Z pgm_pn13_12_s1:1 1.742116e+01
2 pgm_pn13_12_s1:1 vs_26_13:A 1.000000e-03
3 pgm_pn13_12_s1:1 vs_21_13:A 1.000000e-03
*END

*D_NET pgm_pn13_12_s2 1.656071e-02
*CONN
*I lt_pn13_12_s2:Z O
*I vs_45_13:A I
*I vs_36_13:A I
*CAP
1 pgm_pn13_12_s2:1 1.656071e-02
*RES
1 lt_pn13_12_s2:Z pgm_pn13_12_s2:1 1.879280e+01
2 pgm_pn13_12_s2:1 vs_45_13:A 1.000000e-03
3 pgm_pn13_12_s2:1 vs_36_13:A 1.000000e-03
*END

*D_NET pgm_pn13_12_s3 2.376269e-02
*CONN
*I lt_pn13_12_s3:Z O
*I vs_63_13:A I
*I vs_59_13:A I
*I vs_53_13:A I
*I vs_48_13:A I
*CAP
1 pgm_pn13_12_s3:1 2.376269e-02
*RES
1 lt_pn13_12_s3:Z pgm_pn13_12_s3:1 2.696548e+01
2 pgm_pn13_12_s3:1 vs_63_13:A 1.000000e-03
3 pgm_pn13_12_s3:1 vs_59_13:A 1.000000e-03
4 pgm_pn13_12_s3:1 vs_53_13:A 1.000000e-03
5 pgm_pn13_12_s3:1 vs_48_13:A 1.000000e-03
*END

*D_NET pgm_pn13_2_s0 1.810124e-03
*CONN
*I lt_pn13_2_s0:Z O
*I vs_2_13:A I
*CAP
1 pgm_pn13_2_s0:1 1.810124e-03
*RES
1 lt_pn13_2_s0:Z pgm_pn13_2_s0:1 2.054096e+00
2 pgm_pn13_2_s0:1 vs_2_13:A 1.000000e-03
*END

*D_NET pgm_pn13_4_s0 3.178827e-03
*CONN
*I lt_pn13_4_s0:Z O
*I vs_3_13:A I
*CAP
1 pgm_pn13_4_s0:1 3.178827e-03
*RES
1 lt_pn13_4_s0:Z pgm_pn13_4_s0:1 3.607276e+00
2 pgm_pn13_4_s0:1 vs_3_13:A 1.000000e-03
*END

*D_NET pgm_pn13_4_s1 6.105836e-03
*CONN
*I lt_pn13_4_s1:Z O
*I vs_22_13:A I
*I vs_18_13:A I
*CAP
1 pgm_pn13_4_s1:1 6.105836e-03
*RES
1 lt_pn13_4_s1:Z pgm_pn13_4_s1:1 6.928793e+00
2 pgm_pn13_4_s1:1 vs_22_13:A 1.000000e-03
3 pgm_pn13_4_s1:1 vs_18_13:A 1.000000e-03
*END

*D_NET pgm_pn13_4_s2 5.646639e-03
*CONN
*I lt_pn13_4_s2:Z O
*I vs_33_13:A I
*CAP
1 pgm_pn13_4_s2:1 5.646639e-03
*RES
1 lt_pn13_4_s2:Z pgm_pn13_4_s2:1 6.407705e+00
2 pgm_pn13_4_s2:1 vs_33_13:A 1.000000e-03
*END

*D_NET pgm_pn13_5_s1 6.372467e-03
*CONN
*I lt_pn13_5_s1:Z O
*I vs_27_13:A I
*CAP
1 pgm_pn13_5_s1:1 6.372467e-03
*RES
1 lt_pn13_5_s1:Z pgm_pn13_5_s1:1 7.231361e+00
2 pgm_pn13_5_s1:1 vs_27_13:A 1.000000e-03
*END

*D_NET pgm_pn13_5_s2 4.888224e-04
*CONN
*I lt_pn13_5_s2:Z O
*I vs_39_13:A I
*CAP
1 pgm_pn13_5_s2:1 4.888224e-04
*RES
1 lt_pn13_5_s2:Z pgm_pn13_5_s2:1 5.547069e-01
2 pgm_pn13_5_s2:1 vs_39_13:A 1.000000e-03
*END

*D_NET pgm_pn13_6_s0 1.062967e-02
*CONN
*I lt_pn13_6_s0:Z O
*I vs_6_13:A I
*I vs_0_13:A I
*CAP
1 pgm_pn13_6_s0:1 1.062967e-02
*RES
1 lt_pn13_6_s0:Z pgm_pn13_6_s0:1 1.206235e+01
2 pgm_pn13_6_s0:1 vs_6_13:A 1.000000e-03
3 pgm_pn13_6_s0:1 vs_0_13:A 1.000000e-03
*END

*D_NET pgm_pn13_6_s1 1.919739e-03
*CONN
*I lt_pn13_6_s1:Z O
*I vs_25_13:A I
*CAP
1 pgm_pn13_6_s1:1 1.919739e-03
*RES
1 lt_pn13_6_s1:Z pgm_pn13_6_s1:1 2.178485e+00
2 pgm_pn13_6_s1:1 vs_25_13:A 1.000000e-03
*END

*D_NET pgm_pn13_8_s0 6.941278e-03
*CONN
*I lt_pn13_8_s0:Z O
*I vs_5_13:A I
*CAP
1 pgm_pn13_8_s0:1 6.941278e-03
*RES
1 lt_pn13_8_s0:Z pgm_pn13_8_s0:1 7.876838e+00
2 pgm_pn13_8_s0:1 vs_5_13:A 1.000000e-03
*END

*D_NET pgm_pn13_9_s2 3.990568e-03
*CONN
*I lt_pn13_9_s2:Z O
*I vs_46_13:A I
*CAP
1 pgm_pn13_9_s2:1 3.990568e-03
*RES
1 lt_pn13_9_s2:Z pgm_pn13_9_s2:1 4.528425e+00
2 pgm_pn13_9_s2:1 vs_46_13:A 1.000000e-03
*END

*D_NET pgm_pn14_10_s0 1.984778e-03
*CONN
*I lt_pn14_10_s0:Z O
*I vs_12_14:A I
*CAP
1 pgm_pn14_10_s0:1 1.984778e-03
*RES
1 lt_pn14_10_s0:Z pgm_pn14_10_s0:1 1.256034e+00
2 pgm_pn14_10_s0:1 vs_12_14:A 1.000000e-03
*END

*D_NET pgm_pn14_10_s1 2.029115e-02
*CONN
*I lt_pn14_10_s1:Z O
*I vs_24_14:A I
*I vs_22_14:A I
*I vs_16_14:A I
*CAP
1 pgm_pn14_10_s1:1 2.029115e-02
*RES
1 lt_pn14_10_s1:Z pgm_pn14_10_s1:1 2.092176e+01
2 pgm_pn14_10_s1:1 vs_24_14:A 1.000000e-03
3 pgm_pn14_10_s1:1 vs_22_14:A 1.000000e-03
4 pgm_pn14_10_s1:1 vs_16_14:A 1.000000e-03
*END

*D_NET pgm_pn14_11_s0 7.642687e-03
*CONN
*I lt_pn14_11_s0:Z O
*I vs_10_14:A I
*CAP
1 pgm_pn14_11_s0:1 7.642687e-03
*RES
1 lt_pn14_11_s0:Z pgm_pn14_11_s0:1 6.524693e+00
2 pgm_pn14_11_s0:1 vs_10_14:A 1.000000e-03
*END

*D_NET pgm_pn14_11_s1 2.575961e-03
*CONN
*I lt_pn14_11_s1:Z O
*I vs_29_14:A I
*CAP
1 pgm_pn14_11_s1:1 2.575961e-03
*RES
1 lt_pn14_11_s1:Z pgm_pn14_11_s1:1 1.494961e+00
2 pgm_pn14_11_s1:1 vs_29_14:A 1.000000e-03
*END

*D_NET pgm_pn14_11_s3 6.144960e-03
*CONN
*I lt_pn14_11_s3:Z O
*I vs_61_14:A I
*I vs_59_14:A I
*CAP
1 pgm_pn14_11_s3:1 6.144960e-03
*RES
1 lt_pn14_11_s3:Z pgm_pn14_11_s3:1 5.257038e+00
2 pgm_pn14_11_s3:1 vs_61_14:A 1.000000e-03
3 pgm_pn14_11_s3:1 vs_59_14:A 1.000000e-03
*END

*D_NET pgm_pn14_12_s0 3.212026e-03
*CONN
*I lt_pn14_12_s0:Z O
*I vs_14_14:A I
*CAP
1 pgm_pn14_12_s0:1 3.212026e-03
*RES
1 lt_pn14_12_s0:Z pgm_pn14_12_s0:1 1.928797e+00
2 pgm_pn14_12_s0:1 vs_14_14:A 1.000000e-03
*END

*D_NET pgm_pn14_12_s1 1.836212e-02
*CONN
*I lt_pn14_12_s1:Z O
*I vs_18_14:A I
*CAP
1 pgm_pn14_12_s1:1 1.836212e-02
*RES
1 lt_pn14_12_s1:Z pgm_pn14_12_s1:1 1.897687e+01
2 pgm_pn14_12_s1:1 vs_18_14:A 1.000000e-03
*END

*D_NET pgm_pn14_12_s2 1.852254e-02
*CONN
*I lt_pn14_12_s2:Z O
*I vs_34_14:A I
*CAP
1 pgm_pn14_12_s2:1 1.852254e-02
*RES
1 lt_pn14_12_s2:Z pgm_pn14_12_s2:1 1.930289e+01
2 pgm_pn14_12_s2:1 vs_34_14:A 1.000000e-03
*END

*D_NET pgm_pn14_2_s3 1.792158e-02
*CONN
*I lt_pn14_2_s3:Z O
*I vs_63_14:A I
*CAP
1 pgm_pn14_2_s3:1 1.792158e-02
*RES
1 lt_pn14_2_s3:Z pgm_pn14_2_s3:1 1.876491e+01
2 pgm_pn14_2_s3:1 vs_63_14:A 1.000000e-03
*END

*D_NET pgm_pn14_3_s2 1.220575e-03
*CONN
*I lt_pn14_3_s2:Z O
*I vs_36_14:A I
*CAP
1 pgm_pn14_3_s2:1 1.220575e-03
*RES
1 lt_pn14_3_s2:Z pgm_pn14_3_s2:1 1.385086e+00
2 pgm_pn14_3_s2:1 vs_36_14:A 1.000000e-03
*END

*D_NET pgm_pn14_3_s3 1.550167e-03
*CONN
*I lt_pn14_3_s3:Z O
*I vs_52_14:A I
*CAP
1 pgm_pn14_3_s3:1 1.550167e-03
*RES
1 lt_pn14_3_s3:Z pgm_pn14_3_s3:1 1.050805e+00
2 pgm_pn14_3_s3:1 vs_52_14:A 1.000000e-03
*END

*D_NET pgm_pn14_4_s0 3.632099e-03
*CONN
*I lt_pn14_4_s0:Z O
*I vs_8_14:A I
*CAP
1 pgm_pn14_4_s0:1 3.632099e-03
*RES
1 lt_pn14_4_s0:Z pgm_pn14_4_s0:1 4.121640e+00
2 pgm_pn14_4_s0:1 vs_8_14:A 1.000000e-03
*END

*D_NET pgm_pn14_4_s2 5.113379e-03
*CONN
*I lt_pn14_4_s2:Z O
*I vs_41_14:A I
*CAP
1 pgm_pn14_4_s2:1 5.113379e-03
*RES
1 lt_pn14_4_s2:Z pgm_pn14_4_s2:1 5.802570e+00
2 pgm_pn14_4_s2:1 vs_41_14:A 1.000000e-03
*END

*D_NET pgm_pn14_6_s0 1.248409e-02
*CONN
*I lt_pn14_6_s0:Z O
*I vs_15_14:A I
*I vs_7_14:A I
*CAP
1 pgm_pn14_6_s0:1 1.248409e-02
*RES
1 lt_pn14_6_s0:Z pgm_pn14_6_s0:1 1.317047e+01
2 pgm_pn14_6_s0:1 vs_15_14:A 1.000000e-03
3 pgm_pn14_6_s0:1 vs_7_14:A 1.000000e-03
*END

*D_NET pgm_pn14_6_s2 5.300020e-03
*CONN
*I lt_pn14_6_s2:Z O
*I vs_37_14:A I
*CAP
1 pgm_pn14_6_s2:1 5.300020e-03
*RES
1 lt_pn14_6_s2:Z pgm_pn14_6_s2:1 6.014368e+00
2 pgm_pn14_6_s2:1 vs_37_14:A 1.000000e-03
*END

*D_NET pgm_pn14_7_s0 8.070013e-03
*CONN
*I lt_pn14_7_s0:Z O
*I vs_3_14:A I
*CAP
1 pgm_pn14_7_s0:1 8.070013e-03
*RES
1 lt_pn14_7_s0:Z pgm_pn14_7_s0:1 9.157707e+00
2 pgm_pn14_7_s0:1 vs_3_14:A 1.000000e-03
*END

*D_NET pgm_pn14_8_s0 4.040932e-03
*CONN
*I lt_pn14_8_s0:Z O
*I vs_13_14:A I
*CAP
1 pgm_pn14_8_s0:1 4.040932e-03
*RES
1 lt_pn14_8_s0:Z pgm_pn14_8_s0:1 4.585577e+00
2 pgm_pn14_8_s0:1 vs_13_14:A 1.000000e-03
*END

*D_NET pgm_pn14_8_s1 8.297550e-03
*CONN
*I lt_pn14_8_s1:Z O
*I vs_21_14:A I
*CAP
1 pgm_pn14_8_s1:1 8.297550e-03
*RES
1 lt_pn14_8_s1:Z pgm_pn14_8_s1:1 8.275676e+00
2 pgm_pn14_8_s1:1 vs_21_14:A 1.000000e-03
*END

*D_NET pgm_pn14_8_s2 1.959437e-02
*CONN
*I lt_pn14_8_s2:Z O
*I vs_46_14:A I
*I vs_35_14:A I
*CAP
1 pgm_pn14_8_s2:1 1.959437e-02
*RES
1 lt_pn14_8_s2:Z pgm_pn14_8_s2:1 2.223534e+01
2 pgm_pn14_8_s2:1 vs_46_14:A 1.000000e-03
3 pgm_pn14_8_s2:1 vs_35_14:A 1.000000e-03
*END

*D_NET pgm_pn14_8_s3 1.264421e-02
*CONN
*I lt_pn14_8_s3:Z O
*I vs_49_14:A I
*CAP
1 pgm_pn14_8_s3:1 1.264421e-02
*RES
1 lt_pn14_8_s3:Z pgm_pn14_8_s3:1 1.434842e+01
2 pgm_pn14_8_s3:1 vs_49_14:A 1.000000e-03
*END

*D_NET pgm_pn14_9_s2 7.436026e-03
*CONN
*I lt_pn14_9_s2:Z O
*I vs_39_14:A I
*CAP
1 pgm_pn14_9_s2:1 7.436026e-03
*RES
1 lt_pn14_9_s2:Z pgm_pn14_9_s2:1 8.438269e+00
2 pgm_pn14_9_s2:1 vs_39_14:A 1.000000e-03
*END

*D_NET pgm_pn14_9_s3 3.638024e-03
*CONN
*I lt_pn14_9_s3:Z O
*I vs_62_14:A I
*CAP
1 pgm_pn14_9_s3:1 3.638024e-03
*RES
1 lt_pn14_9_s3:Z pgm_pn14_9_s3:1 4.128364e+00
2 pgm_pn14_9_s3:1 vs_62_14:A 1.000000e-03
*END

*D_NET pgm_pn15_10_s2 1.822553e-02
*CONN
*I lt_pn15_10_s2:Z O
*I vs_45_15:A I
*I vs_33_15:A I
*CAP
1 pgm_pn15_10_s2:1 1.822553e-02
*RES
1 lt_pn15_10_s2:Z pgm_pn15_10_s2:1 1.968575e+01
2 pgm_pn15_10_s2:1 vs_45_15:A 1.000000e-03
3 pgm_pn15_10_s2:1 vs_33_15:A 1.000000e-03
*END

*D_NET pgm_pn15_11_s0 8.370286e-03
*CONN
*I lt_pn15_11_s0:Z O
*I vs_13_15:A I
*I vs_11_15:A I
*I vs_9_15:A I
*CAP
1 pgm_pn15_11_s0:1 8.370286e-03
*RES
1 lt_pn15_11_s0:Z pgm_pn15_11_s0:1 7.926277e+00
2 pgm_pn15_11_s0:1 vs_13_15:A 1.000000e-03
3 pgm_pn15_11_s0:1 vs_11_15:A 1.000000e-03
4 pgm_pn15_11_s0:1 vs_9_15:A 1.000000e-03
*END

*D_NET pgm_pn15_11_s1 4.888224e-03
*CONN
*I lt_pn15_11_s1:Z O
*I vs_27_15:A I
*CAP
1 pgm_pn15_11_s1:1 4.888224e-03
*RES
1 lt_pn15_11_s1:Z pgm_pn15_11_s1:1 5.547069e+00
2 pgm_pn15_11_s1:1 vs_27_15:A 1.000000e-03
*END

*D_NET pgm_pn15_11_s2 1.678692e-02
*CONN
*I lt_pn15_11_s2:Z O
*I vs_41_15:A I
*I vs_35_15:A I
*CAP
1 pgm_pn15_11_s2:1 1.678692e-02
*RES
1 lt_pn15_11_s2:Z pgm_pn15_11_s2:1 1.748312e+01
2 pgm_pn15_11_s2:1 vs_41_15:A 1.000000e-03
3 pgm_pn15_11_s2:1 vs_35_15:A 1.000000e-03
*END

*D_NET pgm_pn15_11_s3 1.108191e-02
*CONN
*I lt_pn15_11_s3:Z O
*I vs_54_15:A I
*CAP
1 pgm_pn15_11_s3:1 1.108191e-02
*RES
1 lt_pn15_11_s3:Z pgm_pn15_11_s3:1 1.129134e+01
2 pgm_pn15_11_s3:1 vs_54_15:A 1.000000e-03
*END

*D_NET pgm_pn15_12_s1 1.932774e-02
*CONN
*I lt_pn15_12_s1:Z O
*I vs_31_15:A I
*I vs_26_15:A I
*I vs_23_15:A I
*I vs_19_15:A I
*CAP
1 pgm_pn15_12_s1:1 1.932774e-02
*RES
1 lt_pn15_12_s1:Z pgm_pn15_12_s1:1 2.193277e+01
2 pgm_pn15_12_s1:1 vs_31_15:A 1.000000e-03
3 pgm_pn15_12_s1:1 vs_26_15:A 1.000000e-03
4 pgm_pn15_12_s1:1 vs_23_15:A 1.000000e-03
5 pgm_pn15_12_s1:1 vs_19_15:A 1.000000e-03
*END

*D_NET pgm_pn15_12_s2 1.071946e-02
*CONN
*I lt_pn15_12_s2:Z O
*I vs_42_15:A I
*CAP
1 pgm_pn15_12_s2:1 1.071946e-02
*RES
1 lt_pn15_12_s2:Z pgm_pn15_12_s2:1 9.595820e+00
2 pgm_pn15_12_s2:1 vs_42_15:A 1.000000e-03
*END

*D_NET pgm_pn15_12_s3 1.447983e-02
*CONN
*I lt_pn15_12_s3:Z O
*I vs_60_15:A I
*I vs_56_15:A I
*CAP
1 pgm_pn15_12_s3:1 1.447983e-02
*RES
1 lt_pn15_12_s3:Z pgm_pn15_12_s3:1 1.413938e+01
2 pgm_pn15_12_s3:1 vs_60_15:A 1.000000e-03
3 pgm_pn15_12_s3:1 vs_56_15:A 1.000000e-03
*END

*D_NET pgm_pn15_2_s3 1.432977e-02
*CONN
*I lt_pn15_2_s3:Z O
*I vs_61_15:A I
*CAP
1 pgm_pn15_2_s3:1 1.432977e-02
*RES
1 lt_pn15_2_s3:Z pgm_pn15_2_s3:1 1.526491e+01
2 pgm_pn15_2_s3:1 vs_61_15:A 1.000000e-03
*END

*D_NET pgm_pn15_3_s0 3.684402e-03
*CONN
*I lt_pn15_3_s0:Z O
*I vs_5_15:A I
*CAP
1 pgm_pn15_3_s0:1 3.684402e-03
*RES
1 lt_pn15_3_s0:Z pgm_pn15_3_s0:1 2.896778e+00
2 pgm_pn15_3_s0:1 vs_5_15:A 1.000000e-03
*END

*D_NET pgm_pn15_5_s2 4.888224e-04
*CONN
*I lt_pn15_5_s2:Z O
*I vs_39_15:A I
*CAP
1 pgm_pn15_5_s2:1 4.888224e-04
*RES
1 lt_pn15_5_s2:Z pgm_pn15_5_s2:1 5.547069e-01
2 pgm_pn15_5_s2:1 vs_39_15:A 1.000000e-03
*END

*D_NET pgm_pn15_6_s1 8.070013e-03
*CONN
*I lt_pn15_6_s1:Z O
*I vs_18_15:A I
*CAP
1 pgm_pn15_6_s1:1 8.070013e-03
*RES
1 lt_pn15_6_s1:Z pgm_pn15_6_s1:1 9.157707e+00
2 pgm_pn15_6_s1:1 vs_18_15:A 1.000000e-03
*END

*D_NET pgm_pn15_7_s1 6.861289e-03
*CONN
*I lt_pn15_7_s1:Z O
*I vs_30_15:A I
*I vs_25_15:A I
*CAP
1 pgm_pn15_7_s1:1 6.861289e-03
*RES
1 lt_pn15_7_s1:Z pgm_pn15_7_s1:1 7.786068e+00
2 pgm_pn15_7_s1:1 vs_30_15:A 1.000000e-03
3 pgm_pn15_7_s1:1 vs_25_15:A 1.000000e-03
*END

*D_NET pgm_pn15_7_s2 7.304718e-03
*CONN
*I lt_pn15_7_s2:Z O
*I vs_36_15:A I
*CAP
1 pgm_pn15_7_s2:1 7.304718e-03
*RES
1 lt_pn15_7_s2:Z pgm_pn15_7_s2:1 7.236668e+00
2 pgm_pn15_7_s2:1 vs_36_15:A 1.000000e-03
*END

*D_NET pgm_pn15_9_s0 1.372258e-02
*CONN
*I lt_pn15_9_s0:Z O
*I vs_6_15:A I
*I vs_2_15:A I
*CAP
1 pgm_pn15_9_s0:1 1.372258e-02
*RES
1 lt_pn15_9_s0:Z pgm_pn15_9_s0:1 1.557214e+01
2 pgm_pn15_9_s0:1 vs_6_15:A 1.000000e-03
3 pgm_pn15_9_s0:1 vs_2_15:A 1.000000e-03
*END

*D_NET pgm_pn15_9_s1 9.638227e-03
*CONN
*I lt_pn15_9_s1:Z O
*I vs_21_15:A I
*CAP
1 pgm_pn15_9_s1:1 9.638227e-03
*RES
1 lt_pn15_9_s1:Z pgm_pn15_9_s1:1 8.976995e+00
2 pgm_pn15_9_s1:1 vs_21_15:A 1.000000e-03
*END

*D_NET pgm_pn15_9_s2 6.611411e-03
*CONN
*I lt_pn15_9_s2:Z O
*I vs_47_15:A I
*CAP
1 pgm_pn15_9_s2:1 6.611411e-03
*RES
1 lt_pn15_9_s2:Z pgm_pn15_9_s2:1 6.218296e+00
2 pgm_pn15_9_s2:1 vs_47_15:A 1.000000e-03
*END

*D_NET pgm_pn16_10_s0 1.040860e-02
*CONN
*I lt_pn16_10_s0:Z O
*I vs_5_16:A I
*CAP
1 pgm_pn16_10_s0:1 1.040860e-02
*RES
1 lt_pn16_10_s0:Z pgm_pn16_10_s0:1 1.047093e+01
2 pgm_pn16_10_s0:1 vs_5_16:A 1.000000e-03
*END

*D_NET pgm_pn16_10_s3 5.039315e-03
*CONN
*I lt_pn16_10_s3:Z O
*I vs_59_16:A I
*I vs_58_16:A I
*CAP
1 pgm_pn16_10_s3:1 5.039315e-03
*RES
1 lt_pn16_10_s3:Z pgm_pn16_10_s3:1 5.718524e+00
2 pgm_pn16_10_s3:1 vs_59_16:A 1.000000e-03
3 pgm_pn16_10_s3:1 vs_58_16:A 1.000000e-03
*END

*D_NET pgm_pn16_11_s0 4.541604e-03
*CONN
*I lt_pn16_11_s0:Z O
*I vs_14_16:A I
*I vs_13_16:A I
*CAP
1 pgm_pn16_11_s0:1 4.541604e-03
*RES
1 lt_pn16_11_s0:Z pgm_pn16_11_s0:1 5.153731e+00
2 pgm_pn16_11_s0:1 vs_14_16:A 1.000000e-03
3 pgm_pn16_11_s0:1 vs_13_16:A 1.000000e-03
*END

*D_NET pgm_pn16_11_s1 1.794501e-02
*CONN
*I lt_pn16_11_s1:Z O
*I vs_27_16:A I
*I vs_21_16:A I
*I vs_20_16:A I
*CAP
1 pgm_pn16_11_s1:1 1.794501e-02
*RES
1 lt_pn16_11_s1:Z pgm_pn16_11_s1:1 1.678738e+01
2 pgm_pn16_11_s1:1 vs_27_16:A 1.000000e-03
3 pgm_pn16_11_s1:1 vs_21_16:A 1.000000e-03
4 pgm_pn16_11_s1:1 vs_20_16:A 1.000000e-03
*END

*D_NET pgm_pn16_11_s2 2.142523e-02
*CONN
*I lt_pn16_11_s2:Z O
*I vs_44_16:A I
*I vs_40_16:A I
*I vs_33_16:A I
*CAP
1 pgm_pn16_11_s2:1 2.142523e-02
*RES
1 lt_pn16_11_s2:Z pgm_pn16_11_s2:1 2.431297e+01
2 pgm_pn16_11_s2:1 vs_44_16:A 1.000000e-03
3 pgm_pn16_11_s2:1 vs_40_16:A 1.000000e-03
4 pgm_pn16_11_s2:1 vs_33_16:A 1.000000e-03
*END

*D_NET pgm_pn16_11_s3 1.833528e-02
*CONN
*I lt_pn16_11_s3:Z O
*I vs_48_16:A I
*CAP
1 pgm_pn16_11_s3:1 1.833528e-02
*RES
1 lt_pn16_11_s3:Z pgm_pn16_11_s3:1 2.080655e+01
2 pgm_pn16_11_s3:1 vs_48_16:A 1.000000e-03
*END

*D_NET pgm_pn16_12_s1 1.888131e-02
*CONN
*I lt_pn16_12_s1:Z O
*I vs_26_16:A I
*I vs_19_16:A I
*CAP
1 pgm_pn16_12_s1:1 1.888131e-02
*RES
1 lt_pn16_12_s1:Z pgm_pn16_12_s1:1 1.885774e+01
2 pgm_pn16_12_s1:1 vs_26_16:A 1.000000e-03
3 pgm_pn16_12_s1:1 vs_19_16:A 1.000000e-03
*END

*D_NET pgm_pn16_12_s2 7.540326e-03
*CONN
*I lt_pn16_12_s2:Z O
*I vs_43_16:A I
*CAP
1 pgm_pn16_12_s2:1 7.540326e-03
*RES
1 lt_pn16_12_s2:Z pgm_pn16_12_s2:1 6.840474e+00
2 pgm_pn16_12_s2:1 vs_43_16:A 1.000000e-03
*END

*D_NET pgm_pn16_12_s3 1.534282e-02
*CONN
*I lt_pn16_12_s3:Z O
*I vs_53_16:A I
*CAP
1 pgm_pn16_12_s3:1 1.534282e-02
*RES
1 lt_pn16_12_s3:Z pgm_pn16_12_s3:1 1.540665e+01
2 pgm_pn16_12_s3:1 vs_53_16:A 1.000000e-03
*END

*D_NET pgm_pn16_2_s2 2.283111e-03
*CONN
*I lt_pn16_2_s2:Z O
*I vs_35_16:A I
*CAP
1 pgm_pn16_2_s2:1 2.283111e-03
*RES
1 lt_pn16_2_s2:Z pgm_pn16_2_s2:1 1.306618e+00
2 pgm_pn16_2_s2:1 vs_35_16:A 1.000000e-03
*END

*D_NET pgm_pn16_4_s0 5.572575e-03
*CONN
*I lt_pn16_4_s0:Z O
*I vs_9_16:A I
*CAP
1 pgm_pn16_4_s0:1 5.572575e-03
*RES
1 lt_pn16_4_s0:Z pgm_pn16_4_s0:1 6.323659e+00
2 pgm_pn16_4_s0:1 vs_9_16:A 1.000000e-03
*END

*D_NET pgm_pn16_5_s2 6.251002e-04
*CONN
*I lt_pn16_5_s2:Z O
*I vs_39_16:A I
*CAP
1 pgm_pn16_5_s2:1 6.251002e-04
*RES
1 lt_pn16_5_s2:Z pgm_pn16_5_s2:1 7.093525e-01
2 pgm_pn16_5_s2:1 vs_39_16:A 1.000000e-03
*END

*D_NET pgm_pn16_5_s3 9.530556e-03
*CONN
*I lt_pn16_5_s3:Z O
*I vs_61_16:A I
*CAP
1 pgm_pn16_5_s3:1 9.530556e-03
*RES
1 lt_pn16_5_s3:Z pgm_pn16_5_s3:1 1.081510e+01
2 pgm_pn16_5_s3:1 vs_61_16:A 1.000000e-03
*END

*D_NET pgm_pn16_6_s2 4.479391e-03
*CONN
*I lt_pn16_6_s2:Z O
*I vs_37_16:A I
*CAP
1 pgm_pn16_6_s2:1 4.479391e-03
*RES
1 lt_pn16_6_s2:Z pgm_pn16_6_s2:1 5.083132e+00
2 pgm_pn16_6_s2:1 vs_37_16:A 1.000000e-03
*END

*D_NET pgm_pn16_8_s3 8.195052e-03
*CONN
*I lt_pn16_8_s3:Z O
*I vs_63_16:A I
*CAP
1 pgm_pn16_8_s3:1 8.195052e-03
*RES
1 lt_pn16_8_s3:Z pgm_pn16_8_s3:1 7.583445e+00
2 pgm_pn16_8_s3:1 vs_63_16:A 1.000000e-03
*END

*D_NET pgm_pn16_9_s0 1.309748e-02
*CONN
*I lt_pn16_9_s0:Z O
*I vs_2_16:A I
*CAP
1 pgm_pn16_9_s0:1 1.309748e-02
*RES
1 lt_pn16_9_s0:Z pgm_pn16_9_s0:1 1.486278e+01
2 pgm_pn16_9_s0:1 vs_2_16:A 1.000000e-03
*END

*D_NET pgm_pn16_9_s1 1.902202e-02
*CONN
*I lt_pn16_9_s1:Z O
*I vs_31_16:A I
*I vs_18_16:A I
*CAP
1 pgm_pn16_9_s1:1 1.902202e-02
*RES
1 lt_pn16_9_s1:Z pgm_pn16_9_s1:1 2.044561e+01
2 pgm_pn16_9_s1:1 vs_31_16:A 1.000000e-03
3 pgm_pn16_9_s1:1 vs_18_16:A 1.000000e-03
*END

*D_NET pgm_pn16_9_s3 1.598376e-02
*CONN
*I lt_pn16_9_s3:Z O
*I vs_54_16:A I
*I vs_49_16:A I
*CAP
1 pgm_pn16_9_s3:1 1.598376e-02
*RES
1 lt_pn16_9_s3:Z pgm_pn16_9_s3:1 1.742979e+01
2 pgm_pn16_9_s3:1 vs_54_16:A 1.000000e-03
3 pgm_pn16_9_s3:1 vs_49_16:A 1.000000e-03
*END

*D_NET pgm_pn17_10_s0 7.047350e-03
*CONN
*I lt_pn17_10_s0:Z O
*I vs_8_17:A I
*CAP
1 pgm_pn17_10_s0:1 7.047350e-03
*RES
1 lt_pn17_10_s0:Z pgm_pn17_10_s0:1 6.856971e+00
2 pgm_pn17_10_s0:1 vs_8_17:A 1.000000e-03
*END

*D_NET pgm_pn17_10_s1 1.849380e-02
*CONN
*I lt_pn17_10_s1:Z O
*I vs_23_17:A I
*I vs_16_17:A I
*CAP
1 pgm_pn17_10_s1:1 1.849380e-02
*RES
1 lt_pn17_10_s1:Z pgm_pn17_10_s1:1 1.955823e+01
2 pgm_pn17_10_s1:1 vs_23_17:A 1.000000e-03
3 pgm_pn17_10_s1:1 vs_16_17:A 1.000000e-03
*END

*D_NET pgm_pn17_10_s3 1.663477e-02
*CONN
*I lt_pn17_10_s3:Z O
*I vs_62_17:A I
*I vs_50_17:A I
*CAP
1 pgm_pn17_10_s3:1 1.663477e-02
*RES
1 lt_pn17_10_s3:Z pgm_pn17_10_s3:1 1.887684e+01
2 pgm_pn17_10_s3:1 vs_62_17:A 1.000000e-03
3 pgm_pn17_10_s3:1 vs_50_17:A 1.000000e-03
*END

*D_NET pgm_pn17_11_s1 6.011340e-03
*CONN
*I lt_pn17_11_s1:Z O
*I vs_27_17:A I
*CAP
1 pgm_pn17_11_s1:1 6.011340e-03
*RES
1 lt_pn17_11_s1:Z pgm_pn17_11_s1:1 5.969284e+00
2 pgm_pn17_11_s1:1 vs_27_17:A 1.000000e-03
*END

*D_NET pgm_pn17_11_s2 1.143844e-02
*CONN
*I lt_pn17_11_s2:Z O
*I vs_40_17:A I
*CAP
1 pgm_pn17_11_s2:1 1.143844e-02
*RES
1 lt_pn17_11_s2:Z pgm_pn17_11_s2:1 1.298014e+01
2 pgm_pn17_11_s2:1 vs_40_17:A 1.000000e-03
*END

*D_NET pgm_pn17_12_s0 1.434117e-02
*CONN
*I lt_pn17_12_s0:Z O
*I vs_14_17:A I
*I vs_7_17:A I
*CAP
1 pgm_pn17_12_s0:1 1.434117e-02
*RES
1 lt_pn17_12_s0:Z pgm_pn17_12_s0:1 1.513387e+01
2 pgm_pn17_12_s0:1 vs_14_17:A 1.000000e-03
3 pgm_pn17_12_s0:1 vs_7_17:A 1.000000e-03
*END

*D_NET pgm_pn17_12_s1 5.997275e-03
*CONN
*I lt_pn17_12_s1:Z O
*I vs_28_17:A I
*CAP
1 pgm_pn17_12_s1:1 5.997275e-03
*RES
1 lt_pn17_12_s1:Z pgm_pn17_12_s1:1 5.233427e+00
2 pgm_pn17_12_s1:1 vs_28_17:A 1.000000e-03
*END

*D_NET pgm_pn17_12_s2 1.775166e-02
*CONN
*I lt_pn17_12_s2:Z O
*I vs_34_17:A I
*CAP
1 pgm_pn17_12_s2:1 1.775166e-02
*RES
1 lt_pn17_12_s2:Z pgm_pn17_12_s2:1 2.014427e+01
2 pgm_pn17_12_s2:1 vs_34_17:A 1.000000e-03
*END

*D_NET pgm_pn17_1_s2 3.190677e-03
*CONN
*I lt_pn17_1_s2:Z O
*I vs_32_17:A I
*CAP
1 pgm_pn17_1_s2:1 3.190677e-03
*RES
1 lt_pn17_1_s2:Z pgm_pn17_1_s2:1 3.620723e+00
2 pgm_pn17_1_s2:1 vs_32_17:A 1.000000e-03
*END

*D_NET pgm_pn17_3_s0 3.353923e-03
*CONN
*I lt_pn17_3_s0:Z O
*I vs_6_17:A I
*CAP
1 pgm_pn17_3_s0:1 3.353923e-03
*RES
1 lt_pn17_3_s0:Z pgm_pn17_3_s0:1 2.953696e+00
2 pgm_pn17_3_s0:1 vs_6_17:A 1.000000e-03
*END

*D_NET pgm_pn17_3_s2 8.437234e-03
*CONN
*I lt_pn17_3_s2:Z O
*I vs_42_17:A I
*CAP
1 pgm_pn17_3_s2:1 8.437234e-03
*RES
1 lt_pn17_3_s2:Z pgm_pn17_3_s2:1 8.578166e+00
2 pgm_pn17_3_s2:1 vs_42_17:A 1.000000e-03
*END

*D_NET pgm_pn17_4_s0 3.587660e-03
*CONN
*I lt_pn17_4_s0:Z O
*I vs_5_17:A I
*I vs_3_17:A I
*CAP
1 pgm_pn17_4_s0:1 3.587660e-03
*RES
1 lt_pn17_4_s0:Z pgm_pn17_4_s0:1 4.071212e+00
2 pgm_pn17_4_s0:1 vs_5_17:A 1.000000e-03
3 pgm_pn17_4_s0:1 vs_3_17:A 1.000000e-03
*END

*D_NET pgm_pn17_4_s1 6.645022e-03
*CONN
*I lt_pn17_4_s1:Z O
*I vs_17_17:A I
*CAP
1 pgm_pn17_4_s1:1 6.645022e-03
*RES
1 lt_pn17_4_s1:Z pgm_pn17_4_s1:1 7.540652e+00
2 pgm_pn17_4_s1:1 vs_17_17:A 1.000000e-03
*END

*D_NET pgm_pn17_5_s3 8.686226e-03
*CONN
*I lt_pn17_5_s3:Z O
*I vs_54_17:A I
*I vs_49_17:A I
*CAP
1 pgm_pn17_5_s3:1 8.686226e-03
*RES
1 lt_pn17_5_s3:Z pgm_pn17_5_s3:1 9.856974e+00
2 pgm_pn17_5_s3:1 vs_54_17:A 1.000000e-03
3 pgm_pn17_5_s3:1 vs_49_17:A 1.000000e-03
*END

*D_NET pgm_pn17_6_s3 1.362778e-04
*CONN
*I lt_pn17_6_s3:Z O
*I vs_56_17:A I
*CAP
1 pgm_pn17_6_s3:1 1.362778e-04
*RES
1 lt_pn17_6_s3:Z pgm_pn17_6_s3:1 1.546456e-01
2 pgm_pn17_6_s3:1 vs_56_17:A 1.000000e-03
*END

*D_NET pgm_pn17_7_s1 1.430916e-03
*CONN
*I lt_pn17_7_s1:Z O
*I vs_24_17:A I
*CAP
1 pgm_pn17_7_s1:1 1.430916e-03
*RES
1 lt_pn17_7_s1:Z pgm_pn17_7_s1:1 1.623778e+00
2 pgm_pn17_7_s1:1 vs_24_17:A 1.000000e-03
*END

*D_NET pgm_pn17_7_s2 1.129920e-02
*CONN
*I lt_pn17_7_s2:Z O
*I vs_33_17:A I
*CAP
1 pgm_pn17_7_s2:1 1.129920e-02
*RES
1 lt_pn17_7_s2:Z pgm_pn17_7_s2:1 1.282213e+01
2 pgm_pn17_7_s2:1 vs_33_17:A 1.000000e-03
*END

*D_NET pgm_pn17_9_s0 2.219581e-02
*CONN
*I lt_pn17_9_s0:Z O
*I vs_15_17:A I
*I vs_13_17:A I
*I vs_0_17:A I
*CAP
1 pgm_pn17_9_s0:1 2.219581e-02
*RES
1 lt_pn17_9_s0:Z pgm_pn17_9_s0:1 2.433513e+01
2 pgm_pn17_9_s0:1 vs_15_17:A 1.000000e-03
3 pgm_pn17_9_s0:1 vs_13_17:A 1.000000e-03
4 pgm_pn17_9_s0:1 vs_0_17:A 1.000000e-03
*END

*D_NET pgm_pn17_9_s1 1.359815e-02
*CONN
*I lt_pn17_9_s1:Z O
*I vs_29_17:A I
*I vs_22_17:A I
*I vs_20_17:A I
*CAP
1 pgm_pn17_9_s1:1 1.359815e-02
*RES
1 lt_pn17_9_s1:Z pgm_pn17_9_s1:1 1.543094e+01
2 pgm_pn17_9_s1:1 vs_29_17:A 1.000000e-03
3 pgm_pn17_9_s1:1 vs_22_17:A 1.000000e-03
4 pgm_pn17_9_s1:1 vs_20_17:A 1.000000e-03
*END

*D_NET pgm_pn17_9_s3 1.266791e-02
*CONN
*I lt_pn17_9_s3:Z O
*I vs_60_17:A I
*I vs_57_17:A I
*I vs_55_17:A I
*I vs_52_17:A I
*CAP
1 pgm_pn17_9_s3:1 1.266791e-02
*RES
1 lt_pn17_9_s3:Z pgm_pn17_9_s3:1 1.437531e+01
2 pgm_pn17_9_s3:1 vs_60_17:A 1.000000e-03
3 pgm_pn17_9_s3:1 vs_57_17:A 1.000000e-03
4 pgm_pn17_9_s3:1 vs_55_17:A 1.000000e-03
5 pgm_pn17_9_s3:1 vs_52_17:A 1.000000e-03
*END

*D_NET pgm_pn18_10_s0 1.562454e-02
*CONN
*I lt_pn18_10_s0:Z O
*I vs_11_18:A I
*I vs_4_18:A I
*I vs_3_18:A I
*CAP
1 pgm_pn18_10_s0:1 1.562454e-02
*RES
1 lt_pn18_10_s0:Z pgm_pn18_10_s0:1 1.773045e+01
2 pgm_pn18_10_s0:1 vs_11_18:A 1.000000e-03
3 pgm_pn18_10_s0:1 vs_4_18:A 1.000000e-03
4 pgm_pn18_10_s0:1 vs_3_18:A 1.000000e-03
*END

*D_NET pgm_pn18_10_s1 9.248532e-03
*CONN
*I lt_pn18_10_s1:Z O
*I vs_24_18:A I
*I vs_23_18:A I
*CAP
1 pgm_pn18_10_s1:1 9.248532e-03
*RES
1 lt_pn18_10_s1:Z pgm_pn18_10_s1:1 9.354833e+00
2 pgm_pn18_10_s1:1 vs_24_18:A 1.000000e-03
3 pgm_pn18_10_s1:1 vs_23_18:A 1.000000e-03
*END

*D_NET pgm_pn18_10_s2 1.796779e-02
*CONN
*I lt_pn18_10_s2:Z O
*I vs_36_18:A I
*I vs_32_18:A I
*CAP
1 pgm_pn18_10_s2:1 1.796779e-02
*RES
1 lt_pn18_10_s2:Z pgm_pn18_10_s2:1 1.939327e+01
2 pgm_pn18_10_s2:1 vs_36_18:A 1.000000e-03
3 pgm_pn18_10_s2:1 vs_32_18:A 1.000000e-03
*END

*D_NET pgm_pn18_11_s0 7.830657e-03
*CONN
*I lt_pn18_11_s0:Z O
*I vs_9_18:A I
*CAP
1 pgm_pn18_11_s0:1 7.830657e-03
*RES
1 lt_pn18_11_s0:Z pgm_pn18_11_s0:1 7.169936e+00
2 pgm_pn18_11_s0:1 vs_9_18:A 1.000000e-03
*END

*D_NET pgm_pn18_11_s1 1.807904e-02
*CONN
*I lt_pn18_11_s1:Z O
*I vs_17_18:A I
*CAP
1 pgm_pn18_11_s1:1 1.807904e-02
*RES
1 lt_pn18_11_s1:Z pgm_pn18_11_s1:1 1.908757e+01
2 pgm_pn18_11_s1:1 vs_17_18:A 1.000000e-03
*END

*D_NET pgm_pn18_11_s3 1.297336e-02
*CONN
*I lt_pn18_11_s3:Z O
*I vs_60_18:A I
*I vs_58_18:A I
*I vs_54_18:A I
*CAP
1 pgm_pn18_11_s3:1 1.297336e-02
*RES
1 lt_pn18_11_s3:Z pgm_pn18_11_s3:1 1.386966e+01
2 pgm_pn18_11_s3:1 vs_60_18:A 1.000000e-03
3 pgm_pn18_11_s3:1 vs_58_18:A 1.000000e-03
4 pgm_pn18_11_s3:1 vs_54_18:A 1.000000e-03
*END

*D_NET pgm_pn18_12_s1 2.267649e-02
*CONN
*I lt_pn18_12_s1:Z O
*I vs_29_18:A I
*I vs_16_18:A I
*CAP
1 pgm_pn18_12_s1:1 2.267649e-02
*RES
1 lt_pn18_12_s1:Z pgm_pn18_12_s1:1 2.416070e+01
2 pgm_pn18_12_s1:1 vs_29_18:A 1.000000e-03
3 pgm_pn18_12_s1:1 vs_16_18:A 1.000000e-03
*END

*D_NET pgm_pn18_3_s0 1.317747e-02
*CONN
*I lt_pn18_3_s0:Z O
*I vs_14_18:A I
*CAP
1 pgm_pn18_3_s0:1 1.317747e-02
*RES
1 lt_pn18_3_s0:Z pgm_pn18_3_s0:1 1.495355e+01
2 pgm_pn18_3_s0:1 vs_14_18:A 1.000000e-03
*END

*D_NET pgm_pn18_3_s2 3.688387e-03
*CONN
*I lt_pn18_3_s2:Z O
*I vs_37_18:A I
*CAP
1 pgm_pn18_3_s2:1 3.688387e-03
*RES
1 lt_pn18_3_s2:Z pgm_pn18_3_s2:1 4.185516e+00
2 pgm_pn18_3_s2:1 vs_37_18:A 1.000000e-03
*END

*D_NET pgm_pn18_3_s3 1.890113e-03
*CONN
*I lt_pn18_3_s3:Z O
*I vs_51_18:A I
*CAP
1 pgm_pn18_3_s3:1 1.890113e-03
*RES
1 lt_pn18_3_s3:Z pgm_pn18_3_s3:1 2.144867e+00
2 pgm_pn18_3_s3:1 vs_51_18:A 1.000000e-03
*END

*D_NET pgm_pn18_4_s0 6.550220e-03
*CONN
*I lt_pn18_4_s0:Z O
*I vs_5_18:A I
*I vs_1_18:A I
*CAP
1 pgm_pn18_4_s0:1 6.550220e-03
*RES
1 lt_pn18_4_s0:Z pgm_pn18_4_s0:1 7.433072e+00
2 pgm_pn18_4_s0:1 vs_5_18:A 1.000000e-03
3 pgm_pn18_4_s0:1 vs_1_18:A 1.000000e-03
*END

*D_NET pgm_pn18_5_s1 4.888224e-04
*CONN
*I lt_pn18_5_s1:Z O
*I vs_22_18:A I
*CAP
1 pgm_pn18_5_s1:1 4.888224e-04
*RES
1 lt_pn18_5_s1:Z pgm_pn18_5_s1:1 5.547069e-01
2 pgm_pn18_5_s1:1 vs_22_18:A 1.000000e-03
*END

*D_NET pgm_pn18_5_s3 1.111256e-02
*CONN
*I lt_pn18_5_s3:Z O
*I vs_63_18:A I
*CAP
1 pgm_pn18_5_s3:1 1.111256e-02
*RES
1 lt_pn18_5_s3:Z pgm_pn18_5_s3:1 1.261034e+01
2 pgm_pn18_5_s3:1 vs_63_18:A 1.000000e-03
*END

*D_NET pgm_pn18_6_s2 5.068940e-03
*CONN
*I lt_pn18_6_s2:Z O
*I vs_43_18:A I
*CAP
1 pgm_pn18_6_s2:1 5.068940e-03
*RES
1 lt_pn18_6_s2:Z pgm_pn18_6_s2:1 5.752142e+00
2 pgm_pn18_6_s2:1 vs_43_18:A 1.000000e-03
*END

*D_NET pgm_pn18_7_s3 1.439065e-02
*CONN
*I lt_pn18_7_s3:Z O
*I vs_48_18:A I
*CAP
1 pgm_pn18_7_s3:1 1.439065e-02
*RES
1 lt_pn18_7_s3:Z pgm_pn18_7_s3:1 1.490206e+01
2 pgm_pn18_7_s3:1 vs_48_18:A 1.000000e-03
*END

*D_NET pgm_pn18_8_s1 1.573119e-03
*CONN
*I lt_pn18_8_s1:Z O
*I vs_27_18:A I
*CAP
1 pgm_pn18_8_s1:1 1.573119e-03
*RES
1 lt_pn18_8_s1:Z pgm_pn18_8_s1:1 1.785148e+00
2 pgm_pn18_8_s1:1 vs_27_18:A 1.000000e-03
*END

*D_NET pgm_pn18_8_s3 2.058710e-02
*CONN
*I lt_pn18_8_s3:Z O
*I vs_61_18:A I
*I vs_55_18:A I
*I vs_49_18:A I
*CAP
1 pgm_pn18_8_s3:1 2.058710e-02
*RES
1 lt_pn18_8_s3:Z pgm_pn18_8_s3:1 2.212148e+01
2 pgm_pn18_8_s3:1 vs_61_18:A 1.000000e-03
3 pgm_pn18_8_s3:1 vs_55_18:A 1.000000e-03
4 pgm_pn18_8_s3:1 vs_49_18:A 1.000000e-03
*END

*D_NET pgm_pn18_9_s0 4.867009e-03
*CONN
*I lt_pn18_9_s0:Z O
*I vs_15_18:A I
*CAP
1 pgm_pn18_9_s0:1 4.867009e-03
*RES
1 lt_pn18_9_s0:Z pgm_pn18_9_s0:1 5.002496e+00
2 pgm_pn18_9_s0:1 vs_15_18:A 1.000000e-03
*END

*D_NET pgm_pn18_9_s1 1.277456e-02
*CONN
*I lt_pn18_9_s1:Z O
*I vs_21_18:A I
*I vs_19_18:A I
*I vs_18_18:A I
*CAP
1 pgm_pn18_9_s1:1 1.277456e-02
*RES
1 lt_pn18_9_s1:Z pgm_pn18_9_s1:1 1.449634e+01
2 pgm_pn18_9_s1:1 vs_21_18:A 1.000000e-03
3 pgm_pn18_9_s1:1 vs_19_18:A 1.000000e-03
4 pgm_pn18_9_s1:1 vs_18_18:A 1.000000e-03
*END

*D_NET pgm_pn18_9_s2 1.839528e-02
*CONN
*I lt_pn18_9_s2:Z O
*I vs_47_18:A I
*I vs_35_18:A I
*CAP
1 pgm_pn18_9_s2:1 1.839528e-02
*RES
1 lt_pn18_9_s2:Z pgm_pn18_9_s2:1 2.016634e+01
2 pgm_pn18_9_s2:1 vs_47_18:A 1.000000e-03
3 pgm_pn18_9_s2:1 vs_35_18:A 1.000000e-03
*END

*D_NET pgm_pn18_9_s3 4.290535e-03
*CONN
*I lt_pn18_9_s3:Z O
*I vs_59_18:A I
*I vs_57_18:A I
*CAP
1 pgm_pn18_9_s3:1 4.290535e-03
*RES
1 lt_pn18_9_s3:Z pgm_pn18_9_s3:1 4.160525e+00
2 pgm_pn18_9_s3:1 vs_59_18:A 1.000000e-03
3 pgm_pn18_9_s3:1 vs_57_18:A 1.000000e-03
*END

*D_NET pgm_pn19_10_s0 7.052832e-03
*CONN
*I lt_pn19_10_s0:Z O
*I vs_8_19:A I
*CAP
1 pgm_pn19_10_s0:1 7.052832e-03
*RES
1 lt_pn19_10_s0:Z pgm_pn19_10_s0:1 6.719213e+00
2 pgm_pn19_10_s0:1 vs_8_19:A 1.000000e-03
*END

*D_NET pgm_pn19_10_s1 1.327237e-02
*CONN
*I lt_pn19_10_s1:Z O
*I vs_31_19:A I
*I vs_23_19:A I
*CAP
1 pgm_pn19_10_s1:1 1.327237e-02
*RES
1 lt_pn19_10_s1:Z pgm_pn19_10_s1:1 1.243648e+01
2 pgm_pn19_10_s1:1 vs_31_19:A 1.000000e-03
3 pgm_pn19_10_s1:1 vs_23_19:A 1.000000e-03
*END

*D_NET pgm_pn19_10_s2 1.670291e-02
*CONN
*I lt_pn19_10_s2:Z O
*I vs_32_19:A I
*CAP
1 pgm_pn19_10_s2:1 1.670291e-02
*RES
1 lt_pn19_10_s2:Z pgm_pn19_10_s2:1 1.895417e+01
2 pgm_pn19_10_s2:1 vs_32_19:A 1.000000e-03
*END

*D_NET pgm_pn19_10_s3 9.028928e-03
*CONN
*I lt_pn19_10_s3:Z O
*I vs_56_19:A I
*CAP
1 pgm_pn19_10_s3:1 9.028928e-03
*RES
1 lt_pn19_10_s3:Z pgm_pn19_10_s3:1 9.193270e+00
2 pgm_pn19_10_s3:1 vs_56_19:A 1.000000e-03
*END

*D_NET pgm_pn19_11_s1 2.012010e-02
*CONN
*I lt_pn19_11_s1:Z O
*I vs_25_19:A I
*I vs_17_19:A I
*CAP
1 pgm_pn19_11_s1:1 2.012010e-02
*RES
1 lt_pn19_11_s1:Z pgm_pn19_11_s1:1 2.040168e+01
2 pgm_pn19_11_s1:1 vs_25_19:A 1.000000e-03
3 pgm_pn19_11_s1:1 vs_17_19:A 1.000000e-03
*END

*D_NET pgm_pn19_11_s2 1.572292e-02
*CONN
*I lt_pn19_11_s2:Z O
*I vs_36_19:A I
*I vs_35_19:A I
*CAP
1 pgm_pn19_11_s2:1 1.572292e-02
*RES
1 lt_pn19_11_s2:Z pgm_pn19_11_s2:1 1.612593e+01
2 pgm_pn19_11_s2:1 vs_36_19:A 1.000000e-03
3 pgm_pn19_11_s2:1 vs_35_19:A 1.000000e-03
*END

*D_NET pgm_pn19_12_s0 1.076332e-02
*CONN
*I lt_pn19_12_s0:Z O
*I vs_10_19:A I
*CAP
1 pgm_pn19_12_s0:1 1.076332e-02
*RES
1 lt_pn19_12_s0:Z pgm_pn19_12_s0:1 8.493754e+00
2 pgm_pn19_12_s0:1 vs_10_19:A 1.000000e-03
*END

*D_NET pgm_pn19_12_s1 2.365236e-02
*CONN
*I lt_pn19_12_s1:Z O
*I vs_29_19:A I
*I vs_28_19:A I
*I vs_22_19:A I
*I vs_16_19:A I
*CAP
1 pgm_pn19_12_s1:1 2.365236e-02
*RES
1 lt_pn19_12_s1:Z pgm_pn19_12_s1:1 2.469218e+01
2 pgm_pn19_12_s1:1 vs_29_19:A 1.000000e-03
3 pgm_pn19_12_s1:1 vs_28_19:A 1.000000e-03
4 pgm_pn19_12_s1:1 vs_22_19:A 1.000000e-03
5 pgm_pn19_12_s1:1 vs_16_19:A 1.000000e-03
*END

*D_NET pgm_pn19_12_s2 1.384704e-02
*CONN
*I lt_pn19_12_s2:Z O
*I vs_46_19:A I
*I vs_40_19:A I
*CAP
1 pgm_pn19_12_s2:1 1.384704e-02
*RES
1 lt_pn19_12_s2:Z pgm_pn19_12_s2:1 1.285698e+01
2 pgm_pn19_12_s2:1 vs_46_19:A 1.000000e-03
3 pgm_pn19_12_s2:1 vs_40_19:A 1.000000e-03
*END

*D_NET pgm_pn19_12_s3 2.320621e-02
*CONN
*I lt_pn19_12_s3:Z O
*I vs_61_19:A I
*I vs_52_19:A I
*I vs_49_19:A I
*CAP
1 pgm_pn19_12_s3:1 2.320621e-02
*RES
1 lt_pn19_12_s3:Z pgm_pn19_12_s3:1 2.361578e+01
2 pgm_pn19_12_s3:1 vs_61_19:A 1.000000e-03
3 pgm_pn19_12_s3:1 vs_52_19:A 1.000000e-03
4 pgm_pn19_12_s3:1 vs_49_19:A 1.000000e-03
*END

*D_NET pgm_pn19_2_s0 1.843018e-03
*CONN
*I lt_pn19_2_s0:Z O
*I vs_2_19:A I
*CAP
1 pgm_pn19_2_s0:1 1.843018e-03
*RES
1 lt_pn19_2_s0:Z pgm_pn19_2_s0:1 1.239147e+00
2 pgm_pn19_2_s0:1 vs_2_19:A 1.000000e-03
*END

*D_NET pgm_pn19_4_s0 9.098022e-03
*CONN
*I lt_pn19_4_s0:Z O
*I vs_12_19:A I
*CAP
1 pgm_pn19_4_s0:1 9.098022e-03
*RES
1 lt_pn19_4_s0:Z pgm_pn19_4_s0:1 1.032427e+01
2 pgm_pn19_4_s0:1 vs_12_19:A 1.000000e-03
*END

*D_NET pgm_pn19_4_s2 1.195393e-02
*CONN
*I lt_pn19_4_s2:Z O
*I vs_45_19:A I
*CAP
1 pgm_pn19_4_s2:1 1.195393e-02
*RES
1 lt_pn19_4_s2:Z pgm_pn19_4_s2:1 1.356511e+01
2 pgm_pn19_4_s2:1 vs_45_19:A 1.000000e-03
*END

*D_NET pgm_pn19_5_s1 6.016959e-03
*CONN
*I lt_pn19_5_s1:Z O
*I vs_19_19:A I
*CAP
1 pgm_pn19_5_s1:1 6.016959e-03
*RES
1 lt_pn19_5_s1:Z pgm_pn19_5_s1:1 6.827938e+00
2 pgm_pn19_5_s1:1 vs_19_19:A 1.000000e-03
*END

*D_NET pgm_pn19_5_s3 5.199293e-03
*CONN
*I lt_pn19_5_s3:Z O
*I vs_51_19:A I
*CAP
1 pgm_pn19_5_s3:1 5.199293e-03
*RES
1 lt_pn19_5_s3:Z pgm_pn19_5_s3:1 5.900064e+00
2 pgm_pn19_5_s3:1 vs_51_19:A 1.000000e-03
*END

*D_NET pgm_pn19_6_s2 8.155928e-03
*CONN
*I lt_pn19_6_s2:Z O
*I vs_34_19:A I
*CAP
1 pgm_pn19_6_s2:1 8.155928e-03
*RES
1 lt_pn19_6_s2:Z pgm_pn19_6_s2:1 9.255201e+00
2 pgm_pn19_6_s2:1 vs_34_19:A 1.000000e-03
*END

*D_NET pgm_pn19_7_s0 1.103257e-02
*CONN
*I lt_pn19_7_s0:Z O
*I vs_1_19:A I
*CAP
1 pgm_pn19_7_s0:1 1.103257e-02
*RES
1 lt_pn19_7_s0:Z pgm_pn19_7_s0:1 1.251957e+01
2 pgm_pn19_7_s0:1 vs_1_19:A 1.000000e-03
*END

*D_NET pgm_pn19_8_s3 1.169057e-02
*CONN
*I lt_pn19_8_s3:Z O
*I vs_50_19:A I
*CAP
1 pgm_pn19_8_s3:1 1.169057e-02
*RES
1 lt_pn19_8_s3:Z pgm_pn19_8_s3:1 1.241397e+01
2 pgm_pn19_8_s3:1 vs_50_19:A 1.000000e-03
*END

*D_NET pgm_pn19_9_s1 5.421485e-03
*CONN
*I lt_pn19_9_s1:Z O
*I vs_24_19:A I
*CAP
1 pgm_pn19_9_s1:1 5.421485e-03
*RES
1 lt_pn19_9_s1:Z pgm_pn19_9_s1:1 6.152204e+00
2 pgm_pn19_9_s1:1 vs_24_19:A 1.000000e-03
*END

*D_NET pgm_pn19_9_s2 9.507603e-03
*CONN
*I lt_pn19_9_s2:Z O
*I vs_38_19:A I
*I vs_37_19:A I
*CAP
1 pgm_pn19_9_s2:1 9.507603e-03
*RES
1 lt_pn19_9_s2:Z pgm_pn19_9_s2:1 1.008076e+01
2 pgm_pn19_9_s2:1 vs_38_19:A 1.000000e-03
3 pgm_pn19_9_s2:1 vs_37_19:A 1.000000e-03
*END

*D_NET pgm_pn19_9_s3 1.723617e-02
*CONN
*I lt_pn19_9_s3:Z O
*I vs_53_19:A I
*I vs_48_19:A I
*CAP
1 pgm_pn19_9_s3:1 1.723617e-02
*RES
1 lt_pn19_9_s3:Z pgm_pn19_9_s3:1 1.955930e+01
2 pgm_pn19_9_s3:1 vs_53_19:A 1.000000e-03
3 pgm_pn19_9_s3:1 vs_48_19:A 1.000000e-03
*END

*D_NET pgm_pn1_0_s2 7.693768e-03
*CONN
*I lt_pn1_0_s2:Z O
*I vs_37_1:A I
*CAP
1 pgm_pn1_0_s2:1 7.693768e-03
*RES
1 lt_pn1_0_s2:Z pgm_pn1_0_s2:1 8.730750e+00
2 pgm_pn1_0_s2:1 vs_37_1:A 1.000000e-03
*END

*D_NET pgm_pn1_10_s0 1.187738e-02
*CONN
*I lt_pn1_10_s0:Z O
*I vs_13_1:A I
*I vs_8_1:A I
*CAP
1 pgm_pn1_10_s0:1 1.187738e-02
*RES
1 lt_pn1_10_s0:Z pgm_pn1_10_s0:1 1.076583e+01
2 pgm_pn1_10_s0:1 vs_13_1:A 1.000000e-03
3 pgm_pn1_10_s0:1 vs_8_1:A 1.000000e-03
*END

*D_NET pgm_pn1_10_s1 1.442767e-03
*CONN
*I lt_pn1_10_s1:Z O
*I vs_29_1:A I
*CAP
1 pgm_pn1_10_s1:1 1.442767e-03
*RES
1 lt_pn1_10_s1:Z pgm_pn1_10_s1:1 1.637226e+00
2 pgm_pn1_10_s1:1 vs_29_1:A 1.000000e-03
*END

*D_NET pgm_pn1_10_s3 2.072447e-02
*CONN
*I lt_pn1_10_s3:Z O
*I vs_62_1:A I
*I vs_59_1:A I
*I vs_48_1:A I
*CAP
1 pgm_pn1_10_s3:1 2.072447e-02
*RES
1 lt_pn1_10_s3:Z pgm_pn1_10_s3:1 2.109330e+01
2 pgm_pn1_10_s3:1 vs_62_1:A 1.000000e-03
3 pgm_pn1_10_s3:1 vs_59_1:A 1.000000e-03
4 pgm_pn1_10_s3:1 vs_48_1:A 1.000000e-03
*END

*D_NET pgm_pn1_11_s0 8.159024e-03
*CONN
*I lt_pn1_11_s0:Z O
*I vs_14_1:A I
*I vs_10_1:A I
*CAP
1 pgm_pn1_11_s0:1 8.159024e-03
*RES
1 lt_pn1_11_s0:Z pgm_pn1_11_s0:1 7.022063e+00
2 pgm_pn1_11_s0:1 vs_14_1:A 1.000000e-03
3 pgm_pn1_11_s0:1 vs_10_1:A 1.000000e-03
*END

*D_NET pgm_pn1_11_s1 9.127647e-03
*CONN
*I lt_pn1_11_s1:Z O
*I vs_31_1:A I
*I vs_26_1:A I
*CAP
1 pgm_pn1_11_s1:1 9.127647e-03
*RES
1 lt_pn1_11_s1:Z pgm_pn1_11_s1:1 1.035789e+01
2 pgm_pn1_11_s1:1 vs_31_1:A 1.000000e-03
3 pgm_pn1_11_s1:1 vs_26_1:A 1.000000e-03
*END

*D_NET pgm_pn1_11_s2 6.402092e-03
*CONN
*I lt_pn1_11_s2:Z O
*I vs_46_1:A I
*I vs_43_1:A I
*CAP
1 pgm_pn1_11_s2:1 6.402092e-03
*RES
1 lt_pn1_11_s2:Z pgm_pn1_11_s2:1 7.264979e+00
2 pgm_pn1_11_s2:1 vs_46_1:A 1.000000e-03
3 pgm_pn1_11_s2:1 vs_43_1:A 1.000000e-03
*END

*D_NET pgm_pn1_11_s3 1.052066e-02
*CONN
*I lt_pn1_11_s3:Z O
*I vs_55_1:A I
*CAP
1 pgm_pn1_11_s3:1 1.052066e-02
*RES
1 lt_pn1_11_s3:Z pgm_pn1_11_s3:1 1.022251e+01
2 pgm_pn1_11_s3:1 vs_55_1:A 1.000000e-03
*END

*D_NET pgm_pn1_12_s1 6.888563e-03
*CONN
*I lt_pn1_12_s1:Z O
*I vs_27_1:A I
*CAP
1 pgm_pn1_12_s1:1 6.888563e-03
*RES
1 lt_pn1_12_s1:Z pgm_pn1_12_s1:1 6.100865e+00
2 pgm_pn1_12_s1:1 vs_27_1:A 1.000000e-03
*END

*D_NET pgm_pn1_2_s3 9.959104e-03
*CONN
*I lt_pn1_2_s3:Z O
*I vs_58_1:A I
*CAP
1 pgm_pn1_2_s3:1 9.959104e-03
*RES
1 lt_pn1_2_s3:Z pgm_pn1_2_s3:1 1.001720e+01
2 pgm_pn1_2_s3:1 vs_58_1:A 1.000000e-03
*END

*D_NET pgm_pn1_3_s0 4.953400e-03
*CONN
*I lt_pn1_3_s0:Z O
*I vs_4_1:A I
*I vs_1_1:A I
*CAP
1 pgm_pn1_3_s0:1 4.953400e-03
*RES
1 lt_pn1_3_s0:Z pgm_pn1_3_s0:1 5.621030e+00
2 pgm_pn1_3_s0:1 vs_4_1:A 1.000000e-03
3 pgm_pn1_3_s0:1 vs_1_1:A 1.000000e-03
*END

*D_NET pgm_pn1_5_s2 7.139770e-03
*CONN
*I lt_pn1_5_s2:Z O
*I vs_34_1:A I
*CAP
1 pgm_pn1_5_s2:1 7.139770e-03
*RES
1 lt_pn1_5_s2:Z pgm_pn1_5_s2:1 8.102083e+00
2 pgm_pn1_5_s2:1 vs_34_1:A 1.000000e-03
*END

*D_NET pgm_pn1_6_s2 4.984656e-03
*CONN
*I lt_pn1_6_s2:Z O
*I vs_38_1:A I
*CAP
1 pgm_pn1_6_s2:1 4.984656e-03
*RES
1 lt_pn1_6_s2:Z pgm_pn1_6_s2:1 1.423835e+00
2 pgm_pn1_6_s2:1 vs_38_1:A 1.000000e-03
*END

*D_NET pgm_pn1_7_s0 1.098331e-02
*CONN
*I lt_pn1_7_s0:Z O
*I vs_5_1:A I
*CAP
1 pgm_pn1_7_s0:1 1.098331e-02
*RES
1 lt_pn1_7_s0:Z pgm_pn1_7_s0:1 6.311398e+00
2 pgm_pn1_7_s0:1 vs_5_1:A 1.000000e-03
*END

*D_NET pgm_pn1_8_s0 1.212150e-02
*CONN
*I lt_pn1_8_s0:Z O
*I vs_12_1:A I
*I vs_6_1:A I
*CAP
1 pgm_pn1_8_s0:1 1.212150e-02
*RES
1 lt_pn1_8_s0:Z pgm_pn1_8_s0:1 1.047273e+01
2 pgm_pn1_8_s0:1 vs_12_1:A 1.000000e-03
3 pgm_pn1_8_s0:1 vs_6_1:A 1.000000e-03
*END

*D_NET pgm_pn1_8_s1 4.574193e-03
*CONN
*I lt_pn1_8_s1:Z O
*I vs_23_1:A I
*CAP
1 pgm_pn1_8_s1:1 4.574193e-03
*RES
1 lt_pn1_8_s1:Z pgm_pn1_8_s1:1 5.190712e+00
2 pgm_pn1_8_s1:1 vs_23_1:A 1.000000e-03
*END

*D_NET pgm_pn1_9_s0 1.573712e-02
*CONN
*I lt_pn1_9_s0:Z O
*I vs_0_1:A I
*CAP
1 pgm_pn1_9_s0:1 1.573712e-02
*RES
1 lt_pn1_9_s0:Z pgm_pn1_9_s0:1 1.785820e+01
2 pgm_pn1_9_s0:1 vs_0_1:A 1.000000e-03
*END

*D_NET pgm_pn1_9_s1 1.723617e-02
*CONN
*I lt_pn1_9_s1:Z O
*I vs_25_1:A I
*I vs_16_1:A I
*CAP
1 pgm_pn1_9_s1:1 1.723617e-02
*RES
1 lt_pn1_9_s1:Z pgm_pn1_9_s1:1 1.955930e+01
2 pgm_pn1_9_s1:1 vs_25_1:A 1.000000e-03
3 pgm_pn1_9_s1:1 vs_16_1:A 1.000000e-03
*END

*D_NET pgm_pn1_9_s2 1.514757e-02
*CONN
*I lt_pn1_9_s2:Z O
*I vs_45_1:A I
*I vs_44_1:A I
*I vs_40_1:A I
*I vs_36_1:A I
*CAP
1 pgm_pn1_9_s2:1 1.514757e-02
*RES
1 lt_pn1_9_s2:Z pgm_pn1_9_s2:1 1.718919e+01
2 pgm_pn1_9_s2:1 vs_45_1:A 1.000000e-03
3 pgm_pn1_9_s2:1 vs_44_1:A 1.000000e-03
4 pgm_pn1_9_s2:1 vs_40_1:A 1.000000e-03
5 pgm_pn1_9_s2:1 vs_36_1:A 1.000000e-03
*END

*D_NET pgm_pn1_9_s3 1.408105e-02
*CONN
*I lt_pn1_9_s3:Z O
*I vs_57_1:A I
*I vs_50_1:A I
*CAP
1 pgm_pn1_9_s3:1 1.408105e-02
*RES
1 lt_pn1_9_s3:Z pgm_pn1_9_s3:1 1.597892e+01
2 pgm_pn1_9_s3:1 vs_57_1:A 1.000000e-03
3 pgm_pn1_9_s3:1 vs_50_1:A 1.000000e-03
*END

*D_NET pgm_pn20_0_s0 1.473046e-02
*CONN
*I lt_pn20_0_s0:Z O
*I vs_11_20:A I
*CAP
1 pgm_pn20_0_s0:1 1.473046e-02
*RES
1 lt_pn20_0_s0:Z pgm_pn20_0_s0:1 1.499971e+01
2 pgm_pn20_0_s0:1 vs_11_20:A 1.000000e-03
*END

*D_NET pgm_pn20_10_s1 7.317523e-03
*CONN
*I lt_pn20_10_s1:Z O
*I vs_31_20:A I
*I vs_27_20:A I
*CAP
1 pgm_pn20_10_s1:1 7.317523e-03
*RES
1 lt_pn20_10_s1:Z pgm_pn20_10_s1:1 8.303794e+00
2 pgm_pn20_10_s1:1 vs_31_20:A 1.000000e-03
3 pgm_pn20_10_s1:1 vs_27_20:A 1.000000e-03
*END

*D_NET pgm_pn20_11_s0 2.122351e-02
*CONN
*I lt_pn20_11_s0:Z O
*I vs_8_20:A I
*I vs_0_20:A I
*CAP
1 pgm_pn20_11_s0:1 2.122351e-02
*RES
1 lt_pn20_11_s0:Z pgm_pn20_11_s0:1 2.207994e+01
2 pgm_pn20_11_s0:1 vs_8_20:A 1.000000e-03
3 pgm_pn20_11_s0:1 vs_0_20:A 1.000000e-03
*END

*D_NET pgm_pn20_11_s1 2.043649e-02
*CONN
*I lt_pn20_11_s1:Z O
*I vs_25_20:A I
*I vs_18_20:A I
*I vs_16_20:A I
*CAP
1 pgm_pn20_11_s1:1 2.043649e-02
*RES
1 lt_pn20_11_s1:Z pgm_pn20_11_s1:1 2.248266e+01
2 pgm_pn20_11_s1:1 vs_25_20:A 1.000000e-03
3 pgm_pn20_11_s1:1 vs_18_20:A 1.000000e-03
4 pgm_pn20_11_s1:1 vs_16_20:A 1.000000e-03
*END

*D_NET pgm_pn20_11_s2 2.351002e-02
*CONN
*I lt_pn20_11_s2:Z O
*I vs_47_20:A I
*I vs_35_20:A I
*I vs_32_20:A I
*CAP
1 pgm_pn20_11_s2:1 2.351002e-02
*RES
1 lt_pn20_11_s2:Z pgm_pn20_11_s2:1 2.353440e+01
2 pgm_pn20_11_s2:1 vs_47_20:A 1.000000e-03
3 pgm_pn20_11_s2:1 vs_35_20:A 1.000000e-03
4 pgm_pn20_11_s2:1 vs_32_20:A 1.000000e-03
*END

*D_NET pgm_pn20_12_s2 1.751823e-02
*CONN
*I lt_pn20_12_s2:Z O
*I vs_43_20:A I
*I vs_40_20:A I
*I vs_36_20:A I
*CAP
1 pgm_pn20_12_s2:1 1.751823e-02
*RES
1 lt_pn20_12_s2:Z pgm_pn20_12_s2:1 1.816322e+01
2 pgm_pn20_12_s2:1 vs_43_20:A 1.000000e-03
3 pgm_pn20_12_s2:1 vs_40_20:A 1.000000e-03
4 pgm_pn20_12_s2:1 vs_36_20:A 1.000000e-03
*END

*D_NET pgm_pn20_3_s1 4.580118e-03
*CONN
*I lt_pn20_3_s1:Z O
*I vs_23_20:A I
*CAP
1 pgm_pn20_3_s1:1 4.580118e-03
*RES
1 lt_pn20_3_s1:Z pgm_pn20_3_s1:1 5.197436e+00
2 pgm_pn20_3_s1:1 vs_23_20:A 1.000000e-03
*END

*D_NET pgm_pn20_3_s3 3.457308e-03
*CONN
*I lt_pn20_3_s3:Z O
*I vs_50_20:A I
*CAP
1 pgm_pn20_3_s3:1 3.457308e-03
*RES
1 lt_pn20_3_s3:Z pgm_pn20_3_s3:1 3.923291e+00
2 pgm_pn20_3_s3:1 vs_50_20:A 1.000000e-03
*END

*D_NET pgm_pn20_4_s2 5.788842e-03
*CONN
*I lt_pn20_4_s2:Z O
*I vs_38_20:A I
*I vs_34_20:A I
*CAP
1 pgm_pn20_4_s2:1 5.788842e-03
*RES
1 lt_pn20_4_s2:Z pgm_pn20_4_s2:1 6.569074e+00
2 pgm_pn20_4_s2:1 vs_38_20:A 1.000000e-03
3 pgm_pn20_4_s2:1 vs_34_20:A 1.000000e-03
*END

*D_NET pgm_pn20_4_s3 7.039043e-03
*CONN
*I lt_pn20_4_s3:Z O
*I vs_58_20:A I
*I vs_55_20:A I
*CAP
1 pgm_pn20_4_s3:1 7.039043e-03
*RES
1 lt_pn20_4_s3:Z pgm_pn20_4_s3:1 7.987779e+00
2 pgm_pn20_4_s3:1 vs_58_20:A 1.000000e-03
3 pgm_pn20_4_s3:1 vs_55_20:A 1.000000e-03
*END

*D_NET pgm_pn20_5_s0 2.559652e-03
*CONN
*I lt_pn20_5_s0:Z O
*I vs_5_20:A I
*CAP
1 pgm_pn20_5_s0:1 2.559652e-03
*RES
1 lt_pn20_5_s0:Z pgm_pn20_5_s0:1 2.904647e+00
2 pgm_pn20_5_s0:1 vs_5_20:A 1.000000e-03
*END

*D_NET pgm_pn20_5_s3 3.718013e-03
*CONN
*I lt_pn20_5_s3:Z O
*I vs_52_20:A I
*CAP
1 pgm_pn20_5_s3:1 3.718013e-03
*RES
1 lt_pn20_5_s3:Z pgm_pn20_5_s3:1 4.219134e+00
2 pgm_pn20_5_s3:1 vs_52_20:A 1.000000e-03
*END

*D_NET pgm_pn20_6_s0 2.695930e-03
*CONN
*I lt_pn20_6_s0:Z O
*I vs_6_20:A I
*CAP
1 pgm_pn20_6_s0:1 2.695930e-03
*RES
1 lt_pn20_6_s0:Z pgm_pn20_6_s0:1 3.059293e+00
2 pgm_pn20_6_s0:1 vs_6_20:A 1.000000e-03
*END

*D_NET pgm_pn20_7_s2 5.839206e-03
*CONN
*I lt_pn20_7_s2:Z O
*I vs_45_20:A I
*CAP
1 pgm_pn20_7_s2:1 5.839206e-03
*RES
1 lt_pn20_7_s2:Z pgm_pn20_7_s2:1 6.626226e+00
2 pgm_pn20_7_s2:1 vs_45_20:A 1.000000e-03
*END

*D_NET pgm_pn20_8_s2 1.318932e-02
*CONN
*I lt_pn20_8_s2:Z O
*I vs_33_20:A I
*CAP
1 pgm_pn20_8_s2:1 1.318932e-02
*RES
1 lt_pn20_8_s2:Z pgm_pn20_8_s2:1 1.496700e+01
2 pgm_pn20_8_s2:1 vs_33_20:A 1.000000e-03
*END

*D_NET pgm_pn20_8_s3 1.496093e-02
*CONN
*I lt_pn20_8_s3:Z O
*I vs_48_20:A I
*CAP
1 pgm_pn20_8_s3:1 1.496093e-02
*RES
1 lt_pn20_8_s3:Z pgm_pn20_8_s3:1 1.697739e+01
2 pgm_pn20_8_s3:1 vs_48_20:A 1.000000e-03
*END

*D_NET pgm_pn20_9_s0 1.367814e-02
*CONN
*I lt_pn20_9_s0:Z O
*I vs_4_20:A I
*CAP
1 pgm_pn20_9_s0:1 1.367814e-02
*RES
1 lt_pn20_9_s0:Z pgm_pn20_9_s0:1 1.552171e+01
2 pgm_pn20_9_s0:1 vs_4_20:A 1.000000e-03
*END

*D_NET pgm_pn20_9_s1 2.859619e-03
*CONN
*I lt_pn20_9_s1:Z O
*I vs_29_20:A I
*CAP
1 pgm_pn20_9_s1:1 2.859619e-03
*RES
1 lt_pn20_9_s1:Z pgm_pn20_9_s1:1 2.536747e+00
2 pgm_pn20_9_s1:1 vs_29_20:A 1.000000e-03
*END

*D_NET pgm_pn21_0_s0 1.700213e-02
*CONN
*I lt_pn21_0_s0:Z O
*I vs_14_21:A I
*I vs_12_21:A I
*I vs_11_21:A I
*I vs_8_21:A I
*I vs_7_21:A I
*I vs_4_21:A I
*I vs_3_21:A I
*I vs_2_21:A I
*CAP
1 pgm_pn21_0_s0:1 1.700213e-02
*RES
1 lt_pn21_0_s0:Z pgm_pn21_0_s0:1 1.929371e+01
2 pgm_pn21_0_s0:1 vs_14_21:A 1.000000e-03
3 pgm_pn21_0_s0:1 vs_12_21:A 1.000000e-03
4 pgm_pn21_0_s0:1 vs_11_21:A 1.000000e-03
5 pgm_pn21_0_s0:1 vs_8_21:A 1.000000e-03
6 pgm_pn21_0_s0:1 vs_7_21:A 1.000000e-03
7 pgm_pn21_0_s0:1 vs_4_21:A 1.000000e-03
8 pgm_pn21_0_s0:1 vs_3_21:A 1.000000e-03
9 pgm_pn21_0_s0:1 vs_2_21:A 1.000000e-03
*END

*D_NET pgm_pn21_0_s1 1.366629e-02
*CONN
*I lt_pn21_0_s1:Z O
*I vs_29_21:A I
*I vs_25_21:A I
*I vs_19_21:A I
*CAP
1 pgm_pn21_0_s1:1 1.366629e-02
*RES
1 lt_pn21_0_s1:Z pgm_pn21_0_s1:1 1.550826e+01
2 pgm_pn21_0_s1:1 vs_29_21:A 1.000000e-03
3 pgm_pn21_0_s1:1 vs_25_21:A 1.000000e-03
4 pgm_pn21_0_s1:1 vs_19_21:A 1.000000e-03
*END

*D_NET pgm_pn21_0_s2 1.552085e-02
*CONN
*I lt_pn21_0_s2:Z O
*I vs_46_21:A I
*I vs_45_21:A I
*I vs_44_21:A I
*I vs_43_21:A I
*I vs_42_21:A I
*I vs_41_21:A I
*I vs_40_21:A I
*I vs_37_21:A I
*I vs_35_21:A I
*CAP
1 pgm_pn21_0_s2:1 1.552085e-02
*RES
1 lt_pn21_0_s2:Z pgm_pn21_0_s2:1 1.761278e+01
2 pgm_pn21_0_s2:1 vs_46_21:A 1.000000e-03
3 pgm_pn21_0_s2:1 vs_45_21:A 1.000000e-03
4 pgm_pn21_0_s2:1 vs_44_21:A 1.000000e-03
5 pgm_pn21_0_s2:1 vs_43_21:A 1.000000e-03
6 pgm_pn21_0_s2:1 vs_42_21:A 1.000000e-03
7 pgm_pn21_0_s2:1 vs_41_21:A 1.000000e-03
8 pgm_pn21_0_s2:1 vs_40_21:A 1.000000e-03
9 pgm_pn21_0_s2:1 vs_37_21:A 1.000000e-03
10 pgm_pn21_0_s2:1 vs_35_21:A 1.000000e-03
*END

*D_NET pgm_pn21_0_s3 1.932478e-02
*CONN
*I lt_pn21_0_s3:Z O
*I vs_63_21:A I
*I vs_60_21:A I
*I vs_59_21:A I
*I vs_58_21:A I
*I vs_57_21:A I
*I vs_55_21:A I
*I vs_54_21:A I
*I vs_52_21:A I
*I vs_51_21:A I
*I vs_49_21:A I
*CAP
1 pgm_pn21_0_s3:1 1.932478e-02
*RES
1 lt_pn21_0_s3:Z pgm_pn21_0_s3:1 2.192941e+01
2 pgm_pn21_0_s3:1 vs_63_21:A 1.000000e-03
3 pgm_pn21_0_s3:1 vs_60_21:A 1.000000e-03
4 pgm_pn21_0_s3:1 vs_59_21:A 1.000000e-03
5 pgm_pn21_0_s3:1 vs_58_21:A 1.000000e-03
6 pgm_pn21_0_s3:1 vs_57_21:A 1.000000e-03
7 pgm_pn21_0_s3:1 vs_55_21:A 1.000000e-03
8 pgm_pn21_0_s3:1 vs_54_21:A 1.000000e-03
9 pgm_pn21_0_s3:1 vs_52_21:A 1.000000e-03
10 pgm_pn21_0_s3:1 vs_51_21:A 1.000000e-03
11 pgm_pn21_0_s3:1 vs_49_21:A 1.000000e-03
*END

*D_NET pgm_pn2_10_s0 1.694584e-02
*CONN
*I lt_pn2_10_s0:Z O
*I vs_0_2:A I
*CAP
1 pgm_pn2_10_s0:1 1.694584e-02
*RES
1 lt_pn2_10_s0:Z pgm_pn2_10_s0:1 1.922984e+01
2 pgm_pn2_10_s0:1 vs_0_2:A 1.000000e-03
*END

*D_NET pgm_pn2_10_s1 1.559345e-02
*CONN
*I lt_pn2_10_s1:Z O
*I vs_27_2:A I
*I vs_19_2:A I
*CAP
1 pgm_pn2_10_s1:1 1.559345e-02
*RES
1 lt_pn2_10_s1:Z pgm_pn2_10_s1:1 1.626697e+01
2 pgm_pn2_10_s1:1 vs_27_2:A 1.000000e-03
3 pgm_pn2_10_s1:1 vs_19_2:A 1.000000e-03
*END

*D_NET pgm_pn2_10_s2 1.370184e-02
*CONN
*I lt_pn2_10_s2:Z O
*I vs_36_2:A I
*CAP
1 pgm_pn2_10_s2:1 1.370184e-02
*RES
1 lt_pn2_10_s2:Z pgm_pn2_10_s2:1 1.554860e+01
2 pgm_pn2_10_s2:1 vs_36_2:A 1.000000e-03
*END

*D_NET pgm_pn2_10_s3 2.027407e-02
*CONN
*I lt_pn2_10_s3:Z O
*I vs_62_2:A I
*I vs_60_2:A I
*I vs_48_2:A I
*CAP
1 pgm_pn2_10_s3:1 2.027407e-02
*RES
1 lt_pn2_10_s3:Z pgm_pn2_10_s3:1 2.150647e+01
2 pgm_pn2_10_s3:1 vs_62_2:A 1.000000e-03
3 pgm_pn2_10_s3:1 vs_60_2:A 1.000000e-03
4 pgm_pn2_10_s3:1 vs_48_2:A 1.000000e-03
*END

*D_NET pgm_pn2_11_s1 1.747910e-02
*CONN
*I lt_pn2_11_s1:Z O
*I vs_17_2:A I
*CAP
1 pgm_pn2_11_s1:1 1.747910e-02
*RES
1 lt_pn2_11_s1:Z pgm_pn2_11_s1:1 1.983497e+01
2 pgm_pn2_11_s1:1 vs_17_2:A 1.000000e-03
*END

*D_NET pgm_pn2_11_s3 1.476053e-02
*CONN
*I lt_pn2_11_s3:Z O
*I vs_52_2:A I
*CAP
1 pgm_pn2_11_s3:1 1.476053e-02
*RES
1 lt_pn2_11_s3:Z pgm_pn2_11_s3:1 1.517781e+01
2 pgm_pn2_11_s3:1 vs_52_2:A 1.000000e-03
*END

*D_NET pgm_pn2_12_s0 1.805741e-02
*CONN
*I lt_pn2_12_s0:Z O
*I vs_5_2:A I
*I vs_3_2:A I
*CAP
1 pgm_pn2_12_s0:1 1.805741e-02
*RES
1 lt_pn2_12_s0:Z pgm_pn2_12_s0:1 1.877508e+01
2 pgm_pn2_12_s0:1 vs_5_2:A 1.000000e-03
3 pgm_pn2_12_s0:1 vs_3_2:A 1.000000e-03
*END

*D_NET pgm_pn2_12_s1 3.836515e-03
*CONN
*I lt_pn2_12_s1:Z O
*I vs_31_2:A I
*I vs_30_2:A I
*CAP
1 pgm_pn2_12_s1:1 3.836515e-03
*RES
1 lt_pn2_12_s1:Z pgm_pn2_12_s1:1 4.353609e+00
2 pgm_pn2_12_s1:1 vs_31_2:A 1.000000e-03
3 pgm_pn2_12_s1:1 vs_30_2:A 1.000000e-03
*END

*D_NET pgm_pn2_12_s2 2.349919e-02
*CONN
*I lt_pn2_12_s2:Z O
*I vs_37_2:A I
*I vs_35_2:A I
*I vs_33_2:A I
*CAP
1 pgm_pn2_12_s2:1 2.349919e-02
*RES
1 lt_pn2_12_s2:Z pgm_pn2_12_s2:1 2.481793e+01
2 pgm_pn2_12_s2:1 vs_37_2:A 1.000000e-03
3 pgm_pn2_12_s2:1 vs_35_2:A 1.000000e-03
4 pgm_pn2_12_s2:1 vs_33_2:A 1.000000e-03
*END

*D_NET pgm_pn2_2_s1 9.767560e-03
*CONN
*I lt_pn2_2_s1:Z O
*I vs_26_2:A I
*CAP
1 pgm_pn2_2_s1:1 9.767560e-03
*RES
1 lt_pn2_2_s1:Z pgm_pn2_2_s1:1 1.108405e+01
2 pgm_pn2_2_s1:1 vs_26_2:A 1.000000e-03
*END

*D_NET pgm_pn2_3_s2 1.161027e-02
*CONN
*I lt_pn2_3_s2:Z O
*I vs_45_2:A I
*CAP
1 pgm_pn2_3_s2:1 1.161027e-02
*RES
1 lt_pn2_3_s2:Z pgm_pn2_3_s2:1 1.317513e+01
2 pgm_pn2_3_s2:1 vs_45_2:A 1.000000e-03
*END

*D_NET pgm_pn2_3_s3 3.075886e-03
*CONN
*I lt_pn2_3_s3:Z O
*I vs_50_2:A I
*CAP
1 pgm_pn2_3_s3:1 3.075886e-03
*RES
1 lt_pn2_3_s3:Z pgm_pn2_3_s3:1 2.782163e+00
2 pgm_pn2_3_s3:1 vs_50_2:A 1.000000e-03
*END

*D_NET pgm_pn2_4_s0 5.596276e-03
*CONN
*I lt_pn2_4_s0:Z O
*I vs_1_2:A I
*CAP
1 pgm_pn2_4_s0:1 5.596276e-03
*RES
1 lt_pn2_4_s0:Z pgm_pn2_4_s0:1 6.350554e+00
2 pgm_pn2_4_s0:1 vs_1_2:A 1.000000e-03
*END

*D_NET pgm_pn2_5_s1 6.251002e-04
*CONN
*I lt_pn2_5_s1:Z O
*I vs_22_2:A I
*CAP
1 pgm_pn2_5_s1:1 6.251002e-04
*RES
1 lt_pn2_5_s1:Z pgm_pn2_5_s1:1 7.093525e-01
2 pgm_pn2_5_s1:1 vs_22_2:A 1.000000e-03
*END

*D_NET pgm_pn2_6_s3 2.690004e-03
*CONN
*I lt_pn2_6_s3:Z O
*I vs_55_2:A I
*I vs_54_2:A I
*CAP
1 pgm_pn2_6_s3:1 2.690004e-03
*RES
1 lt_pn2_6_s3:Z pgm_pn2_6_s3:1 3.052569e+00
2 pgm_pn2_6_s3:1 vs_55_2:A 1.000000e-03
3 pgm_pn2_6_s3:1 vs_54_2:A 1.000000e-03
*END

*D_NET pgm_pn2_7_s2 5.522212e-03
*CONN
*I lt_pn2_7_s2:Z O
*I vs_44_2:A I
*I vs_43_2:A I
*I vs_41_2:A I
*CAP
1 pgm_pn2_7_s2:1 5.522212e-03
*RES
1 lt_pn2_7_s2:Z pgm_pn2_7_s2:1 6.266507e+00
2 pgm_pn2_7_s2:1 vs_44_2:A 1.000000e-03
3 pgm_pn2_7_s2:1 vs_43_2:A 1.000000e-03
4 pgm_pn2_7_s2:1 vs_41_2:A 1.000000e-03
*END

*D_NET pgm_pn2_8_s0 6.831663e-03
*CONN
*I lt_pn2_8_s0:Z O
*I vs_13_2:A I
*I vs_9_2:A I
*CAP
1 pgm_pn2_8_s0:1 6.831663e-03
*RES
1 lt_pn2_8_s0:Z pgm_pn2_8_s0:1 7.752449e+00
2 pgm_pn2_8_s0:1 vs_13_2:A 1.000000e-03
3 pgm_pn2_8_s0:1 vs_9_2:A 1.000000e-03
*END

*D_NET pgm_pn2_9_s0 1.685925e-02
*CONN
*I lt_pn2_9_s0:Z O
*I vs_14_2:A I
*I vs_10_2:A I
*I vs_4_2:A I
*CAP
1 pgm_pn2_9_s0:1 1.685925e-02
*RES
1 lt_pn2_9_s0:Z pgm_pn2_9_s0:1 1.682698e+01
2 pgm_pn2_9_s0:1 vs_14_2:A 1.000000e-03
3 pgm_pn2_9_s0:1 vs_10_2:A 1.000000e-03
4 pgm_pn2_9_s0:1 vs_4_2:A 1.000000e-03
*END

*D_NET pgm_pn2_9_s1 9.018033e-03
*CONN
*I lt_pn2_9_s1:Z O
*I vs_25_2:A I
*I vs_24_2:A I
*I vs_21_2:A I
*CAP
1 pgm_pn2_9_s1:1 9.018033e-03
*RES
1 lt_pn2_9_s1:Z pgm_pn2_9_s1:1 1.023350e+01
2 pgm_pn2_9_s1:1 vs_25_2:A 1.000000e-03
3 pgm_pn2_9_s1:1 vs_24_2:A 1.000000e-03
4 pgm_pn2_9_s1:1 vs_21_2:A 1.000000e-03
*END

*D_NET pgm_pn2_9_s2 7.803383e-03
*CONN
*I lt_pn2_9_s2:Z O
*I vs_39_2:A I
*I vs_38_2:A I
*CAP
1 pgm_pn2_9_s2:1 7.803383e-03
*RES
1 lt_pn2_9_s2:Z pgm_pn2_9_s2:1 8.855139e+00
2 pgm_pn2_9_s2:1 vs_39_2:A 1.000000e-03
3 pgm_pn2_9_s2:1 vs_38_2:A 1.000000e-03
*END

*D_NET pgm_pn2_9_s3 5.255581e-03
*CONN
*I lt_pn2_9_s3:Z O
*I vs_63_2:A I
*I vs_61_2:A I
*CAP
1 pgm_pn2_9_s3:1 5.255581e-03
*RES
1 lt_pn2_9_s3:Z pgm_pn2_9_s3:1 5.963940e+00
2 pgm_pn2_9_s3:1 vs_63_2:A 1.000000e-03
3 pgm_pn2_9_s3:1 vs_61_2:A 1.000000e-03
*END

*D_NET pgm_pn3_0_s3 6.082747e-03
*CONN
*I lt_pn3_0_s3:Z O
*I vs_52_3:A I
*CAP
1 pgm_pn3_0_s3:1 6.082747e-03
*RES
1 lt_pn3_0_s3:Z pgm_pn3_0_s3:1 5.186439e+00
2 pgm_pn3_0_s3:1 vs_52_3:A 1.000000e-03
*END

*D_NET pgm_pn3_10_s0 2.066682e-02
*CONN
*I lt_pn3_10_s0:Z O
*I vs_14_3:A I
*I vs_4_3:A I
*I vs_2_3:A I
*CAP
1 pgm_pn3_10_s0:1 2.066682e-02
*RES
1 lt_pn3_10_s0:Z pgm_pn3_10_s0:1 2.345234e+01
2 pgm_pn3_10_s0:1 vs_14_3:A 1.000000e-03
3 pgm_pn3_10_s0:1 vs_4_3:A 1.000000e-03
4 pgm_pn3_10_s0:1 vs_2_3:A 1.000000e-03
*END

*D_NET pgm_pn3_10_s1 9.795720e-03
*CONN
*I lt_pn3_10_s1:Z O
*I vs_23_3:A I
*CAP
1 pgm_pn3_10_s1:1 9.795720e-03
*RES
1 lt_pn3_10_s1:Z pgm_pn3_10_s1:1 9.687813e+00
2 pgm_pn3_10_s1:1 vs_23_3:A 1.000000e-03
*END

*D_NET pgm_pn3_10_s3 1.345002e-02
*CONN
*I lt_pn3_10_s3:Z O
*I vs_51_3:A I
*CAP
1 pgm_pn3_10_s3:1 1.345002e-02
*RES
1 lt_pn3_10_s3:Z pgm_pn3_10_s3:1 1.526284e+01
2 pgm_pn3_10_s3:1 vs_51_3:A 1.000000e-03
*END

*D_NET pgm_pn3_11_s1 1.775166e-02
*CONN
*I lt_pn3_11_s1:Z O
*I vs_17_3:A I
*CAP
1 pgm_pn3_11_s1:1 1.775166e-02
*RES
1 lt_pn3_11_s1:Z pgm_pn3_11_s1:1 2.014427e+01
2 pgm_pn3_11_s1:1 vs_17_3:A 1.000000e-03
*END

*D_NET pgm_pn3_11_s3 4.002419e-03
*CONN
*I lt_pn3_11_s3:Z O
*I vs_62_3:A I
*I vs_60_3:A I
*CAP
1 pgm_pn3_11_s3:1 4.002419e-03
*RES
1 lt_pn3_11_s3:Z pgm_pn3_11_s3:1 4.541873e+00
2 pgm_pn3_11_s3:1 vs_62_3:A 1.000000e-03
3 pgm_pn3_11_s3:1 vs_60_3:A 1.000000e-03
*END

*D_NET pgm_pn3_12_s0 7.002912e-03
*CONN
*I lt_pn3_12_s0:Z O
*I vs_11_3:A I
*CAP
1 pgm_pn3_12_s0:1 7.002912e-03
*RES
1 lt_pn3_12_s0:Z pgm_pn3_12_s0:1 6.806543e+00
2 pgm_pn3_12_s0:1 vs_11_3:A 1.000000e-03
*END

*D_NET pgm_pn3_12_s1 2.320870e-02
*CONN
*I lt_pn3_12_s1:Z O
*I vs_31_3:A I
*I vs_27_3:A I
*I vs_22_3:A I
*I vs_18_3:A I
*CAP
1 pgm_pn3_12_s1:1 2.320870e-02
*RES
1 lt_pn3_12_s1:Z pgm_pn3_12_s1:1 2.633681e+01
2 pgm_pn3_12_s1:1 vs_31_3:A 1.000000e-03
3 pgm_pn3_12_s1:1 vs_27_3:A 1.000000e-03
4 pgm_pn3_12_s1:1 vs_22_3:A 1.000000e-03
5 pgm_pn3_12_s1:1 vs_18_3:A 1.000000e-03
*END

*D_NET pgm_pn3_12_s2 2.142836e-02
*CONN
*I lt_pn3_12_s2:Z O
*I vs_46_3:A I
*I vs_33_3:A I
*CAP
1 pgm_pn3_12_s2:1 2.142836e-02
*RES
1 lt_pn3_12_s2:Z pgm_pn3_12_s2:1 2.245639e+01
2 pgm_pn3_12_s2:1 vs_46_3:A 1.000000e-03
3 pgm_pn3_12_s2:1 vs_33_3:A 1.000000e-03
*END

*D_NET pgm_pn3_12_s3 9.866241e-03
*CONN
*I lt_pn3_12_s3:Z O
*I vs_58_3:A I
*CAP
1 pgm_pn3_12_s3:1 9.866241e-03
*RES
1 lt_pn3_12_s3:Z pgm_pn3_12_s3:1 8.616004e+00
2 pgm_pn3_12_s3:1 vs_58_3:A 1.000000e-03
*END

*D_NET pgm_pn3_1_s1 1.217125e-02
*CONN
*I lt_pn3_1_s1:Z O
*I vs_26_3:A I
*CAP
1 pgm_pn3_1_s1:1 1.217125e-02
*RES
1 lt_pn3_1_s1:Z pgm_pn3_1_s1:1 1.223954e+01
2 pgm_pn3_1_s1:1 vs_26_3:A 1.000000e-03
*END

*D_NET pgm_pn3_2_s3 4.760254e-03
*CONN
*I lt_pn3_2_s3:Z O
*I vs_54_3:A I
*CAP
1 pgm_pn3_2_s3:1 4.760254e-03
*RES
1 lt_pn3_2_s3:Z pgm_pn3_2_s3:1 4.261615e+00
2 pgm_pn3_2_s3:1 vs_54_3:A 1.000000e-03
*END

*D_NET pgm_pn3_3_s1 7.434934e-03
*CONN
*I lt_pn3_3_s1:Z O
*I vs_25_3:A I
*CAP
1 pgm_pn3_3_s1:1 7.434934e-03
*RES
1 lt_pn3_3_s1:Z pgm_pn3_3_s1:1 6.376578e+00
2 pgm_pn3_3_s1:1 vs_25_3:A 1.000000e-03
*END

*D_NET pgm_pn3_3_s3 7.406400e-03
*CONN
*I lt_pn3_3_s3:Z O
*I vs_57_3:A I
*CAP
1 pgm_pn3_3_s3:1 7.406400e-03
*RES
1 lt_pn3_3_s3:Z pgm_pn3_3_s3:1 8.404650e+00
2 pgm_pn3_3_s3:1 vs_57_3:A 1.000000e-03
*END

*D_NET pgm_pn3_6_s2 1.147696e-02
*CONN
*I lt_pn3_6_s2:Z O
*I vs_32_3:A I
*CAP
1 pgm_pn3_6_s2:1 1.147696e-02
*RES
1 lt_pn3_6_s2:Z pgm_pn3_6_s2:1 1.302385e+01
2 pgm_pn3_6_s2:1 vs_32_3:A 1.000000e-03
*END

*D_NET pgm_pn3_7_s2 6.277665e-03
*CONN
*I lt_pn3_7_s2:Z O
*I vs_37_3:A I
*CAP
1 pgm_pn3_7_s2:1 6.277665e-03
*RES
1 lt_pn3_7_s2:Z pgm_pn3_7_s2:1 7.123781e+00
2 pgm_pn3_7_s2:1 vs_37_3:A 1.000000e-03
*END

*D_NET pgm_pn3_8_s0 3.315105e-03
*CONN
*I lt_pn3_8_s0:Z O
*I vs_8_3:A I
*CAP
1 pgm_pn3_8_s0:1 3.315105e-03
*RES
1 lt_pn3_8_s0:Z pgm_pn3_8_s0:1 3.761921e+00
2 pgm_pn3_8_s0:1 vs_8_3:A 1.000000e-03
*END

*D_NET pgm_pn3_9_s0 8.677644e-03
*CONN
*I lt_pn3_9_s0:Z O
*I vs_6_3:A I
*CAP
1 pgm_pn3_9_s0:1 8.677644e-03
*RES
1 lt_pn3_9_s0:Z pgm_pn3_9_s0:1 8.994958e+00
2 pgm_pn3_9_s0:1 vs_6_3:A 1.000000e-03
*END

*D_NET pgm_pn3_9_s1 2.832207e-03
*CONN
*I lt_pn3_9_s1:Z O
*I vs_29_3:A I
*CAP
1 pgm_pn3_9_s1:1 2.832207e-03
*RES
1 lt_pn3_9_s1:Z pgm_pn3_9_s1:1 3.213938e+00
2 pgm_pn3_9_s1:1 vs_29_3:A 1.000000e-03
*END

*D_NET pgm_pn3_9_s2 7.486389e-03
*CONN
*I lt_pn3_9_s2:Z O
*I vs_47_3:A I
*I vs_42_3:A I
*CAP
1 pgm_pn3_9_s2:1 7.486389e-03
*RES
1 lt_pn3_9_s2:Z pgm_pn3_9_s2:1 8.495420e+00
2 pgm_pn3_9_s2:1 vs_47_3:A 1.000000e-03
3 pgm_pn3_9_s2:1 vs_42_3:A 1.000000e-03
*END

*D_NET pgm_pn3_9_s3 1.995080e-02
*CONN
*I lt_pn3_9_s3:Z O
*I vs_61_3:A I
*I vs_49_3:A I
*I vs_48_3:A I
*CAP
1 pgm_pn3_9_s3:1 1.995080e-02
*RES
1 lt_pn3_9_s3:Z pgm_pn3_9_s3:1 2.007138e+01
2 pgm_pn3_9_s3:1 vs_61_3:A 1.000000e-03
3 pgm_pn3_9_s3:1 vs_49_3:A 1.000000e-03
4 pgm_pn3_9_s3:1 vs_48_3:A 1.000000e-03
*END

*D_NET pgm_pn4_10_s1 4.357346e-03
*CONN
*I lt_pn4_10_s1:Z O
*I vs_26_4:A I
*CAP
1 pgm_pn4_10_s1:1 4.357346e-03
*RES
1 lt_pn4_10_s1:Z pgm_pn4_10_s1:1 3.804402e+00
2 pgm_pn4_10_s1:1 vs_26_4:A 1.000000e-03
*END

*D_NET pgm_pn4_10_s3 7.785608e-03
*CONN
*I lt_pn4_10_s3:Z O
*I vs_59_4:A I
*CAP
1 pgm_pn4_10_s3:1 7.785608e-03
*RES
1 lt_pn4_10_s3:Z pgm_pn4_10_s3:1 8.834968e+00
2 pgm_pn4_10_s3:1 vs_59_4:A 1.000000e-03
*END

*D_NET pgm_pn4_11_s0 6.525054e-03
*CONN
*I lt_pn4_11_s0:Z O
*I vs_10_4:A I
*CAP
1 pgm_pn4_11_s0:1 6.525054e-03
*RES
1 lt_pn4_11_s0:Z pgm_pn4_11_s0:1 5.976320e+00
2 pgm_pn4_11_s0:1 vs_10_4:A 1.000000e-03
*END

*D_NET pgm_pn4_11_s2 6.159162e-03
*CONN
*I lt_pn4_11_s2:Z O
*I vs_47_4:A I
*I vs_44_4:A I
*CAP
1 pgm_pn4_11_s2:1 6.159162e-03
*RES
1 lt_pn4_11_s2:Z pgm_pn4_11_s2:1 6.989307e+00
2 pgm_pn4_11_s2:1 vs_47_4:A 1.000000e-03
3 pgm_pn4_11_s2:1 vs_44_4:A 1.000000e-03
*END

*D_NET pgm_pn4_11_s3 1.031860e-02
*CONN
*I lt_pn4_11_s3:Z O
*I vs_55_4:A I
*CAP
1 pgm_pn4_11_s3:1 1.031860e-02
*RES
1 lt_pn4_11_s3:Z pgm_pn4_11_s3:1 1.170936e+01
2 pgm_pn4_11_s3:1 vs_55_4:A 1.000000e-03
*END

*D_NET pgm_pn4_12_s0 2.084566e-02
*CONN
*I lt_pn4_12_s0:Z O
*I vs_9_4:A I
*I vs_5_4:A I
*I vs_3_4:A I
*CAP
1 pgm_pn4_12_s0:1 2.084566e-02
*RES
1 lt_pn4_12_s0:Z pgm_pn4_12_s0:1 1.922092e+01
2 pgm_pn4_12_s0:1 vs_9_4:A 1.000000e-03
3 pgm_pn4_12_s0:1 vs_5_4:A 1.000000e-03
4 pgm_pn4_12_s0:1 vs_3_4:A 1.000000e-03
*END

*D_NET pgm_pn4_12_s1 1.989924e-02
*CONN
*I lt_pn4_12_s1:Z O
*I vs_17_4:A I
*CAP
1 pgm_pn4_12_s1:1 1.989924e-02
*RES
1 lt_pn4_12_s1:Z pgm_pn4_12_s1:1 2.057719e+01
2 pgm_pn4_12_s1:1 vs_17_4:A 1.000000e-03
*END

*D_NET pgm_pn4_12_s3 1.916793e-02
*CONN
*I lt_pn4_12_s3:Z O
*I vs_49_4:A I
*CAP
1 pgm_pn4_12_s3:1 1.916793e-02
*RES
1 lt_pn4_12_s3:Z pgm_pn4_12_s3:1 1.989129e+01
2 pgm_pn4_12_s3:1 vs_49_4:A 1.000000e-03
*END

*D_NET pgm_pn4_1_s2 4.045834e-03
*CONN
*I lt_pn4_1_s2:Z O
*I vs_36_4:A I
*CAP
1 pgm_pn4_1_s2:1 4.045834e-03
*RES
1 lt_pn4_1_s2:Z pgm_pn4_1_s2:1 3.306925e+00
2 pgm_pn4_1_s2:1 vs_36_4:A 1.000000e-03
*END

*D_NET pgm_pn4_1_s3 1.097393e-02
*CONN
*I lt_pn4_1_s3:Z O
*I vs_57_4:A I
*CAP
1 pgm_pn4_1_s3:1 1.097393e-02
*RES
1 lt_pn4_1_s3:Z pgm_pn4_1_s3:1 1.073687e+01
2 pgm_pn4_1_s3:1 vs_57_4:A 1.000000e-03
*END

*D_NET pgm_pn4_2_s1 8.697939e-03
*CONN
*I lt_pn4_2_s1:Z O
*I vs_24_4:A I
*CAP
1 pgm_pn4_2_s1:1 8.697939e-03
*RES
1 lt_pn4_2_s1:Z pgm_pn4_2_s1:1 8.874009e+00
2 pgm_pn4_2_s1:1 vs_24_4:A 1.000000e-03
*END

*D_NET pgm_pn4_3_s3 1.121921e-02
*CONN
*I lt_pn4_3_s3:Z O
*I vs_60_4:A I
*CAP
1 pgm_pn4_3_s3:1 1.121921e-02
*RES
1 lt_pn4_3_s3:Z pgm_pn4_3_s3:1 1.273136e+01
2 pgm_pn4_3_s3:1 vs_60_4:A 1.000000e-03
*END

*D_NET pgm_pn4_5_s0 8.778080e-03
*CONN
*I lt_pn4_5_s0:Z O
*I vs_12_4:A I
*CAP
1 pgm_pn4_5_s0:1 8.778080e-03
*RES
1 lt_pn4_5_s0:Z pgm_pn4_5_s0:1 8.260705e+00
2 pgm_pn4_5_s0:1 vs_12_4:A 1.000000e-03
*END

*D_NET pgm_pn4_5_s1 3.581735e-03
*CONN
*I lt_pn4_5_s1:Z O
*I vs_25_4:A I
*CAP
1 pgm_pn4_5_s1:1 3.581735e-03
*RES
1 lt_pn4_5_s1:Z pgm_pn4_5_s1:1 4.064489e+00
2 pgm_pn4_5_s1:1 vs_25_4:A 1.000000e-03
*END

*D_NET pgm_pn4_6_s0 2.058387e-02
*CONN
*I lt_pn4_6_s0:Z O
*I vs_15_4:A I
*I vs_8_4:A I
*I vs_0_4:A I
*CAP
1 pgm_pn4_6_s0:1 2.058387e-02
*RES
1 lt_pn4_6_s0:Z pgm_pn4_6_s0:1 2.335820e+01
2 pgm_pn4_6_s0:1 vs_15_4:A 1.000000e-03
3 pgm_pn4_6_s0:1 vs_8_4:A 1.000000e-03
4 pgm_pn4_6_s0:1 vs_0_4:A 1.000000e-03
*END

*D_NET pgm_pn4_6_s2 7.954474e-03
*CONN
*I lt_pn4_6_s2:Z O
*I vs_35_4:A I
*CAP
1 pgm_pn4_6_s2:1 7.954474e-03
*RES
1 lt_pn4_6_s2:Z pgm_pn4_6_s2:1 9.026594e+00
2 pgm_pn4_6_s2:1 vs_35_4:A 1.000000e-03
*END

*D_NET pgm_pn4_7_s1 1.204873e-02
*CONN
*I lt_pn4_7_s1:Z O
*I vs_19_4:A I
*I vs_16_4:A I
*CAP
1 pgm_pn4_7_s1:1 1.204873e-02
*RES
1 lt_pn4_7_s1:Z pgm_pn4_7_s1:1 1.367268e+01
2 pgm_pn4_7_s1:1 vs_19_4:A 1.000000e-03
3 pgm_pn4_7_s1:1 vs_16_4:A 1.000000e-03
*END

*D_NET pgm_pn4_7_s2 2.847020e-03
*CONN
*I lt_pn4_7_s2:Z O
*I vs_42_4:A I
*CAP
1 pgm_pn4_7_s2:1 2.847020e-03
*RES
1 lt_pn4_7_s2:Z pgm_pn4_7_s2:1 3.230747e+00
2 pgm_pn4_7_s2:1 vs_42_4:A 1.000000e-03
*END

*D_NET pgm_pn4_7_s3 1.382923e-02
*CONN
*I lt_pn4_7_s3:Z O
*I vs_53_4:A I
*I vs_48_4:A I
*CAP
1 pgm_pn4_7_s3:1 1.382923e-02
*RES
1 lt_pn4_7_s3:Z pgm_pn4_7_s3:1 1.569316e+01
2 pgm_pn4_7_s3:1 vs_53_4:A 1.000000e-03
3 pgm_pn4_7_s3:1 vs_48_4:A 1.000000e-03
*END

*D_NET pgm_pn4_8_s1 1.401291e-03
*CONN
*I lt_pn4_8_s1:Z O
*I vs_27_4:A I
*CAP
1 pgm_pn4_8_s1:1 1.401291e-03
*RES
1 lt_pn4_8_s1:Z pgm_pn4_8_s1:1 1.590160e+00
2 pgm_pn4_8_s1:1 vs_27_4:A 1.000000e-03
*END

*D_NET pgm_pn4_9_s0 1.076492e-02
*CONN
*I lt_pn4_9_s0:Z O
*I vs_4_4:A I
*CAP
1 pgm_pn4_9_s0:1 1.076492e-02
*RES
1 lt_pn4_9_s0:Z pgm_pn4_9_s0:1 1.093162e+01
2 pgm_pn4_9_s0:1 vs_4_4:A 1.000000e-03
*END

*D_NET pgm_pn4_9_s2 1.482659e-02
*CONN
*I lt_pn4_9_s2:Z O
*I vs_40_4:A I
*I vs_34_4:A I
*CAP
1 pgm_pn4_9_s2:1 1.482659e-02
*RES
1 lt_pn4_9_s2:Z pgm_pn4_9_s2:1 1.554073e+01
2 pgm_pn4_9_s2:1 vs_40_4:A 1.000000e-03
3 pgm_pn4_9_s2:1 vs_34_4:A 1.000000e-03
*END

*D_NET pgm_pn4_9_s3 1.274197e-02
*CONN
*I lt_pn4_9_s3:Z O
*I vs_56_4:A I
*I vs_51_4:A I
*CAP
1 pgm_pn4_9_s3:1 1.274197e-02
*RES
1 lt_pn4_9_s3:Z pgm_pn4_9_s3:1 1.445936e+01
2 pgm_pn4_9_s3:1 vs_56_4:A 1.000000e-03
3 pgm_pn4_9_s3:1 vs_51_4:A 1.000000e-03
*END

*D_NET pgm_pn5_0_s0 5.060664e-03
*CONN
*I lt_pn5_0_s0:Z O
*I vs_3_5:A I
*CAP
1 pgm_pn5_0_s0:1 5.060664e-03
*RES
1 lt_pn5_0_s0:Z pgm_pn5_0_s0:1 4.026597e+00
2 pgm_pn5_0_s0:1 vs_3_5:A 1.000000e-03
*END

*D_NET pgm_pn5_10_s1 1.493130e-02
*CONN
*I lt_pn5_10_s1:Z O
*I vs_18_5:A I
*CAP
1 pgm_pn5_10_s1:1 1.493130e-02
*RES
1 lt_pn5_10_s1:Z pgm_pn5_10_s1:1 1.694377e+01
2 pgm_pn5_10_s1:1 vs_18_5:A 1.000000e-03
*END

*D_NET pgm_pn5_10_s2 1.214397e-02
*CONN
*I lt_pn5_10_s2:Z O
*I vs_39_5:A I
*CAP
1 pgm_pn5_10_s2:1 1.214397e-02
*RES
1 lt_pn5_10_s2:Z pgm_pn5_10_s2:1 1.068024e+01
2 pgm_pn5_10_s2:1 vs_39_5:A 1.000000e-03
*END

*D_NET pgm_pn5_10_s3 3.457308e-03
*CONN
*I lt_pn5_10_s3:Z O
*I vs_63_5:A I
*CAP
1 pgm_pn5_10_s3:1 3.457308e-03
*RES
1 lt_pn5_10_s3:Z pgm_pn5_10_s3:1 3.923291e+00
2 pgm_pn5_10_s3:1 vs_63_5:A 1.000000e-03
*END

*D_NET pgm_pn5_11_s0 6.606509e-03
*CONN
*I lt_pn5_11_s0:Z O
*I vs_10_5:A I
*CAP
1 pgm_pn5_11_s0:1 6.606509e-03
*RES
1 lt_pn5_11_s0:Z pgm_pn5_11_s0:1 7.496948e+00
2 pgm_pn5_11_s0:1 vs_10_5:A 1.000000e-03
*END

*D_NET pgm_pn5_11_s1 1.624388e-02
*CONN
*I lt_pn5_11_s1:Z O
*I vs_25_5:A I
*I vs_20_5:A I
*CAP
1 pgm_pn5_11_s1:1 1.624388e-02
*RES
1 lt_pn5_11_s1:Z pgm_pn5_11_s1:1 1.657314e+01
2 pgm_pn5_11_s1:1 vs_25_5:A 1.000000e-03
3 pgm_pn5_11_s1:1 vs_20_5:A 1.000000e-03
*END

*D_NET pgm_pn5_11_s2 2.281764e-02
*CONN
*I lt_pn5_11_s2:Z O
*I vs_46_5:A I
*I vs_35_5:A I
*I vs_32_5:A I
*CAP
1 pgm_pn5_11_s2:1 2.281764e-02
*RES
1 lt_pn5_11_s2:Z pgm_pn5_11_s2:1 2.589305e+01
2 pgm_pn5_11_s2:1 vs_46_5:A 1.000000e-03
3 pgm_pn5_11_s2:1 vs_35_5:A 1.000000e-03
4 pgm_pn5_11_s2:1 vs_32_5:A 1.000000e-03
*END

*D_NET pgm_pn5_11_s3 1.925902e-02
*CONN
*I lt_pn5_11_s3:Z O
*I vs_58_5:A I
*I vs_49_5:A I
*CAP
1 pgm_pn5_11_s3:1 1.925902e-02
*RES
1 lt_pn5_11_s3:Z pgm_pn5_11_s3:1 2.071456e+01
2 pgm_pn5_11_s3:1 vs_58_5:A 1.000000e-03
3 pgm_pn5_11_s3:1 vs_49_5:A 1.000000e-03
*END

*D_NET pgm_pn5_12_s1 4.864524e-03
*CONN
*I lt_pn5_12_s1:Z O
*I vs_29_5:A I
*CAP
1 pgm_pn5_12_s1:1 4.864524e-03
*RES
1 lt_pn5_12_s1:Z pgm_pn5_12_s1:1 5.520174e+00
2 pgm_pn5_12_s1:1 vs_29_5:A 1.000000e-03
*END

*D_NET pgm_pn5_12_s2 1.621766e-02
*CONN
*I lt_pn5_12_s2:Z O
*I vs_36_5:A I
*CAP
1 pgm_pn5_12_s2:1 1.621766e-02
*RES
1 lt_pn5_12_s2:Z pgm_pn5_12_s2:1 1.668736e+01
2 pgm_pn5_12_s2:1 vs_36_5:A 1.000000e-03
*END

*D_NET pgm_pn5_3_s0 5.210120e-03
*CONN
*I lt_pn5_3_s0:Z O
*I vs_7_5:A I
*CAP
1 pgm_pn5_3_s0:1 5.210120e-03
*RES
1 lt_pn5_3_s0:Z pgm_pn5_3_s0:1 4.628136e+00
2 pgm_pn5_3_s0:1 vs_7_5:A 1.000000e-03
*END

*D_NET pgm_pn5_3_s2 1.383458e-02
*CONN
*I lt_pn5_3_s2:Z O
*I vs_45_5:A I
*CAP
1 pgm_pn5_3_s2:1 1.383458e-02
*RES
1 lt_pn5_3_s2:Z pgm_pn5_3_s2:1 1.455899e+01
2 pgm_pn5_3_s2:1 vs_45_5:A 1.000000e-03
*END

*D_NET pgm_pn5_3_s3 1.418756e-02
*CONN
*I lt_pn5_3_s3:Z O
*I vs_61_5:A I
*I vs_55_5:A I
*CAP
1 pgm_pn5_3_s3:1 1.418756e-02
*RES
1 lt_pn5_3_s3:Z pgm_pn5_3_s3:1 1.510354e+01
2 pgm_pn5_3_s3:1 vs_61_5:A 1.000000e-03
3 pgm_pn5_3_s3:1 vs_55_5:A 1.000000e-03
*END

*D_NET pgm_pn5_4_s1 3.581735e-03
*CONN
*I lt_pn5_4_s1:Z O
*I vs_19_5:A I
*CAP
1 pgm_pn5_4_s1:1 3.581735e-03
*RES
1 lt_pn5_4_s1:Z pgm_pn5_4_s1:1 4.064489e+00
2 pgm_pn5_4_s1:1 vs_19_5:A 1.000000e-03
*END

*D_NET pgm_pn5_5_s3 1.028008e-03
*CONN
*I lt_pn5_5_s3:Z O
*I vs_54_5:A I
*CAP
1 pgm_pn5_5_s3:1 1.028008e-03
*RES
1 lt_pn5_5_s3:Z pgm_pn5_5_s3:1 1.166565e+00
2 pgm_pn5_5_s3:1 vs_54_5:A 1.000000e-03
*END

*D_NET pgm_pn5_6_s0 9.124105e-03
*CONN
*I lt_pn5_6_s0:Z O
*I vs_2_5:A I
*CAP
1 pgm_pn5_6_s0:1 9.124105e-03
*RES
1 lt_pn5_6_s0:Z pgm_pn5_6_s0:1 9.213635e+00
2 pgm_pn5_6_s0:1 vs_2_5:A 1.000000e-03
*END

*D_NET pgm_pn5_6_s1 3.525446e-04
*CONN
*I lt_pn5_6_s1:Z O
*I vs_24_5:A I
*CAP
1 pgm_pn5_6_s1:1 3.525446e-04
*RES
1 lt_pn5_6_s1:Z pgm_pn5_6_s1:1 4.000613e-01
2 pgm_pn5_6_s1:1 vs_24_5:A 1.000000e-03
*END

*D_NET pgm_pn5_6_s2 2.775919e-03
*CONN
*I lt_pn5_6_s2:Z O
*I vs_38_5:A I
*CAP
1 pgm_pn5_6_s2:1 2.775919e-03
*RES
1 lt_pn5_6_s2:Z pgm_pn5_6_s2:1 3.150063e+00
2 pgm_pn5_6_s2:1 vs_38_5:A 1.000000e-03
*END

*D_NET pgm_pn5_8_s0 1.341151e-02
*CONN
*I lt_pn5_8_s0:Z O
*I vs_6_5:A I
*I vs_1_5:A I
*CAP
1 pgm_pn5_8_s0:1 1.341151e-02
*RES
1 lt_pn5_8_s0:Z pgm_pn5_8_s0:1 1.521914e+01
2 pgm_pn5_8_s0:1 vs_6_5:A 1.000000e-03
3 pgm_pn5_8_s0:1 vs_1_5:A 1.000000e-03
*END

*D_NET pgm_pn5_9_s0 1.732151e-02
*CONN
*I lt_pn5_9_s0:Z O
*I vs_15_5:A I
*I vs_12_5:A I
*I vs_4_5:A I
*CAP
1 pgm_pn5_9_s0:1 1.732151e-02
*RES
1 lt_pn5_9_s0:Z pgm_pn5_9_s0:1 1.851590e+01
2 pgm_pn5_9_s0:1 vs_15_5:A 1.000000e-03
3 pgm_pn5_9_s0:1 vs_12_5:A 1.000000e-03
4 pgm_pn5_9_s0:1 vs_4_5:A 1.000000e-03
*END

*D_NET pgm_pn5_9_s1 8.713568e-03
*CONN
*I lt_pn5_9_s1:Z O
*I vs_23_5:A I
*I vs_22_5:A I
*CAP
1 pgm_pn5_9_s1:1 8.713568e-03
*RES
1 lt_pn5_9_s1:Z pgm_pn5_9_s1:1 8.403467e+00
2 pgm_pn5_9_s1:1 vs_23_5:A 1.000000e-03
3 pgm_pn5_9_s1:1 vs_22_5:A 1.000000e-03
*END

*D_NET pgm_pn5_9_s2 2.037056e-02
*CONN
*I lt_pn5_9_s2:Z O
*I vs_47_5:A I
*I vs_37_5:A I
*I vs_34_5:A I
*CAP
1 pgm_pn5_9_s2:1 2.037056e-02
*RES
1 lt_pn5_9_s2:Z pgm_pn5_9_s2:1 2.311615e+01
2 pgm_pn5_9_s2:1 vs_47_5:A 1.000000e-03
3 pgm_pn5_9_s2:1 vs_37_5:A 1.000000e-03
4 pgm_pn5_9_s2:1 vs_34_5:A 1.000000e-03
*END

*D_NET pgm_pn5_9_s3 1.573119e-03
*CONN
*I lt_pn5_9_s3:Z O
*I vs_59_5:A I
*CAP
1 pgm_pn5_9_s3:1 1.573119e-03
*RES
1 lt_pn5_9_s3:Z pgm_pn5_9_s3:1 1.785148e+00
2 pgm_pn5_9_s3:1 vs_59_5:A 1.000000e-03
*END

*D_NET pgm_pn6_10_s0 1.946402e-03
*CONN
*I lt_pn6_10_s0:Z O
*I vs_12_6:A I
*CAP
1 pgm_pn6_10_s0:1 1.946402e-03
*RES
1 lt_pn6_10_s0:Z pgm_pn6_10_s0:1 2.208742e+00
2 pgm_pn6_10_s0:1 vs_12_6:A 1.000000e-03
*END

*D_NET pgm_pn6_10_s1 1.270642e-02
*CONN
*I lt_pn6_10_s1:Z O
*I vs_31_6:A I
*I vs_23_6:A I
*CAP
1 pgm_pn6_10_s1:1 1.270642e-02
*RES
1 lt_pn6_10_s1:Z pgm_pn6_10_s1:1 1.441902e+01
2 pgm_pn6_10_s1:1 vs_31_6:A 1.000000e-03
3 pgm_pn6_10_s1:1 vs_23_6:A 1.000000e-03
*END

*D_NET pgm_pn6_11_s0 1.619039e-02
*CONN
*I lt_pn6_11_s0:Z O
*I vs_2_6:A I
*CAP
1 pgm_pn6_11_s0:1 1.619039e-02
*RES
1 lt_pn6_11_s0:Z pgm_pn6_11_s0:1 1.837256e+01
2 pgm_pn6_11_s0:1 vs_2_6:A 1.000000e-03
*END

*D_NET pgm_pn6_11_s1 2.196442e-02
*CONN
*I lt_pn6_11_s1:Z O
*I vs_16_6:A I
*CAP
1 pgm_pn6_11_s1:1 2.196442e-02
*RES
1 lt_pn6_11_s1:Z pgm_pn6_11_s1:1 2.492483e+01
2 pgm_pn6_11_s1:1 vs_16_6:A 1.000000e-03
*END

*D_NET pgm_pn6_11_s2 2.013342e-02
*CONN
*I lt_pn6_11_s2:Z O
*I vs_37_6:A I
*I vs_32_6:A I
*CAP
1 pgm_pn6_11_s2:1 2.013342e-02
*RES
1 lt_pn6_11_s2:Z pgm_pn6_11_s2:1 2.185079e+01
2 pgm_pn6_11_s2:1 vs_37_6:A 1.000000e-03
3 pgm_pn6_11_s2:1 vs_32_6:A 1.000000e-03
*END

*D_NET pgm_pn6_11_s3 2.620843e-03
*CONN
*I lt_pn6_11_s3:Z O
*I vs_61_6:A I
*CAP
1 pgm_pn6_11_s3:1 2.620843e-03
*RES
1 lt_pn6_11_s3:Z pgm_pn6_11_s3:1 1.689870e+00
2 pgm_pn6_11_s3:1 vs_61_6:A 1.000000e-03
*END

*D_NET pgm_pn6_12_s0 1.118516e-02
*CONN
*I lt_pn6_12_s0:Z O
*I vs_8_6:A I
*CAP
1 pgm_pn6_12_s0:1 1.118516e-02
*RES
1 lt_pn6_12_s0:Z pgm_pn6_12_s0:1 1.126453e+01
2 pgm_pn6_12_s0:1 vs_8_6:A 1.000000e-03
*END

*D_NET pgm_pn6_12_s1 1.856340e-02
*CONN
*I lt_pn6_12_s1:Z O
*I vs_19_6:A I
*I vs_18_6:A I
*CAP
1 pgm_pn6_12_s1:1 1.856340e-02
*RES
1 lt_pn6_12_s1:Z pgm_pn6_12_s1:1 2.106541e+01
2 pgm_pn6_12_s1:1 vs_19_6:A 1.000000e-03
3 pgm_pn6_12_s1:1 vs_18_6:A 1.000000e-03
*END

*D_NET pgm_pn6_12_s2 7.404048e-03
*CONN
*I lt_pn6_12_s2:Z O
*I vs_45_6:A I
*I vs_43_6:A I
*CAP
1 pgm_pn6_12_s2:1 7.404048e-03
*RES
1 lt_pn6_12_s2:Z pgm_pn6_12_s2:1 6.685829e+00
2 pgm_pn6_12_s2:1 vs_45_6:A 1.000000e-03
3 pgm_pn6_12_s2:1 vs_43_6:A 1.000000e-03
*END

*D_NET pgm_pn6_3_s2 3.365468e-03
*CONN
*I lt_pn6_3_s2:Z O
*I vs_34_6:A I
*CAP
1 pgm_pn6_3_s2:1 3.365468e-03
*RES
1 lt_pn6_3_s2:Z pgm_pn6_3_s2:1 3.819073e+00
2 pgm_pn6_3_s2:1 vs_34_6:A 1.000000e-03
*END

*D_NET pgm_pn6_4_s3 6.905727e-03
*CONN
*I lt_pn6_4_s3:Z O
*I vs_48_6:A I
*CAP
1 pgm_pn6_4_s3:1 6.905727e-03
*RES
1 lt_pn6_4_s3:Z pgm_pn6_4_s3:1 7.836496e+00
2 pgm_pn6_4_s3:1 vs_48_6:A 1.000000e-03
*END

*D_NET pgm_pn6_7_s1 5.652564e-03
*CONN
*I lt_pn6_7_s1:Z O
*I vs_29_6:A I
*CAP
1 pgm_pn6_7_s1:1 5.652564e-03
*RES
1 lt_pn6_7_s1:Z pgm_pn6_7_s1:1 6.414429e+00
2 pgm_pn6_7_s1:1 vs_29_6:A 1.000000e-03
*END

*D_NET pgm_pn6_7_s2 9.340952e-03
*CONN
*I lt_pn6_7_s2:Z O
*I vs_35_6:A I
*CAP
1 pgm_pn6_7_s2:1 9.340952e-03
*RES
1 lt_pn6_7_s2:Z pgm_pn6_7_s2:1 1.059994e+01
2 pgm_pn6_7_s2:1 vs_35_6:A 1.000000e-03
*END

*D_NET pgm_pn6_8_s0 1.049931e-02
*CONN
*I lt_pn6_8_s0:Z O
*I vs_3_6:A I
*CAP
1 pgm_pn6_8_s0:1 1.049931e-02
*RES
1 lt_pn6_8_s0:Z pgm_pn6_8_s0:1 1.191443e+01
2 pgm_pn6_8_s0:1 vs_3_6:A 1.000000e-03
*END

*D_NET pgm_pn6_9_s0 9.518705e-03
*CONN
*I lt_pn6_9_s0:Z O
*I vs_15_6:A I
*I vs_9_6:A I
*CAP
1 pgm_pn6_9_s0:1 9.518705e-03
*RES
1 lt_pn6_9_s0:Z pgm_pn6_9_s0:1 1.080166e+01
2 pgm_pn6_9_s0:1 vs_15_6:A 1.000000e-03
3 pgm_pn6_9_s0:1 vs_9_6:A 1.000000e-03
*END

*D_NET pgm_pn6_9_s1 5.655833e-03
*CONN
*I lt_pn6_9_s1:Z O
*I vs_25_6:A I
*I vs_24_6:A I
*CAP
1 pgm_pn6_9_s1:1 5.655833e-03
*RES
1 lt_pn6_9_s1:Z pgm_pn6_9_s1:1 5.565861e+00
2 pgm_pn6_9_s1:1 vs_25_6:A 1.000000e-03
3 pgm_pn6_9_s1:1 vs_24_6:A 1.000000e-03
*END

*D_NET pgm_pn6_9_s3 6.953128e-03
*CONN
*I lt_pn6_9_s3:Z O
*I vs_63_6:A I
*I vs_59_6:A I
*CAP
1 pgm_pn6_9_s3:1 6.953128e-03
*RES
1 lt_pn6_9_s3:Z pgm_pn6_9_s3:1 7.890285e+00
2 pgm_pn6_9_s3:1 vs_63_6:A 1.000000e-03
3 pgm_pn6_9_s3:1 vs_59_6:A 1.000000e-03
*END

*D_NET pgm_pn7_0_s0 7.214853e-03
*CONN
*I lt_pn7_0_s0:Z O
*I vs_5_7:A I
*CAP
1 pgm_pn7_0_s0:1 7.214853e-03
*RES
1 lt_pn7_0_s0:Z pgm_pn7_0_s0:1 6.226994e+00
2 pgm_pn7_0_s0:1 vs_5_7:A 1.000000e-03
*END

*D_NET pgm_pn7_10_s0 1.293855e-02
*CONN
*I lt_pn7_10_s0:Z O
*I vs_8_7:A I
*I vs_4_7:A I
*CAP
1 pgm_pn7_10_s0:1 1.293855e-02
*RES
1 lt_pn7_10_s0:Z pgm_pn7_10_s0:1 1.311026e+01
2 pgm_pn7_10_s0:1 vs_8_7:A 1.000000e-03
3 pgm_pn7_10_s0:1 vs_4_7:A 1.000000e-03
*END

*D_NET pgm_pn7_10_s2 1.123106e-02
*CONN
*I lt_pn7_10_s2:Z O
*I vs_45_7:A I
*I vs_43_7:A I
*I vs_38_7:A I
*CAP
1 pgm_pn7_10_s2:1 1.123106e-02
*RES
1 lt_pn7_10_s2:Z pgm_pn7_10_s2:1 1.274481e+01
2 pgm_pn7_10_s2:1 vs_45_7:A 1.000000e-03
3 pgm_pn7_10_s2:1 vs_43_7:A 1.000000e-03
4 pgm_pn7_10_s2:1 vs_38_7:A 1.000000e-03
*END

*D_NET pgm_pn7_11_s0 1.711621e-02
*CONN
*I lt_pn7_11_s0:Z O
*I vs_2_7:A I
*CAP
1 pgm_pn7_11_s0:1 1.711621e-02
*RES
1 lt_pn7_11_s0:Z pgm_pn7_11_s0:1 1.799497e+01
2 pgm_pn7_11_s0:1 vs_2_7:A 1.000000e-03
*END

*D_NET pgm_pn7_11_s1 2.122262e-02
*CONN
*I lt_pn7_11_s1:Z O
*I vs_31_7:A I
*I vs_18_7:A I
*CAP
1 pgm_pn7_11_s1:1 2.122262e-02
*RES
1 lt_pn7_11_s1:Z pgm_pn7_11_s1:1 2.179098e+01
2 pgm_pn7_11_s1:1 vs_31_7:A 1.000000e-03
3 pgm_pn7_11_s1:1 vs_18_7:A 1.000000e-03
*END

*D_NET pgm_pn7_11_s2 1.557567e-02
*CONN
*I lt_pn7_11_s2:Z O
*I vs_35_7:A I
*CAP
1 pgm_pn7_11_s2:1 1.557567e-02
*RES
1 lt_pn7_11_s2:Z pgm_pn7_11_s2:1 1.624680e+01
2 pgm_pn7_11_s2:1 vs_35_7:A 1.000000e-03
*END

*D_NET pgm_pn7_11_s3 1.541141e-02
*CONN
*I lt_pn7_11_s3:Z O
*I vs_51_7:A I
*CAP
1 pgm_pn7_11_s3:1 1.541141e-02
*RES
1 lt_pn7_11_s3:Z pgm_pn7_11_s3:1 1.562845e+01
2 pgm_pn7_11_s3:1 vs_51_7:A 1.000000e-03
*END

*D_NET pgm_pn7_12_s0 1.392079e-02
*CONN
*I lt_pn7_12_s0:Z O
*I vs_6_7:A I
*CAP
1 pgm_pn7_12_s0:1 1.392079e-02
*RES
1 lt_pn7_12_s0:Z pgm_pn7_12_s0:1 1.379296e+01
2 pgm_pn7_12_s0:1 vs_6_7:A 1.000000e-03
*END

*D_NET pgm_pn7_12_s1 1.486749e-02
*CONN
*I lt_pn7_12_s1:Z O
*I vs_26_7:A I
*I vs_22_7:A I
*CAP
1 pgm_pn7_12_s1:1 1.486749e-02
*RES
1 lt_pn7_12_s1:Z pgm_pn7_12_s1:1 1.443531e+01
2 pgm_pn7_12_s1:1 vs_26_7:A 1.000000e-03
3 pgm_pn7_12_s1:1 vs_22_7:A 1.000000e-03
*END

*D_NET pgm_pn7_12_s2 1.502746e-02
*CONN
*I lt_pn7_12_s2:Z O
*I vs_40_7:A I
*I vs_39_7:A I
*CAP
1 pgm_pn7_12_s2:1 1.502746e-02
*RES
1 lt_pn7_12_s2:Z pgm_pn7_12_s2:1 1.461685e+01
2 pgm_pn7_12_s2:1 vs_40_7:A 1.000000e-03
3 pgm_pn7_12_s2:1 vs_39_7:A 1.000000e-03
*END

*D_NET pgm_pn7_12_s3 1.622204e-02
*CONN
*I lt_pn7_12_s3:Z O
*I vs_53_7:A I
*CAP
1 pgm_pn7_12_s3:1 1.622204e-02
*RES
1 lt_pn7_12_s3:Z pgm_pn7_12_s3:1 1.618840e+01
2 pgm_pn7_12_s3:1 vs_53_7:A 1.000000e-03
*END

*D_NET pgm_pn7_1_s0 1.332559e-02
*CONN
*I lt_pn7_1_s0:Z O
*I vs_11_7:A I
*CAP
1 pgm_pn7_1_s0:1 1.332559e-02
*RES
1 lt_pn7_1_s0:Z pgm_pn7_1_s0:1 1.512165e+01
2 pgm_pn7_1_s0:1 vs_11_7:A 1.000000e-03
*END

*D_NET pgm_pn7_1_s3 1.252867e-02
*CONN
*I lt_pn7_1_s3:Z O
*I vs_58_7:A I
*CAP
1 pgm_pn7_1_s3:1 1.252867e-02
*RES
1 lt_pn7_1_s3:Z pgm_pn7_1_s3:1 1.421731e+01
2 pgm_pn7_1_s3:1 vs_58_7:A 1.000000e-03
*END

*D_NET pgm_pn7_4_s0 6.805000e-03
*CONN
*I lt_pn7_4_s0:Z O
*I vs_0_7:A I
*CAP
1 pgm_pn7_4_s0:1 6.805000e-03
*RES
1 lt_pn7_4_s0:Z pgm_pn7_4_s0:1 7.722192e+00
2 pgm_pn7_4_s0:1 vs_0_7:A 1.000000e-03
*END

*D_NET pgm_pn7_4_s2 7.613779e-04
*CONN
*I lt_pn7_4_s2:Z O
*I vs_37_7:A I
*CAP
1 pgm_pn7_4_s2:1 7.613779e-04
*RES
1 lt_pn7_4_s2:Z pgm_pn7_4_s2:1 8.639980e-01
2 pgm_pn7_4_s2:1 vs_37_7:A 1.000000e-03
*END

*D_NET pgm_pn7_6_s3 1.617558e-03
*CONN
*I lt_pn7_6_s3:Z O
*I vs_57_7:A I
*CAP
1 pgm_pn7_6_s3:1 1.617558e-03
*RES
1 lt_pn7_6_s3:Z pgm_pn7_6_s3:1 1.835576e+00
2 pgm_pn7_6_s3:1 vs_57_7:A 1.000000e-03
*END

*D_NET pgm_pn7_7_s1 3.898729e-03
*CONN
*I lt_pn7_7_s1:Z O
*I vs_28_7:A I
*CAP
1 pgm_pn7_7_s1:1 3.898729e-03
*RES
1 lt_pn7_7_s1:Z pgm_pn7_7_s1:1 4.424208e+00
2 pgm_pn7_7_s1:1 vs_28_7:A 1.000000e-03
*END

*D_NET pgm_pn7_8_s1 1.364259e-02
*CONN
*I lt_pn7_8_s1:Z O
*I vs_17_7:A I
*CAP
1 pgm_pn7_8_s1:1 1.364259e-02
*RES
1 lt_pn7_8_s1:Z pgm_pn7_8_s1:1 1.548137e+01
2 pgm_pn7_8_s1:1 vs_17_7:A 1.000000e-03
*END

*D_NET pgm_pn7_9_s0 4.126846e-03
*CONN
*I lt_pn7_9_s0:Z O
*I vs_10_7:A I
*I vs_9_7:A I
*CAP
1 pgm_pn7_9_s0:1 4.126846e-03
*RES
1 lt_pn7_9_s0:Z pgm_pn7_9_s0:1 4.683071e+00
2 pgm_pn7_9_s0:1 vs_10_7:A 1.000000e-03
3 pgm_pn7_9_s0:1 vs_9_7:A 1.000000e-03
*END

*D_NET pgm_pn7_9_s1 1.086105e-02
*CONN
*I lt_pn7_9_s1:Z O
*I vs_24_7:A I
*I vs_21_7:A I
*CAP
1 pgm_pn7_9_s1:1 1.086105e-02
*RES
1 lt_pn7_9_s1:Z pgm_pn7_9_s1:1 1.147265e+01
2 pgm_pn7_9_s1:1 vs_24_7:A 1.000000e-03
3 pgm_pn7_9_s1:1 vs_21_7:A 1.000000e-03
*END

*D_NET pgm_pn7_9_s3 1.651658e-02
*CONN
*I lt_pn7_9_s3:Z O
*I vs_60_7:A I
*I vs_49_7:A I
*CAP
1 pgm_pn7_9_s3:1 1.651658e-02
*RES
1 lt_pn7_9_s3:Z pgm_pn7_9_s3:1 1.789044e+01
2 pgm_pn7_9_s3:1 vs_60_7:A 1.000000e-03
3 pgm_pn7_9_s3:1 vs_49_7:A 1.000000e-03
*END

*D_NET pgm_pn8_10_s1 2.149412e-02
*CONN
*I lt_pn8_10_s1:Z O
*I vs_31_8:A I
*I vs_29_8:A I
*I vs_22_8:A I
*I vs_19_8:A I
*I vs_17_8:A I
*CAP
1 pgm_pn8_10_s1:1 2.149412e-02
*RES
1 lt_pn8_10_s1:Z pgm_pn8_10_s1:1 2.368285e+01
2 pgm_pn8_10_s1:1 vs_31_8:A 1.000000e-03
3 pgm_pn8_10_s1:1 vs_29_8:A 1.000000e-03
4 pgm_pn8_10_s1:1 vs_22_8:A 1.000000e-03
5 pgm_pn8_10_s1:1 vs_19_8:A 1.000000e-03
6 pgm_pn8_10_s1:1 vs_17_8:A 1.000000e-03
*END

*D_NET pgm_pn8_11_s0 1.863007e-02
*CONN
*I lt_pn8_11_s0:Z O
*I vs_5_8:A I
*I vs_1_8:A I
*CAP
1 pgm_pn8_11_s0:1 1.863007e-02
*RES
1 lt_pn8_11_s0:Z pgm_pn8_11_s0:1 1.971288e+01
2 pgm_pn8_11_s0:1 vs_5_8:A 1.000000e-03
3 pgm_pn8_11_s0:1 vs_1_8:A 1.000000e-03
*END

*D_NET pgm_pn8_11_s1 2.031666e-02
*CONN
*I lt_pn8_11_s1:Z O
*I vs_21_8:A I
*I vs_20_8:A I
*I vs_16_8:A I
*CAP
1 pgm_pn8_11_s1:1 2.031666e-02
*RES
1 lt_pn8_11_s1:Z pgm_pn8_11_s1:1 2.191474e+01
2 pgm_pn8_11_s1:1 vs_21_8:A 1.000000e-03
3 pgm_pn8_11_s1:1 vs_20_8:A 1.000000e-03
4 pgm_pn8_11_s1:1 vs_16_8:A 1.000000e-03
*END

*D_NET pgm_pn8_11_s2 1.201720e-02
*CONN
*I lt_pn8_11_s2:Z O
*I vs_43_8:A I
*I vs_39_8:A I
*CAP
1 pgm_pn8_11_s2:1 1.201720e-02
*RES
1 lt_pn8_11_s2:Z pgm_pn8_11_s2:1 1.206473e+01
2 pgm_pn8_11_s2:1 vs_43_8:A 1.000000e-03
3 pgm_pn8_11_s2:1 vs_39_8:A 1.000000e-03
*END

*D_NET pgm_pn8_12_s0 8.375325e-03
*CONN
*I lt_pn8_12_s0:Z O
*I vs_10_8:A I
*CAP
1 pgm_pn8_12_s0:1 8.375325e-03
*RES
1 lt_pn8_12_s0:Z pgm_pn8_12_s0:1 7.644037e+00
2 pgm_pn8_12_s0:1 vs_10_8:A 1.000000e-03
*END

*D_NET pgm_pn8_12_s2 8.920436e-03
*CONN
*I lt_pn8_12_s2:Z O
*I vs_45_8:A I
*I vs_42_8:A I
*CAP
1 pgm_pn8_12_s2:1 8.920436e-03
*RES
1 lt_pn8_12_s2:Z pgm_pn8_12_s2:1 8.262619e+00
2 pgm_pn8_12_s2:1 vs_45_8:A 1.000000e-03
3 pgm_pn8_12_s2:1 vs_42_8:A 1.000000e-03
*END

*D_NET pgm_pn8_12_s3 2.088605e-03
*CONN
*I lt_pn8_12_s3:Z O
*I vs_63_8:A I
*CAP
1 pgm_pn8_12_s3:1 2.088605e-03
*RES
1 lt_pn8_12_s3:Z pgm_pn8_12_s3:1 2.370111e+00
2 pgm_pn8_12_s3:1 vs_63_8:A 1.000000e-03
*END

*D_NET pgm_pn8_3_s2 2.343385e-03
*CONN
*I lt_pn8_3_s2:Z O
*I vs_35_8:A I
*CAP
1 pgm_pn8_3_s2:1 2.343385e-03
*RES
1 lt_pn8_3_s2:Z pgm_pn8_3_s2:1 2.659231e+00
2 pgm_pn8_3_s2:1 vs_35_8:A 1.000000e-03
*END

*D_NET pgm_pn8_6_s0 7.536753e-03
*CONN
*I lt_pn8_6_s0:Z O
*I vs_13_8:A I
*CAP
1 pgm_pn8_6_s0:1 7.536753e-03
*RES
1 lt_pn8_6_s0:Z pgm_pn8_6_s0:1 8.552572e+00
2 pgm_pn8_6_s0:1 vs_13_8:A 1.000000e-03
*END

*D_NET pgm_pn8_6_s2 9.328964e-03
*CONN
*I lt_pn8_6_s2:Z O
*I vs_46_8:A I
*CAP
1 pgm_pn8_6_s2:1 9.328964e-03
*RES
1 lt_pn8_6_s2:Z pgm_pn8_6_s2:1 9.590085e+00
2 pgm_pn8_6_s2:1 vs_46_8:A 1.000000e-03
*END

*D_NET pgm_pn8_7_s0 5.125229e-03
*CONN
*I lt_pn8_7_s0:Z O
*I vs_6_8:A I
*CAP
1 pgm_pn8_7_s0:1 5.125229e-03
*RES
1 lt_pn8_7_s0:Z pgm_pn8_7_s0:1 5.816018e+00
2 pgm_pn8_7_s0:1 vs_6_8:A 1.000000e-03
*END

*D_NET pgm_pn8_9_s0 1.587340e-02
*CONN
*I lt_pn8_9_s0:Z O
*I vs_2_8:A I
*I vs_0_8:A I
*CAP
1 pgm_pn8_9_s0:1 1.587340e-02
*RES
1 lt_pn8_9_s0:Z pgm_pn8_9_s0:1 1.801285e+01
2 pgm_pn8_9_s0:1 vs_2_8:A 1.000000e-03
3 pgm_pn8_9_s0:1 vs_0_8:A 1.000000e-03
*END

*D_NET pgm_pn8_9_s2 9.681509e-03
*CONN
*I lt_pn8_9_s2:Z O
*I vs_37_8:A I
*CAP
1 pgm_pn8_9_s2:1 9.681509e-03
*RES
1 lt_pn8_9_s2:Z pgm_pn8_9_s2:1 9.990147e+00
2 pgm_pn8_9_s2:1 vs_37_8:A 1.000000e-03
*END

*D_NET pgm_pn8_9_s3 8.813616e-03
*CONN
*I lt_pn8_9_s3:Z O
*I vs_60_8:A I
*I vs_56_8:A I
*I vs_55_8:A I
*CAP
1 pgm_pn8_9_s3:1 8.813616e-03
*RES
1 lt_pn8_9_s3:Z pgm_pn8_9_s3:1 1.000153e+01
2 pgm_pn8_9_s3:1 vs_60_8:A 1.000000e-03
3 pgm_pn8_9_s3:1 vs_56_8:A 1.000000e-03
4 pgm_pn8_9_s3:1 vs_55_8:A 1.000000e-03
*END

*D_NET pgm_pn9_0_s2 3.573901e-03
*CONN
*I lt_pn9_0_s2:Z O
*I vs_34_9:A I
*CAP
1 pgm_pn9_0_s2:1 3.573901e-03
*RES
1 lt_pn9_0_s2:Z pgm_pn9_0_s2:1 2.483425e+00
2 pgm_pn9_0_s2:1 vs_34_9:A 1.000000e-03
*END

*D_NET pgm_pn9_10_s1 1.278641e-02
*CONN
*I lt_pn9_10_s1:Z O
*I vs_24_9:A I
*I vs_22_9:A I
*I vs_20_9:A I
*CAP
1 pgm_pn9_10_s1:1 1.278641e-02
*RES
1 lt_pn9_10_s1:Z pgm_pn9_10_s1:1 1.450979e+01
2 pgm_pn9_10_s1:1 vs_24_9:A 1.000000e-03
3 pgm_pn9_10_s1:1 vs_22_9:A 1.000000e-03
4 pgm_pn9_10_s1:1 vs_20_9:A 1.000000e-03
*END

*D_NET pgm_pn9_10_s2 6.031772e-03
*CONN
*I lt_pn9_10_s2:Z O
*I vs_42_9:A I
*CAP
1 pgm_pn9_10_s2:1 6.031772e-03
*RES
1 lt_pn9_10_s2:Z pgm_pn9_10_s2:1 6.844747e+00
2 pgm_pn9_10_s2:1 vs_42_9:A 1.000000e-03
*END

*D_NET pgm_pn9_10_s3 8.608619e-03
*CONN
*I lt_pn9_10_s3:Z O
*I vs_55_9:A I
*CAP
1 pgm_pn9_10_s3:1 8.608619e-03
*RES
1 lt_pn9_10_s3:Z pgm_pn9_10_s3:1 8.628671e+00
2 pgm_pn9_10_s3:1 vs_55_9:A 1.000000e-03
*END

*D_NET pgm_pn9_11_s0 2.134334e-02
*CONN
*I lt_pn9_11_s0:Z O
*I vs_13_9:A I
*I vs_11_9:A I
*I vs_0_9:A I
*CAP
1 pgm_pn9_11_s0:1 2.134334e-02
*RES
1 lt_pn9_11_s0:Z pgm_pn9_11_s0:1 2.264786e+01
2 pgm_pn9_11_s0:1 vs_13_9:A 1.000000e-03
3 pgm_pn9_11_s0:1 vs_11_9:A 1.000000e-03
4 pgm_pn9_11_s0:1 vs_0_9:A 1.000000e-03
*END

*D_NET pgm_pn9_11_s1 1.761538e-02
*CONN
*I lt_pn9_11_s1:Z O
*I vs_18_9:A I
*I vs_17_9:A I
*CAP
1 pgm_pn9_11_s1:1 1.761538e-02
*RES
1 lt_pn9_11_s1:Z pgm_pn9_11_s1:1 1.998962e+01
2 pgm_pn9_11_s1:1 vs_18_9:A 1.000000e-03
3 pgm_pn9_11_s1:1 vs_17_9:A 1.000000e-03
*END

*D_NET pgm_pn9_11_s2 2.187275e-02
*CONN
*I lt_pn9_11_s2:Z O
*I vs_40_9:A I
*I vs_32_9:A I
*CAP
1 pgm_pn9_11_s2:1 2.187275e-02
*RES
1 lt_pn9_11_s2:Z pgm_pn9_11_s2:1 2.296067e+01
2 pgm_pn9_11_s2:1 vs_40_9:A 1.000000e-03
3 pgm_pn9_11_s2:1 vs_32_9:A 1.000000e-03
*END

*D_NET pgm_pn9_11_s3 2.298994e-02
*CONN
*I lt_pn9_11_s3:Z O
*I vs_62_9:A I
*I vs_56_9:A I
*I vs_48_9:A I
*CAP
1 pgm_pn9_11_s3:1 2.298994e-02
*RES
1 lt_pn9_11_s3:Z pgm_pn9_11_s3:1 2.337616e+01
2 pgm_pn9_11_s3:1 vs_62_9:A 1.000000e-03
3 pgm_pn9_11_s3:1 vs_56_9:A 1.000000e-03
4 pgm_pn9_11_s3:1 vs_48_9:A 1.000000e-03
*END

*D_NET pgm_pn9_12_s1 1.184728e-02
*CONN
*I lt_pn9_12_s1:Z O
*I vs_31_9:A I
*I vs_28_9:A I
*I vs_25_9:A I
*CAP
1 pgm_pn9_12_s1:1 1.184728e-02
*RES
1 lt_pn9_12_s1:Z pgm_pn9_12_s1:1 1.344408e+01
2 pgm_pn9_12_s1:1 vs_31_9:A 1.000000e-03
3 pgm_pn9_12_s1:1 vs_28_9:A 1.000000e-03
4 pgm_pn9_12_s1:1 vs_25_9:A 1.000000e-03
*END

*D_NET pgm_pn9_12_s2 2.844058e-03
*CONN
*I lt_pn9_12_s2:Z O
*I vs_47_9:A I
*I vs_46_9:A I
*CAP
1 pgm_pn9_12_s2:1 2.844058e-03
*RES
1 lt_pn9_12_s2:Z pgm_pn9_12_s2:1 3.227386e+00
2 pgm_pn9_12_s2:1 vs_47_9:A 1.000000e-03
3 pgm_pn9_12_s2:1 vs_46_9:A 1.000000e-03
*END

*D_NET pgm_pn9_12_s3 1.129951e-02
*CONN
*I lt_pn9_12_s3:Z O
*I vs_63_9:A I
*I vs_58_9:A I
*CAP
1 pgm_pn9_12_s3:1 1.129951e-02
*RES
1 lt_pn9_12_s3:Z pgm_pn9_12_s3:1 1.197020e+01
2 pgm_pn9_12_s3:1 vs_63_9:A 1.000000e-03
3 pgm_pn9_12_s3:1 vs_58_9:A 1.000000e-03
*END

*D_NET pgm_pn9_3_s0 2.008921e-03
*CONN
*I lt_pn9_3_s0:Z O
*I vs_5_9:A I
*CAP
1 pgm_pn9_3_s0:1 2.008921e-03
*RES
1 lt_pn9_3_s0:Z pgm_pn9_3_s0:1 1.427411e+00
2 pgm_pn9_3_s0:1 vs_5_9:A 1.000000e-03
*END

*D_NET pgm_pn9_4_s2 2.020466e-03
*CONN
*I lt_pn9_4_s2:Z O
*I vs_36_9:A I
*CAP
1 pgm_pn9_4_s2:1 2.020466e-03
*RES
1 lt_pn9_4_s2:Z pgm_pn9_4_s2:1 2.292789e+00
2 pgm_pn9_4_s2:1 vs_36_9:A 1.000000e-03
*END

*D_NET pgm_pn9_5_s0 1.271902e-02
*CONN
*I lt_pn9_5_s0:Z O
*I vs_15_9:A I
*CAP
1 pgm_pn9_5_s0:1 1.271902e-02
*RES
1 lt_pn9_5_s0:Z pgm_pn9_5_s0:1 1.372502e+01
2 pgm_pn9_5_s0:1 vs_15_9:A 1.000000e-03
*END

*D_NET pgm_pn9_8_s0 2.056017e-03
*CONN
*I lt_pn9_8_s0:Z O
*I vs_9_9:A I
*CAP
1 pgm_pn9_8_s0:1 2.056017e-03
*RES
1 lt_pn9_8_s0:Z pgm_pn9_8_s0:1 2.333131e+00
2 pgm_pn9_8_s0:1 vs_9_9:A 1.000000e-03
*END

*D_NET pgm_pn9_8_s2 7.077556e-03
*CONN
*I lt_pn9_8_s2:Z O
*I vs_37_9:A I
*CAP
1 pgm_pn9_8_s2:1 7.077556e-03
*RES
1 lt_pn9_8_s2:Z pgm_pn9_8_s2:1 8.031484e+00
2 pgm_pn9_8_s2:1 vs_37_9:A 1.000000e-03
*END

*D_NET pgm_pn9_9_s0 7.826946e-03
*CONN
*I lt_pn9_9_s0:Z O
*I vs_7_9:A I
*CAP
1 pgm_pn9_9_s0:1 7.826946e-03
*RES
1 lt_pn9_9_s0:Z pgm_pn9_9_s0:1 7.885622e+00
2 pgm_pn9_9_s0:1 vs_7_9:A 1.000000e-03
*END

*D_NET pgm_pn9_9_s1 1.865091e-02
*CONN
*I lt_pn9_9_s1:Z O
*I vs_29_9:A I
*I vs_19_9:A I
*CAP
1 pgm_pn9_9_s1:1 1.865091e-02
*RES
1 lt_pn9_9_s1:Z pgm_pn9_9_s1:1 1.654974e+01
2 pgm_pn9_9_s1:1 vs_29_9:A 1.000000e-03
3 pgm_pn9_9_s1:1 vs_19_9:A 1.000000e-03
*END

*D_NET pgm_pn9_9_s2 7.972554e-03
*CONN
*I lt_pn9_9_s2:Z O
*I vs_38_9:A I
*CAP
1 pgm_pn9_9_s2:1 7.972554e-03
*RES
1 lt_pn9_9_s2:Z pgm_pn9_9_s2:1 8.194835e+00
2 pgm_pn9_9_s2:1 vs_38_9:A 1.000000e-03
*END

*D_NET pgm_pn9_9_s3 3.134388e-03
*CONN
*I lt_pn9_9_s3:Z O
*I vs_61_9:A I
*CAP
1 pgm_pn9_9_s3:1 3.134388e-03
*RES
1 lt_pn9_9_s3:Z pgm_pn9_9_s3:1 3.556848e+00
2 pgm_pn9_9_s3:1 vs_61_9:A 1.000000e-03
*END

*D_NET pgm_pp0_10_s0 1.521101e-02
*CONN
*I lt_pp0_10_s0:Z O
*I vs_15_0:A I
*I vs_7_0:A I
*CAP
1 pgm_pp0_10_s0:1 1.521101e-02
*RES
1 lt_pp0_10_s0:Z pgm_pp0_10_s0:1 1.382887e+01
2 pgm_pp0_10_s0:1 vs_15_0:A 1.000000e-03
3 pgm_pp0_10_s0:1 vs_7_0:A 1.000000e-03
*END

*D_NET pgm_pp0_10_s3 1.947069e-02
*CONN
*I lt_pp0_10_s3:Z O
*I vs_61_0:A I
*I vs_57_0:A I
*I vs_48_0:A I
*CAP
1 pgm_pp0_10_s3:1 1.947069e-02
*RES
1 lt_pp0_10_s3:Z pgm_pp0_10_s3:1 2.138670e+01
2 pgm_pp0_10_s3:1 vs_61_0:A 1.000000e-03
3 pgm_pp0_10_s3:1 vs_57_0:A 1.000000e-03
4 pgm_pp0_10_s3:1 vs_48_0:A 1.000000e-03
*END

*D_NET pgm_pp0_11_s0 2.017936e-02
*CONN
*I lt_pp0_11_s0:Z O
*I vs_9_0:A I
*I vs_8_0:A I
*I vs_1_0:A I
*CAP
1 pgm_pp0_11_s0:1 2.017936e-02
*RES
1 lt_pp0_11_s0:Z pgm_pp0_11_s0:1 2.046312e+01
2 pgm_pp0_11_s0:1 vs_9_0:A 1.000000e-03
3 pgm_pp0_11_s0:1 vs_8_0:A 1.000000e-03
4 pgm_pp0_11_s0:1 vs_1_0:A 1.000000e-03
*END

*D_NET pgm_pp0_11_s1 1.698170e-02
*CONN
*I lt_pp0_11_s1:Z O
*I vs_31_0:A I
*I vs_22_0:A I
*I vs_20_0:A I
*CAP
1 pgm_pp0_11_s1:1 1.698170e-02
*RES
1 lt_pp0_11_s1:Z pgm_pp0_11_s1:1 1.841825e+01
2 pgm_pp0_11_s1:1 vs_31_0:A 1.000000e-03
3 pgm_pp0_11_s1:1 vs_22_0:A 1.000000e-03
4 pgm_pp0_11_s1:1 vs_20_0:A 1.000000e-03
*END

*D_NET pgm_pp0_11_s2 1.031165e-02
*CONN
*I lt_pp0_11_s2:Z O
*I vs_39_0:A I
*CAP
1 pgm_pp0_11_s2:1 1.031165e-02
*RES
1 lt_pp0_11_s2:Z pgm_pp0_11_s2:1 1.041726e+01
2 pgm_pp0_11_s2:1 vs_39_0:A 1.000000e-03
*END

*D_NET pgm_pp0_11_s3 3.190677e-03
*CONN
*I lt_pp0_11_s3:Z O
*I vs_63_0:A I
*CAP
1 pgm_pp0_11_s3:1 3.190677e-03
*RES
1 lt_pp0_11_s3:Z pgm_pp0_11_s3:1 3.620723e+00
2 pgm_pp0_11_s3:1 vs_63_0:A 1.000000e-03
*END

*D_NET pgm_pp0_12_s0 8.236730e-03
*CONN
*I lt_pp0_12_s0:Z O
*I vs_10_0:A I
*CAP
1 pgm_pp0_12_s0:1 8.236730e-03
*RES
1 lt_pp0_12_s0:Z pgm_pp0_12_s0:1 5.602509e+00
2 pgm_pp0_12_s0:1 vs_10_0:A 1.000000e-03
*END

*D_NET pgm_pp0_12_s1 2.117832e-02
*CONN
*I lt_pp0_12_s1:Z O
*I vs_25_0:A I
*I vs_17_0:A I
*I vs_16_0:A I
*CAP
1 pgm_pp0_12_s1:1 2.117832e-02
*RES
1 lt_pp0_12_s1:Z pgm_pp0_12_s1:1 2.274856e+01
2 pgm_pp0_12_s1:1 vs_25_0:A 1.000000e-03
3 pgm_pp0_12_s1:1 vs_17_0:A 1.000000e-03
4 pgm_pp0_12_s1:1 vs_16_0:A 1.000000e-03
*END

*D_NET pgm_pp0_12_s2 1.056050e-02
*CONN
*I lt_pp0_12_s2:Z O
*I vs_46_0:A I
*I vs_44_0:A I
*I vs_40_0:A I
*CAP
1 pgm_pp0_12_s2:1 1.056050e-02
*RES
1 lt_pp0_12_s2:Z pgm_pp0_12_s2:1 1.069966e+01
2 pgm_pp0_12_s2:1 vs_46_0:A 1.000000e-03
3 pgm_pp0_12_s2:1 vs_44_0:A 1.000000e-03
4 pgm_pp0_12_s2:1 vs_40_0:A 1.000000e-03
*END

*D_NET pgm_pp0_12_s3 1.754401e-02
*CONN
*I lt_pp0_12_s3:Z O
*I vs_58_0:A I
*I vs_51_0:A I
*CAP
1 pgm_pp0_12_s3:1 1.754401e-02
*RES
1 lt_pp0_12_s3:Z pgm_pp0_12_s3:1 1.791611e+01
2 pgm_pp0_12_s3:1 vs_58_0:A 1.000000e-03
3 pgm_pp0_12_s3:1 vs_51_0:A 1.000000e-03
*END

*D_NET pgm_pp0_3_s0 1.486316e-02
*CONN
*I lt_pp0_3_s0:Z O
*I vs_12_0:A I
*I vs_5_0:A I
*CAP
1 pgm_pp0_3_s0:1 1.486316e-02
*RES
1 lt_pp0_3_s0:Z pgm_pp0_3_s0:1 1.686645e+01
2 pgm_pp0_3_s0:1 vs_12_0:A 1.000000e-03
3 pgm_pp0_3_s0:1 vs_5_0:A 1.000000e-03
*END

*D_NET pgm_pp0_3_s1 2.832207e-03
*CONN
*I lt_pp0_3_s1:Z O
*I vs_21_0:A I
*CAP
1 pgm_pp0_3_s1:1 2.832207e-03
*RES
1 lt_pp0_3_s1:Z pgm_pp0_3_s1:1 3.213938e+00
2 pgm_pp0_3_s1:1 vs_21_0:A 1.000000e-03
*END

*D_NET pgm_pp0_4_s1 9.409091e-03
*CONN
*I lt_pp0_4_s1:Z O
*I vs_28_0:A I
*CAP
1 pgm_pp0_4_s1:1 9.409091e-03
*RES
1 lt_pp0_4_s1:Z pgm_pp0_4_s1:1 1.067727e+01
2 pgm_pp0_4_s1:1 vs_28_0:A 1.000000e-03
*END

*D_NET pgm_pp0_5_s3 8.665488e-03
*CONN
*I lt_pp0_5_s3:Z O
*I vs_60_0:A I
*CAP
1 pgm_pp0_5_s3:1 8.665488e-03
*RES
1 lt_pp0_5_s3:Z pgm_pp0_5_s3:1 9.833441e+00
2 pgm_pp0_5_s3:1 vs_60_0:A 1.000000e-03
*END

*D_NET pgm_pp0_7_s3 6.005109e-03
*CONN
*I lt_pp0_7_s3:Z O
*I vs_52_0:A I
*CAP
1 pgm_pp0_7_s3:1 6.005109e-03
*RES
1 lt_pp0_7_s3:Z pgm_pp0_7_s3:1 6.814490e+00
2 pgm_pp0_7_s3:1 vs_52_0:A 1.000000e-03
*END

*D_NET pgm_pp0_8_s0 5.385934e-03
*CONN
*I lt_pp0_8_s0:Z O
*I vs_6_0:A I
*CAP
1 pgm_pp0_8_s0:1 5.385934e-03
*RES
1 lt_pp0_8_s0:Z pgm_pp0_8_s0:1 6.111861e+00
2 pgm_pp0_8_s0:1 vs_6_0:A 1.000000e-03
*END

*D_NET pgm_pp0_8_s2 5.708853e-03
*CONN
*I lt_pp0_8_s2:Z O
*I vs_45_0:A I
*CAP
1 pgm_pp0_8_s2:1 5.708853e-03
*RES
1 lt_pp0_8_s2:Z pgm_pp0_8_s2:1 6.478304e+00
2 pgm_pp0_8_s2:1 vs_45_0:A 1.000000e-03
*END

*D_NET pgm_pp0_8_s3 6.372467e-03
*CONN
*I lt_pp0_8_s3:Z O
*I vs_53_0:A I
*CAP
1 pgm_pp0_8_s3:1 6.372467e-03
*RES
1 lt_pp0_8_s3:Z pgm_pp0_8_s3:1 7.231361e+00
2 pgm_pp0_8_s3:1 vs_53_0:A 1.000000e-03
*END

*D_NET pgm_pp0_9_s0 1.248140e-02
*CONN
*I lt_pp0_9_s0:Z O
*I vs_3_0:A I
*CAP
1 pgm_pp0_9_s0:1 1.248140e-02
*RES
1 lt_pp0_9_s0:Z pgm_pp0_9_s0:1 1.191542e+01
2 pgm_pp0_9_s0:1 vs_3_0:A 1.000000e-03
*END

*D_NET pgm_pp0_9_s1 3.990568e-03
*CONN
*I lt_pp0_9_s1:Z O
*I vs_24_0:A I
*CAP
1 pgm_pp0_9_s1:1 3.990568e-03
*RES
1 lt_pp0_9_s1:Z pgm_pp0_9_s1:1 4.528425e+00
2 pgm_pp0_9_s1:1 vs_24_0:A 1.000000e-03
*END

*D_NET pgm_pp0_9_s2 1.646400e-02
*CONN
*I lt_pp0_9_s2:Z O
*I vs_32_0:A I
*CAP
1 pgm_pp0_9_s2:1 1.646400e-02
*RES
1 lt_pp0_9_s2:Z pgm_pp0_9_s2:1 1.711088e+01
2 pgm_pp0_9_s2:1 vs_32_0:A 1.000000e-03
*END

*D_NET pgm_pp10_0_s3 1.481120e-02
*CONN
*I lt_pp10_0_s3:Z O
*I vs_57_10:A I
*CAP
1 pgm_pp10_0_s3:1 1.481120e-02
*RES
1 lt_pp10_0_s3:Z pgm_pp10_0_s3:1 1.437143e+01
2 pgm_pp10_0_s3:1 vs_57_10:A 1.000000e-03
*END

*D_NET pgm_pp10_10_s0 3.822892e-03
*CONN
*I lt_pp10_10_s0:Z O
*I vs_10_10:A I
*CAP
1 pgm_pp10_10_s0:1 3.822892e-03
*RES
1 lt_pp10_10_s0:Z pgm_pp10_10_s0:1 2.684597e+00
2 pgm_pp10_10_s0:1 vs_10_10:A 1.000000e-03
*END

*D_NET pgm_pp10_10_s2 1.461240e-02
*CONN
*I lt_pp10_10_s2:Z O
*I vs_47_10:A I
*I vs_38_10:A I
*CAP
1 pgm_pp10_10_s2:1 1.461240e-02
*RES
1 lt_pp10_10_s2:Z pgm_pp10_10_s2:1 1.500972e+01
2 pgm_pp10_10_s2:1 vs_47_10:A 1.000000e-03
3 pgm_pp10_10_s2:1 vs_38_10:A 1.000000e-03
*END

*D_NET pgm_pp10_10_s3 1.547049e-02
*CONN
*I lt_pp10_10_s3:Z O
*I vs_49_10:A I
*CAP
1 pgm_pp10_10_s3:1 1.547049e-02
*RES
1 lt_pp10_10_s3:Z pgm_pp10_10_s3:1 1.755563e+01
2 pgm_pp10_10_s3:1 vs_49_10:A 1.000000e-03
*END

*D_NET pgm_pp10_11_s0 1.507664e-02
*CONN
*I lt_pp10_11_s0:Z O
*I vs_7_10:A I
*I vs_4_10:A I
*CAP
1 pgm_pp10_11_s0:1 1.507664e-02
*RES
1 lt_pp10_11_s0:Z pgm_pp10_11_s0:1 1.524856e+01
2 pgm_pp10_11_s0:1 vs_7_10:A 1.000000e-03
3 pgm_pp10_11_s0:1 vs_4_10:A 1.000000e-03
*END

*D_NET pgm_pp10_11_s1 1.315138e-02
*CONN
*I lt_pp10_11_s1:Z O
*I vs_28_10:A I
*I vs_21_10:A I
*CAP
1 pgm_pp10_11_s1:1 1.315138e-02
*RES
1 lt_pp10_11_s1:Z pgm_pp10_11_s1:1 1.281968e+01
2 pgm_pp10_11_s1:1 vs_28_10:A 1.000000e-03
3 pgm_pp10_11_s1:1 vs_21_10:A 1.000000e-03
*END

*D_NET pgm_pp10_11_s2 1.305838e-02
*CONN
*I lt_pp10_11_s2:Z O
*I vs_43_10:A I
*I vs_42_10:A I
*I vs_37_10:A I
*CAP
1 pgm_pp10_11_s2:1 1.305838e-02
*RES
1 lt_pp10_11_s2:Z pgm_pp10_11_s2:1 1.367819e+01
2 pgm_pp10_11_s2:1 vs_43_10:A 1.000000e-03
3 pgm_pp10_11_s2:1 vs_42_10:A 1.000000e-03
4 pgm_pp10_11_s2:1 vs_37_10:A 1.000000e-03
*END

*D_NET pgm_pp10_11_s3 1.692214e-02
*CONN
*I lt_pp10_11_s3:Z O
*I vs_62_10:A I
*I vs_61_10:A I
*I vs_53_10:A I
*CAP
1 pgm_pp10_11_s3:1 1.692214e-02
*RES
1 lt_pp10_11_s3:Z pgm_pp10_11_s3:1 1.920294e+01
2 pgm_pp10_11_s3:1 vs_62_10:A 1.000000e-03
3 pgm_pp10_11_s3:1 vs_61_10:A 1.000000e-03
4 pgm_pp10_11_s3:1 vs_53_10:A 1.000000e-03
*END

*D_NET pgm_pp10_12_s0 1.074994e-02
*CONN
*I lt_pp10_12_s0:Z O
*I vs_8_10:A I
*CAP
1 pgm_pp10_12_s0:1 1.074994e-02
*RES
1 lt_pp10_12_s0:Z pgm_pp10_12_s0:1 9.518645e+00
2 pgm_pp10_12_s0:1 vs_8_10:A 1.000000e-03
*END

*D_NET pgm_pp10_12_s1 1.265503e-02
*CONN
*I lt_pp10_12_s1:Z O
*I vs_26_10:A I
*I vs_22_10:A I
*CAP
1 pgm_pp10_12_s1:1 1.265503e-02
*RES
1 lt_pp10_12_s1:Z pgm_pp10_12_s1:1 1.307649e+01
2 pgm_pp10_12_s1:1 vs_26_10:A 1.000000e-03
3 pgm_pp10_12_s1:1 vs_22_10:A 1.000000e-03
*END

*D_NET pgm_pp10_12_s2 1.746194e-02
*CONN
*I lt_pp10_12_s2:Z O
*I vs_36_10:A I
*CAP
1 pgm_pp10_12_s2:1 1.746194e-02
*RES
1 lt_pp10_12_s2:Z pgm_pp10_12_s2:1 1.809934e+01
2 pgm_pp10_12_s2:1 vs_36_10:A 1.000000e-03
*END

*D_NET pgm_pp10_12_s3 1.623500e-02
*CONN
*I lt_pp10_12_s3:Z O
*I vs_59_10:A I
*I vs_55_10:A I
*I vs_52_10:A I
*CAP
1 pgm_pp10_12_s3:1 1.623500e-02
*RES
1 lt_pp10_12_s3:Z pgm_pp10_12_s3:1 1.656305e+01
2 pgm_pp10_12_s3:1 vs_59_10:A 1.000000e-03
3 pgm_pp10_12_s3:1 vs_55_10:A 1.000000e-03
4 pgm_pp10_12_s3:1 vs_52_10:A 1.000000e-03
*END

*D_NET pgm_pp10_3_s0 1.014234e-02
*CONN
*I lt_pp10_3_s0:Z O
*I vs_9_10:A I
*CAP
1 pgm_pp10_3_s0:1 1.014234e-02
*RES
1 lt_pp10_3_s0:Z pgm_pp10_3_s0:1 1.008115e+01
2 pgm_pp10_3_s0:1 vs_9_10:A 1.000000e-03
*END

*D_NET pgm_pp10_4_s0 9.874075e-03
*CONN
*I lt_pp10_4_s0:Z O
*I vs_11_10:A I
*CAP
1 pgm_pp10_4_s0:1 9.874075e-03
*RES
1 lt_pp10_4_s0:Z pgm_pp10_4_s0:1 1.020867e+01
2 pgm_pp10_4_s0:1 vs_11_10:A 1.000000e-03
*END

*D_NET pgm_pp10_4_s2 4.926737e-03
*CONN
*I lt_pp10_4_s2:Z O
*I vs_33_10:A I
*CAP
1 pgm_pp10_4_s2:1 4.926737e-03
*RES
1 lt_pp10_4_s2:Z pgm_pp10_4_s2:1 5.590773e+00
2 pgm_pp10_4_s2:1 vs_33_10:A 1.000000e-03
*END

*D_NET pgm_pp10_4_s3 6.236189e-03
*CONN
*I lt_pp10_4_s3:Z O
*I vs_48_10:A I
*CAP
1 pgm_pp10_4_s3:1 6.236189e-03
*RES
1 lt_pp10_4_s3:Z pgm_pp10_4_s3:1 7.076715e+00
2 pgm_pp10_4_s3:1 vs_48_10:A 1.000000e-03
*END

*D_NET pgm_pp10_7_s3 9.400203e-03
*CONN
*I lt_pp10_7_s3:Z O
*I vs_50_10:A I
*CAP
1 pgm_pp10_7_s3:1 9.400203e-03
*RES
1 lt_pp10_7_s3:Z pgm_pp10_7_s3:1 1.066718e+01
2 pgm_pp10_7_s3:1 vs_50_10:A 1.000000e-03
*END

*D_NET pgm_pp10_8_s1 9.092097e-03
*CONN
*I lt_pp10_8_s1:Z O
*I vs_19_10:A I
*CAP
1 pgm_pp10_8_s1:1 9.092097e-03
*RES
1 lt_pp10_8_s1:Z pgm_pp10_8_s1:1 1.031755e+01
2 pgm_pp10_8_s1:1 vs_19_10:A 1.000000e-03
*END

*D_NET pgm_pp10_9_s0 1.732362e-02
*CONN
*I lt_pp10_9_s0:Z O
*I vs_15_10:A I
*I vs_3_10:A I
*I vs_2_10:A I
*CAP
1 pgm_pp10_9_s0:1 1.732362e-02
*RES
1 lt_pp10_9_s0:Z pgm_pp10_9_s0:1 1.807384e+01
2 pgm_pp10_9_s0:1 vs_15_10:A 1.000000e-03
3 pgm_pp10_9_s0:1 vs_3_10:A 1.000000e-03
4 pgm_pp10_9_s0:1 vs_2_10:A 1.000000e-03
*END

*D_NET pgm_pp10_9_s1 2.063127e-02
*CONN
*I lt_pp10_9_s1:Z O
*I vs_30_10:A I
*I vs_29_10:A I
*I vs_24_10:A I
*I vs_20_10:A I
*I vs_18_10:A I
*I vs_16_10:A I
*CAP
1 pgm_pp10_9_s1:1 2.063127e-02
*RES
1 lt_pp10_9_s1:Z pgm_pp10_9_s1:1 2.341199e+01
2 pgm_pp10_9_s1:1 vs_30_10:A 1.000000e-03
3 pgm_pp10_9_s1:1 vs_29_10:A 1.000000e-03
4 pgm_pp10_9_s1:1 vs_24_10:A 1.000000e-03
5 pgm_pp10_9_s1:1 vs_20_10:A 1.000000e-03
6 pgm_pp10_9_s1:1 vs_18_10:A 1.000000e-03
7 pgm_pp10_9_s1:1 vs_16_10:A 1.000000e-03
*END

*D_NET pgm_pp10_9_s2 1.500611e-02
*CONN
*I lt_pp10_9_s2:Z O
*I vs_40_10:A I
*I vs_34_10:A I
*CAP
1 pgm_pp10_9_s2:1 1.500611e-02
*RES
1 lt_pp10_9_s2:Z pgm_pp10_9_s2:1 1.632037e+01
2 pgm_pp10_9_s2:1 vs_40_10:A 1.000000e-03
3 pgm_pp10_9_s2:1 vs_34_10:A 1.000000e-03
*END

*D_NET pgm_pp10_9_s3 4.988951e-03
*CONN
*I lt_pp10_9_s3:Z O
*I vs_56_10:A I
*CAP
1 pgm_pp10_9_s3:1 4.988951e-03
*RES
1 lt_pp10_9_s3:Z pgm_pp10_9_s3:1 5.661372e+00
2 pgm_pp10_9_s3:1 vs_56_10:A 1.000000e-03
*END

*D_NET pgm_pp11_10_s1 1.036896e-02
*CONN
*I lt_pp11_10_s1:Z O
*I vs_31_11:A I
*I vs_26_11:A I
*I vs_24_11:A I
*CAP
1 pgm_pp11_10_s1:1 1.036896e-02
*RES
1 lt_pp11_10_s1:Z pgm_pp11_10_s1:1 1.176651e+01
2 pgm_pp11_10_s1:1 vs_31_11:A 1.000000e-03
3 pgm_pp11_10_s1:1 vs_26_11:A 1.000000e-03
4 pgm_pp11_10_s1:1 vs_24_11:A 1.000000e-03
*END

*D_NET pgm_pp11_10_s2 1.086500e-02
*CONN
*I lt_pp11_10_s2:Z O
*I vs_42_11:A I
*I vs_41_11:A I
*I vs_37_11:A I
*CAP
1 pgm_pp11_10_s2:1 1.086500e-02
*RES
1 lt_pp11_10_s2:Z pgm_pp11_10_s2:1 8.572500e+00
2 pgm_pp11_10_s2:1 vs_42_11:A 1.000000e-03
3 pgm_pp11_10_s2:1 vs_41_11:A 1.000000e-03
4 pgm_pp11_10_s2:1 vs_37_11:A 1.000000e-03
*END

*D_NET pgm_pp11_10_s3 1.756917e-02
*CONN
*I lt_pp11_10_s3:Z O
*I vs_48_11:A I
*CAP
1 pgm_pp11_10_s3:1 1.756917e-02
*RES
1 lt_pp11_10_s3:Z pgm_pp11_10_s3:1 1.937286e+01
2 pgm_pp11_10_s3:1 vs_48_11:A 1.000000e-03
*END

*D_NET pgm_pp11_11_s0 1.486214e-02
*CONN
*I lt_pp11_11_s0:Z O
*I vs_14_11:A I
*I vs_4_11:A I
*CAP
1 pgm_pp11_11_s0:1 1.486214e-02
*RES
1 lt_pp11_11_s0:Z pgm_pp11_11_s0:1 1.558108e+01
2 pgm_pp11_11_s0:1 vs_14_11:A 1.000000e-03
3 pgm_pp11_11_s0:1 vs_4_11:A 1.000000e-03
*END

*D_NET pgm_pp11_11_s1 1.406920e-02
*CONN
*I lt_pp11_11_s1:Z O
*I vs_20_11:A I
*I vs_19_11:A I
*CAP
1 pgm_pp11_11_s1:1 1.406920e-02
*RES
1 lt_pp11_11_s1:Z pgm_pp11_11_s1:1 1.596547e+01
2 pgm_pp11_11_s1:1 vs_20_11:A 1.000000e-03
3 pgm_pp11_11_s1:1 vs_19_11:A 1.000000e-03
*END

*D_NET pgm_pp11_11_s2 1.579044e-03
*CONN
*I lt_pp11_11_s2:Z O
*I vs_45_11:A I
*CAP
1 pgm_pp11_11_s2:1 1.579044e-03
*RES
1 lt_pp11_11_s2:Z pgm_pp11_11_s2:1 1.791871e+00
2 pgm_pp11_11_s2:1 vs_45_11:A 1.000000e-03
*END

*D_NET pgm_pp11_11_s3 1.742727e-02
*CONN
*I lt_pp11_11_s3:Z O
*I vs_58_11:A I
*I vs_50_11:A I
*CAP
1 pgm_pp11_11_s3:1 1.742727e-02
*RES
1 lt_pp11_11_s3:Z pgm_pp11_11_s3:1 1.834796e+01
2 pgm_pp11_11_s3:1 vs_58_11:A 1.000000e-03
3 pgm_pp11_11_s3:1 vs_50_11:A 1.000000e-03
*END

*D_NET pgm_pp11_12_s0 1.821514e-02
*CONN
*I lt_pp11_12_s0:Z O
*I vs_7_11:A I
*I vs_3_11:A I
*CAP
1 pgm_pp11_12_s0:1 1.821514e-02
*RES
1 lt_pp11_12_s0:Z pgm_pp11_12_s0:1 1.784605e+01
2 pgm_pp11_12_s0:1 vs_7_11:A 1.000000e-03
3 pgm_pp11_12_s0:1 vs_3_11:A 1.000000e-03
*END

*D_NET pgm_pp11_12_s1 5.924540e-03
*CONN
*I lt_pp11_12_s1:Z O
*I vs_27_11:A I
*CAP
1 pgm_pp11_12_s1:1 5.924540e-03
*RES
1 lt_pp11_12_s1:Z pgm_pp11_12_s1:1 5.582826e+00
2 pgm_pp11_12_s1:1 vs_27_11:A 1.000000e-03
*END

*D_NET pgm_pp11_12_s2 2.143116e-02
*CONN
*I lt_pp11_12_s2:Z O
*I vs_47_11:A I
*I vs_32_11:A I
*CAP
1 pgm_pp11_12_s2:1 2.143116e-02
*RES
1 lt_pp11_12_s2:Z pgm_pp11_12_s2:1 2.431970e+01
2 pgm_pp11_12_s2:1 vs_47_11:A 1.000000e-03
3 pgm_pp11_12_s2:1 vs_32_11:A 1.000000e-03
*END

*D_NET pgm_pp11_12_s3 1.073826e-02
*CONN
*I lt_pp11_12_s3:Z O
*I vs_62_11:A I
*I vs_57_11:A I
*CAP
1 pgm_pp11_12_s3:1 1.073826e-02
*RES
1 lt_pp11_12_s3:Z pgm_pp11_12_s3:1 1.090137e+01
2 pgm_pp11_12_s3:1 vs_62_11:A 1.000000e-03
3 pgm_pp11_12_s3:1 vs_57_11:A 1.000000e-03
*END

*D_NET pgm_pp11_3_s2 4.040932e-03
*CONN
*I lt_pp11_3_s2:Z O
*I vs_33_11:A I
*CAP
1 pgm_pp11_3_s2:1 4.040932e-03
*RES
1 lt_pp11_3_s2:Z pgm_pp11_3_s2:1 4.585577e+00
2 pgm_pp11_3_s2:1 vs_33_11:A 1.000000e-03
*END

*D_NET pgm_pp11_3_s3 4.511143e-03
*CONN
*I lt_pp11_3_s3:Z O
*I vs_54_11:A I
*CAP
1 pgm_pp11_3_s3:1 4.511143e-03
*RES
1 lt_pp11_3_s3:Z pgm_pp11_3_s3:1 3.518821e+00
2 pgm_pp11_3_s3:1 vs_54_11:A 1.000000e-03
*END

*D_NET pgm_pp11_5_s0 6.316178e-03
*CONN
*I lt_pp11_5_s0:Z O
*I vs_1_11:A I
*CAP
1 pgm_pp11_5_s0:1 6.316178e-03
*RES
1 lt_pp11_5_s0:Z pgm_pp11_5_s0:1 7.167486e+00
2 pgm_pp11_5_s0:1 vs_1_11:A 1.000000e-03
*END

*D_NET pgm_pp11_5_s1 6.316178e-03
*CONN
*I lt_pp11_5_s1:Z O
*I vs_17_11:A I
*CAP
1 pgm_pp11_5_s1:1 6.316178e-03
*RES
1 lt_pp11_5_s1:Z pgm_pp11_5_s1:1 7.167486e+00
2 pgm_pp11_5_s1:1 vs_17_11:A 1.000000e-03
*END

*D_NET pgm_pp11_5_s3 8.801766e-03
*CONN
*I lt_pp11_5_s3:Z O
*I vs_55_11:A I
*I vs_49_11:A I
*CAP
1 pgm_pp11_5_s3:1 8.801766e-03
*RES
1 lt_pp11_5_s3:Z pgm_pp11_5_s3:1 9.988086e+00
2 pgm_pp11_5_s3:1 vs_55_11:A 1.000000e-03
3 pgm_pp11_5_s3:1 vs_49_11:A 1.000000e-03
*END

*D_NET pgm_pp11_6_s0 8.751402e-03
*CONN
*I lt_pp11_6_s0:Z O
*I vs_13_11:A I
*I vs_10_11:A I
*CAP
1 pgm_pp11_6_s0:1 8.751402e-03
*RES
1 lt_pp11_6_s0:Z pgm_pp11_6_s0:1 9.930934e+00
2 pgm_pp11_6_s0:1 vs_13_11:A 1.000000e-03
3 pgm_pp11_6_s0:1 vs_10_11:A 1.000000e-03
*END

*D_NET pgm_pp11_6_s2 8.189264e-03
*CONN
*I lt_pp11_6_s2:Z O
*I vs_35_11:A I
*CAP
1 pgm_pp11_6_s2:1 8.189264e-03
*RES
1 lt_pp11_6_s2:Z pgm_pp11_6_s2:1 8.584733e+00
2 pgm_pp11_6_s2:1 vs_35_11:A 1.000000e-03
*END

*D_NET pgm_pp11_7_s0 8.659563e-03
*CONN
*I lt_pp11_7_s0:Z O
*I vs_2_11:A I
*CAP
1 pgm_pp11_7_s0:1 8.659563e-03
*RES
1 lt_pp11_7_s0:Z pgm_pp11_7_s0:1 9.826717e+00
2 pgm_pp11_7_s0:1 vs_2_11:A 1.000000e-03
*END

*D_NET pgm_pp11_7_s3 8.701039e-03
*CONN
*I lt_pp11_7_s3:Z O
*I vs_51_11:A I
*CAP
1 pgm_pp11_7_s3:1 8.701039e-03
*RES
1 lt_pp11_7_s3:Z pgm_pp11_7_s3:1 9.873783e+00
2 pgm_pp11_7_s3:1 vs_51_11:A 1.000000e-03
*END

*D_NET pgm_pp11_9_s0 2.254508e-02
*CONN
*I lt_pp11_9_s0:Z O
*I vs_15_11:A I
*I vs_12_11:A I
*I vs_9_11:A I
*I vs_0_11:A I
*CAP
1 pgm_pp11_9_s0:1 2.254508e-02
*RES
1 lt_pp11_9_s0:Z pgm_pp11_9_s0:1 2.558375e+01
2 pgm_pp11_9_s0:1 vs_15_11:A 1.000000e-03
3 pgm_pp11_9_s0:1 vs_12_11:A 1.000000e-03
4 pgm_pp11_9_s0:1 vs_9_11:A 1.000000e-03
5 pgm_pp11_9_s0:1 vs_0_11:A 1.000000e-03
*END

*D_NET pgm_pp11_9_s3 1.835200e-02
*CONN
*I lt_pp11_9_s3:Z O
*I vs_63_11:A I
*I vs_52_11:A I
*CAP
1 pgm_pp11_9_s3:1 1.835200e-02
*RES
1 lt_pp11_9_s3:Z pgm_pp11_9_s3:1 1.916479e+01
2 pgm_pp11_9_s3:1 vs_63_11:A 1.000000e-03
3 pgm_pp11_9_s3:1 vs_52_11:A 1.000000e-03
*END

*D_NET pgm_pp12_10_s2 1.527720e-02
*CONN
*I lt_pp12_10_s2:Z O
*I vs_44_12:A I
*I vs_34_12:A I
*CAP
1 pgm_pp12_10_s2:1 1.527720e-02
*RES
1 lt_pp12_10_s2:Z pgm_pp12_10_s2:1 1.465519e+01
2 pgm_pp12_10_s2:1 vs_44_12:A 1.000000e-03
3 pgm_pp12_10_s2:1 vs_34_12:A 1.000000e-03
*END

*D_NET pgm_pp12_10_s3 3.371393e-03
*CONN
*I lt_pp12_10_s3:Z O
*I vs_62_12:A I
*I vs_61_12:A I
*CAP
1 pgm_pp12_10_s3:1 3.371393e-03
*RES
1 lt_pp12_10_s3:Z pgm_pp12_10_s3:1 3.825797e+00
2 pgm_pp12_10_s3:1 vs_62_12:A 1.000000e-03
3 pgm_pp12_10_s3:1 vs_61_12:A 1.000000e-03
*END

*D_NET pgm_pp12_11_s0 1.524550e-02
*CONN
*I lt_pp12_11_s0:Z O
*I vs_3_12:A I
*CAP
1 pgm_pp12_11_s0:1 1.524550e-02
*RES
1 lt_pp12_11_s0:Z pgm_pp12_11_s0:1 1.544019e+01
2 pgm_pp12_11_s0:1 vs_3_12:A 1.000000e-03
*END

*D_NET pgm_pp12_11_s1 1.194800e-02
*CONN
*I lt_pp12_11_s1:Z O
*I vs_28_12:A I
*I vs_22_12:A I
*CAP
1 pgm_pp12_11_s1:1 1.194800e-02
*RES
1 lt_pp12_11_s1:Z pgm_pp12_11_s1:1 1.355838e+01
2 pgm_pp12_11_s1:1 vs_28_12:A 1.000000e-03
3 pgm_pp12_11_s1:1 vs_22_12:A 1.000000e-03
*END

*D_NET pgm_pp12_11_s2 1.365668e-02
*CONN
*I lt_pp12_11_s2:Z O
*I vs_39_12:A I
*I vs_37_12:A I
*CAP
1 pgm_pp12_11_s2:1 1.365668e-02
*RES
1 lt_pp12_11_s2:Z pgm_pp12_11_s2:1 1.334927e+01
2 pgm_pp12_11_s2:1 vs_39_12:A 1.000000e-03
3 pgm_pp12_11_s2:1 vs_37_12:A 1.000000e-03
*END

*D_NET pgm_pp12_12_s0 1.427361e-02
*CONN
*I lt_pp12_12_s0:Z O
*I vs_11_12:A I
*I vs_5_12:A I
*CAP
1 pgm_pp12_12_s0:1 1.427361e-02
*RES
1 lt_pp12_12_s0:Z pgm_pp12_12_s0:1 1.619744e+01
2 pgm_pp12_12_s0:1 vs_11_12:A 1.000000e-03
3 pgm_pp12_12_s0:1 vs_5_12:A 1.000000e-03
*END

*D_NET pgm_pp12_12_s1 2.144110e-02
*CONN
*I lt_pp12_12_s1:Z O
*I vs_26_12:A I
*I vs_16_12:A I
*CAP
1 pgm_pp12_12_s1:1 2.144110e-02
*RES
1 lt_pp12_12_s1:Z pgm_pp12_12_s1:1 2.275880e+01
2 pgm_pp12_12_s1:1 vs_26_12:A 1.000000e-03
3 pgm_pp12_12_s1:1 vs_16_12:A 1.000000e-03
*END

*D_NET pgm_pp12_12_s2 1.042201e-02
*CONN
*I lt_pp12_12_s2:Z O
*I vs_46_12:A I
*I vs_45_12:A I
*I vs_41_12:A I
*CAP
1 pgm_pp12_12_s2:1 1.042201e-02
*RES
1 lt_pp12_12_s2:Z pgm_pp12_12_s2:1 9.834200e+00
2 pgm_pp12_12_s2:1 vs_46_12:A 1.000000e-03
3 pgm_pp12_12_s2:1 vs_45_12:A 1.000000e-03
4 pgm_pp12_12_s2:1 vs_41_12:A 1.000000e-03
*END

*D_NET pgm_pp12_12_s3 2.126202e-02
*CONN
*I lt_pp12_12_s3:Z O
*I vs_55_12:A I
*I vs_51_12:A I
*I vs_48_12:A I
*CAP
1 pgm_pp12_12_s3:1 2.126202e-02
*RES
1 lt_pp12_12_s3:Z pgm_pp12_12_s3:1 2.212365e+01
2 pgm_pp12_12_s3:1 vs_55_12:A 1.000000e-03
3 pgm_pp12_12_s3:1 vs_51_12:A 1.000000e-03
4 pgm_pp12_12_s3:1 vs_48_12:A 1.000000e-03
*END

*D_NET pgm_pp12_3_s3 8.786953e-03
*CONN
*I lt_pp12_3_s3:Z O
*I vs_56_12:A I
*I vs_50_12:A I
*CAP
1 pgm_pp12_3_s3:1 8.786953e-03
*RES
1 lt_pp12_3_s3:Z pgm_pp12_3_s3:1 9.971277e+00
2 pgm_pp12_3_s3:1 vs_56_12:A 1.000000e-03
3 pgm_pp12_3_s3:1 vs_50_12:A 1.000000e-03
*END

*D_NET pgm_pp12_4_s1 1.358038e-02
*CONN
*I lt_pp12_4_s1:Z O
*I vs_31_12:A I
*CAP
1 pgm_pp12_4_s1:1 1.358038e-02
*RES
1 lt_pp12_4_s1:Z pgm_pp12_4_s1:1 1.541077e+01
2 pgm_pp12_4_s1:1 vs_31_12:A 1.000000e-03
*END

*D_NET pgm_pp12_5_s1 1.028008e-03
*CONN
*I lt_pp12_5_s1:Z O
*I vs_21_12:A I
*CAP
1 pgm_pp12_5_s1:1 1.028008e-03
*RES
1 lt_pp12_5_s1:Z pgm_pp12_5_s1:1 1.166565e+00
2 pgm_pp12_5_s1:1 vs_21_12:A 1.000000e-03
*END

*D_NET pgm_pp12_5_s2 7.406400e-03
*CONN
*I lt_pp12_5_s2:Z O
*I vs_33_12:A I
*CAP
1 pgm_pp12_5_s2:1 7.406400e-03
*RES
1 lt_pp12_5_s2:Z pgm_pp12_5_s2:1 8.404650e+00
2 pgm_pp12_5_s2:1 vs_33_12:A 1.000000e-03
*END

*D_NET pgm_pp12_6_s0 3.140314e-03
*CONN
*I lt_pp12_6_s0:Z O
*I vs_6_12:A I
*CAP
1 pgm_pp12_6_s0:1 3.140314e-03
*RES
1 lt_pp12_6_s0:Z pgm_pp12_6_s0:1 3.563572e+00
2 pgm_pp12_6_s0:1 vs_6_12:A 1.000000e-03
*END

*D_NET pgm_pp12_6_s1 5.294095e-03
*CONN
*I lt_pp12_6_s1:Z O
*I vs_27_12:A I
*CAP
1 pgm_pp12_6_s1:1 5.294095e-03
*RES
1 lt_pp12_6_s1:Z pgm_pp12_6_s1:1 6.007644e+00
2 pgm_pp12_6_s1:1 vs_27_12:A 1.000000e-03
*END

*D_NET pgm_pp12_9_s1 1.134068e-02
*CONN
*I lt_pp12_9_s1:Z O
*I vs_19_12:A I
*CAP
1 pgm_pp12_9_s1:1 1.134068e-02
*RES
1 lt_pp12_9_s1:Z pgm_pp12_9_s1:1 1.286920e+01
2 pgm_pp12_9_s1:1 vs_19_12:A 1.000000e-03
*END

*D_NET pgm_pp12_9_s3 1.940477e-03
*CONN
*I lt_pp12_9_s3:Z O
*I vs_58_12:A I
*CAP
1 pgm_pp12_9_s3:1 1.940477e-03
*RES
1 lt_pp12_9_s3:Z pgm_pp12_9_s3:1 2.202018e+00
2 pgm_pp12_9_s3:1 vs_58_12:A 1.000000e-03
*END

*D_NET pgm_pp13_0_s1 1.775166e-02
*CONN
*I lt_pp13_0_s1:Z O
*I vs_29_13:A I
*CAP
1 pgm_pp13_0_s1:1 1.775166e-02
*RES
1 lt_pp13_0_s1:Z pgm_pp13_0_s1:1 2.014427e+01
2 pgm_pp13_0_s1:1 vs_29_13:A 1.000000e-03
*END

*D_NET pgm_pp13_10_s0 2.112305e-03
*CONN
*I lt_pp13_10_s0:Z O
*I vs_12_13:A I
*I vs_11_13:A I
*CAP
1 pgm_pp13_10_s0:1 2.112305e-03
*RES
1 lt_pp13_10_s0:Z pgm_pp13_10_s0:1 2.397006e+00
2 pgm_pp13_10_s0:1 vs_12_13:A 1.000000e-03
3 pgm_pp13_10_s0:1 vs_11_13:A 1.000000e-03
*END

*D_NET pgm_pp13_10_s1 6.997567e-03
*CONN
*I lt_pp13_10_s1:Z O
*I vs_23_13:A I
*CAP
1 pgm_pp13_10_s1:1 6.997567e-03
*RES
1 lt_pp13_10_s1:Z pgm_pp13_10_s1:1 7.940713e+00
2 pgm_pp13_10_s1:1 vs_23_13:A 1.000000e-03
*END

*D_NET pgm_pp13_10_s2 5.812371e-03
*CONN
*I lt_pp13_10_s2:Z O
*I vs_43_13:A I
*I vs_41_13:A I
*CAP
1 pgm_pp13_10_s2:1 5.812371e-03
*RES
1 lt_pp13_10_s2:Z pgm_pp13_10_s2:1 5.211400e+00
2 pgm_pp13_10_s2:1 vs_43_13:A 1.000000e-03
3 pgm_pp13_10_s2:1 vs_41_13:A 1.000000e-03
*END

*D_NET pgm_pp13_10_s3 6.775237e-03
*CONN
*I lt_pp13_10_s3:Z O
*I vs_56_13:A I
*CAP
1 pgm_pp13_10_s3:1 6.775237e-03
*RES
1 lt_pp13_10_s3:Z pgm_pp13_10_s3:1 6.692162e+00
2 pgm_pp13_10_s3:1 vs_56_13:A 1.000000e-03
*END

*D_NET pgm_pp13_11_s0 6.413942e-03
*CONN
*I lt_pp13_11_s0:Z O
*I vs_9_13:A I
*CAP
1 pgm_pp13_11_s0:1 6.413942e-03
*RES
1 lt_pp13_11_s0:Z pgm_pp13_11_s0:1 7.278427e+00
2 pgm_pp13_11_s0:1 vs_9_13:A 1.000000e-03
*END

*D_NET pgm_pp13_11_s1 1.291084e-02
*CONN
*I lt_pp13_11_s1:Z O
*I vs_20_13:A I
*CAP
1 pgm_pp13_11_s1:1 1.291084e-02
*RES
1 lt_pp13_11_s1:Z pgm_pp13_11_s1:1 1.465099e+01
2 pgm_pp13_11_s1:1 vs_20_13:A 1.000000e-03
*END

*D_NET pgm_pp13_11_s2 8.943969e-03
*CONN
*I lt_pp13_11_s2:Z O
*I vs_42_13:A I
*I vs_40_13:A I
*CAP
1 pgm_pp13_11_s2:1 8.943969e-03
*RES
1 lt_pp13_11_s2:Z pgm_pp13_11_s2:1 1.014946e+01
2 pgm_pp13_11_s2:1 vs_42_13:A 1.000000e-03
3 pgm_pp13_11_s2:1 vs_40_13:A 1.000000e-03
*END

*D_NET pgm_pp13_11_s3 1.629408e-03
*CONN
*I lt_pp13_11_s3:Z O
*I vs_61_13:A I
*CAP
1 pgm_pp13_11_s3:1 1.629408e-03
*RES
1 lt_pp13_11_s3:Z pgm_pp13_11_s3:1 1.849023e+00
2 pgm_pp13_11_s3:1 vs_61_13:A 1.000000e-03
*END

*D_NET pgm_pp13_12_s0 7.412325e-03
*CONN
*I lt_pp13_12_s0:Z O
*I vs_13_13:A I
*I vs_10_13:A I
*CAP
1 pgm_pp13_12_s0:1 7.412325e-03
*RES
1 lt_pp13_12_s0:Z pgm_pp13_12_s0:1 8.411374e+00
2 pgm_pp13_12_s0:1 vs_13_13:A 1.000000e-03
3 pgm_pp13_12_s0:1 vs_10_13:A 1.000000e-03
*END

*D_NET pgm_pp13_12_s1 2.099270e-02
*CONN
*I lt_pp13_12_s1:Z O
*I vs_28_13:A I
*I vs_17_13:A I
*I vs_16_13:A I
*CAP
1 pgm_pp13_12_s1:1 2.099270e-02
*RES
1 lt_pp13_12_s1:Z pgm_pp13_12_s1:1 2.382214e+01
2 pgm_pp13_12_s1:1 vs_28_13:A 1.000000e-03
3 pgm_pp13_12_s1:1 vs_17_13:A 1.000000e-03
4 pgm_pp13_12_s1:1 vs_16_13:A 1.000000e-03
*END

*D_NET pgm_pp13_12_s2 2.157768e-02
*CONN
*I lt_pp13_12_s2:Z O
*I vs_47_13:A I
*I vs_37_13:A I
*I vs_35_13:A I
*I vs_34_13:A I
*CAP
1 pgm_pp13_12_s2:1 2.157768e-02
*RES
1 lt_pp13_12_s2:Z pgm_pp13_12_s2:1 2.204992e+01
2 pgm_pp13_12_s2:1 vs_47_13:A 1.000000e-03
3 pgm_pp13_12_s2:1 vs_37_13:A 1.000000e-03
4 pgm_pp13_12_s2:1 vs_35_13:A 1.000000e-03
5 pgm_pp13_12_s2:1 vs_34_13:A 1.000000e-03
*END

*D_NET pgm_pp13_12_s3 1.499753e-02
*CONN
*I lt_pp13_12_s3:Z O
*I vs_57_13:A I
*I vs_55_13:A I
*I vs_52_13:A I
*CAP
1 pgm_pp13_12_s3:1 1.499753e-02
*RES
1 lt_pp13_12_s3:Z pgm_pp13_12_s3:1 1.544676e+01
2 pgm_pp13_12_s3:1 vs_57_13:A 1.000000e-03
3 pgm_pp13_12_s3:1 vs_55_13:A 1.000000e-03
4 pgm_pp13_12_s3:1 vs_52_13:A 1.000000e-03
*END

*D_NET pgm_pp13_2_s3 2.462498e-03
*CONN
*I lt_pp13_2_s3:Z O
*I vs_50_13:A I
*CAP
1 pgm_pp13_2_s3:1 2.462498e-03
*RES
1 lt_pp13_2_s3:Z pgm_pp13_2_s3:1 1.078246e+00
2 pgm_pp13_2_s3:1 vs_50_13:A 1.000000e-03
*END

*D_NET pgm_pp13_4_s0 3.315105e-03
*CONN
*I lt_pp13_4_s0:Z O
*I vs_7_13:A I
*CAP
1 pgm_pp13_4_s0:1 3.315105e-03
*RES
1 lt_pp13_4_s0:Z pgm_pp13_4_s0:1 3.761921e+00
2 pgm_pp13_4_s0:1 vs_7_13:A 1.000000e-03
*END

*D_NET pgm_pp13_5_s3 7.174366e-03
*CONN
*I lt_pp13_5_s3:Z O
*I vs_49_13:A I
*CAP
1 pgm_pp13_5_s3:1 7.174366e-03
*RES
1 lt_pp13_5_s3:Z pgm_pp13_5_s3:1 7.088746e+00
2 pgm_pp13_5_s3:1 vs_49_13:A 1.000000e-03
*END

*D_NET pgm_pp13_6_s0 1.345002e-03
*CONN
*I lt_pp13_6_s0:Z O
*I vs_8_13:A I
*CAP
1 pgm_pp13_6_s0:1 1.345002e-03
*RES
1 lt_pp13_6_s0:Z pgm_pp13_6_s0:1 1.526284e+00
2 pgm_pp13_6_s0:1 vs_8_13:A 1.000000e-03
*END

*D_NET pgm_pp13_7_s1 5.391859e-04
*CONN
*I lt_pp13_7_s1:Z O
*I vs_24_13:A I
*CAP
1 pgm_pp13_7_s1:1 5.391859e-04
*RES
1 lt_pp13_7_s1:Z pgm_pp13_7_s1:1 6.118585e-01
2 pgm_pp13_7_s1:1 vs_24_13:A 1.000000e-03
*END

*D_NET pgm_pp13_9_s0 1.418474e-02
*CONN
*I lt_pp13_9_s0:Z O
*I vs_4_13:A I
*I vs_1_13:A I
*CAP
1 pgm_pp13_9_s0:1 1.418474e-02
*RES
1 lt_pp13_9_s0:Z pgm_pp13_9_s0:1 1.609659e+01
2 pgm_pp13_9_s0:1 vs_4_13:A 1.000000e-03
3 pgm_pp13_9_s0:1 vs_1_13:A 1.000000e-03
*END

*D_NET pgm_pp13_9_s2 1.392699e-02
*CONN
*I lt_pp13_9_s2:Z O
*I vs_32_13:A I
*CAP
1 pgm_pp13_9_s2:1 1.392699e-02
*RES
1 lt_pp13_9_s2:Z pgm_pp13_9_s2:1 1.580410e+01
2 pgm_pp13_9_s2:1 vs_32_13:A 1.000000e-03
*END

*D_NET pgm_pp13_9_s3 1.629408e-02
*CONN
*I lt_pp13_9_s3:Z O
*I vs_62_13:A I
*I vs_60_13:A I
*I vs_51_13:A I
*CAP
1 pgm_pp13_9_s3:1 1.629408e-02
*RES
1 lt_pp13_9_s3:Z pgm_pp13_9_s3:1 1.849023e+01
2 pgm_pp13_9_s3:1 vs_62_13:A 1.000000e-03
3 pgm_pp13_9_s3:1 vs_60_13:A 1.000000e-03
4 pgm_pp13_9_s3:1 vs_51_13:A 1.000000e-03
*END

*D_NET pgm_pp14_10_s0 1.694778e-02
*CONN
*I lt_pp14_10_s0:Z O
*I vs_6_14:A I
*I vs_1_14:A I
*CAP
1 pgm_pp14_10_s0:1 1.694778e-02
*RES
1 lt_pp14_10_s0:Z pgm_pp14_10_s0:1 1.794783e+01
2 pgm_pp14_10_s0:1 vs_6_14:A 1.000000e-03
3 pgm_pp14_10_s0:1 vs_1_14:A 1.000000e-03
*END

*D_NET pgm_pp14_10_s1 2.011772e-02
*CONN
*I lt_pp14_10_s1:Z O
*I vs_30_14:A I
*I vs_17_14:A I
*CAP
1 pgm_pp14_10_s1:1 2.011772e-02
*RES
1 lt_pp14_10_s1:Z pgm_pp14_10_s1:1 2.154502e+01
2 pgm_pp14_10_s1:1 vs_30_14:A 1.000000e-03
3 pgm_pp14_10_s1:1 vs_17_14:A 1.000000e-03
*END

*D_NET pgm_pp14_10_s3 1.032513e-02
*CONN
*I lt_pp14_10_s3:Z O
*I vs_56_14:A I
*I vs_54_14:A I
*CAP
1 pgm_pp14_10_s3:1 1.032513e-02
*RES
1 lt_pp14_10_s3:Z pgm_pp14_10_s3:1 1.000062e+01
2 pgm_pp14_10_s3:1 vs_56_14:A 1.000000e-03
3 pgm_pp14_10_s3:1 vs_54_14:A 1.000000e-03
*END

*D_NET pgm_pp14_11_s0 4.374235e-03
*CONN
*I lt_pp14_11_s0:Z O
*I vs_11_14:A I
*CAP
1 pgm_pp14_11_s0:1 4.374235e-03
*RES
1 lt_pp14_11_s0:Z pgm_pp14_11_s0:1 3.535610e+00
2 pgm_pp14_11_s0:1 vs_11_14:A 1.000000e-03
*END

*D_NET pgm_pp14_11_s1 1.105556e-02
*CONN
*I lt_pp14_11_s1:Z O
*I vs_27_14:A I
*I vs_23_14:A I
*CAP
1 pgm_pp14_11_s1:1 1.105556e-02
*RES
1 lt_pp14_11_s1:Z pgm_pp14_11_s1:1 1.039756e+01
2 pgm_pp14_11_s1:1 vs_27_14:A 1.000000e-03
3 pgm_pp14_11_s1:1 vs_23_14:A 1.000000e-03
*END

*D_NET pgm_pp14_11_s2 2.026984e-02
*CONN
*I lt_pp14_11_s2:Z O
*I vs_45_14:A I
*I vs_43_14:A I
*I vs_42_14:A I
*I vs_33_14:A I
*CAP
1 pgm_pp14_11_s2:1 2.026984e-02
*RES
1 lt_pp14_11_s2:Z pgm_pp14_11_s2:1 2.300185e+01
2 pgm_pp14_11_s2:1 vs_45_14:A 1.000000e-03
3 pgm_pp14_11_s2:1 vs_43_14:A 1.000000e-03
4 pgm_pp14_11_s2:1 vs_42_14:A 1.000000e-03
5 pgm_pp14_11_s2:1 vs_33_14:A 1.000000e-03
*END

*D_NET pgm_pp14_11_s3 1.623677e-02
*CONN
*I lt_pp14_11_s3:Z O
*I vs_50_14:A I
*CAP
1 pgm_pp14_11_s3:1 1.623677e-02
*RES
1 lt_pp14_11_s3:Z pgm_pp14_11_s3:1 1.714098e+01
2 pgm_pp14_11_s3:1 vs_50_14:A 1.000000e-03
*END

*D_NET pgm_pp14_12_s1 8.229992e-03
*CONN
*I lt_pp14_12_s1:Z O
*I vs_26_14:A I
*CAP
1 pgm_pp14_12_s1:1 8.229992e-03
*RES
1 lt_pp14_12_s1:Z pgm_pp14_12_s1:1 9.339247e+00
2 pgm_pp14_12_s1:1 vs_26_14:A 1.000000e-03
*END

*D_NET pgm_pp14_12_s2 1.197913e-02
*CONN
*I lt_pp14_12_s2:Z O
*I vs_38_14:A I
*CAP
1 pgm_pp14_12_s2:1 1.197913e-02
*RES
1 lt_pp14_12_s2:Z pgm_pp14_12_s2:1 1.216550e+01
2 pgm_pp14_12_s2:1 vs_38_14:A 1.000000e-03
*END

*D_NET pgm_pp14_12_s3 1.132648e-02
*CONN
*I lt_pp14_12_s3:Z O
*I vs_55_14:A I
*CAP
1 pgm_pp14_12_s3:1 1.132648e-02
*RES
1 lt_pp14_12_s3:Z pgm_pp14_12_s3:1 1.113693e+01
2 pgm_pp14_12_s3:1 vs_55_14:A 1.000000e-03
*END

*D_NET pgm_pp14_1_s0 2.571502e-03
*CONN
*I lt_pp14_1_s0:Z O
*I vs_0_14:A I
*CAP
1 pgm_pp14_1_s0:1 2.571502e-03
*RES
1 lt_pp14_1_s0:Z pgm_pp14_1_s0:1 2.918094e+00
2 pgm_pp14_1_s0:1 vs_0_14:A 1.000000e-03
*END

*D_NET pgm_pp14_3_s0 2.832207e-03
*CONN
*I lt_pp14_3_s0:Z O
*I vs_5_14:A I
*CAP
1 pgm_pp14_3_s0:1 2.832207e-03
*RES
1 lt_pp14_3_s0:Z pgm_pp14_3_s0:1 3.213938e+00
2 pgm_pp14_3_s0:1 vs_5_14:A 1.000000e-03
*END

*D_NET pgm_pp14_3_s1 1.021787e-02
*CONN
*I lt_pp14_3_s1:Z O
*I vs_25_14:A I
*I vs_20_14:A I
*CAP
1 pgm_pp14_3_s1:1 1.021787e-02
*RES
1 lt_pp14_3_s1:Z pgm_pp14_3_s1:1 1.159506e+01
2 pgm_pp14_3_s1:1 vs_25_14:A 1.000000e-03
3 pgm_pp14_3_s1:1 vs_20_14:A 1.000000e-03
*END

*D_NET pgm_pp14_3_s3 3.054399e-03
*CONN
*I lt_pp14_3_s3:Z O
*I vs_53_14:A I
*CAP
1 pgm_pp14_3_s3:1 3.054399e-03
*RES
1 lt_pp14_3_s3:Z pgm_pp14_3_s3:1 3.466078e+00
2 pgm_pp14_3_s3:1 vs_53_14:A 1.000000e-03
*END

*D_NET pgm_pp14_4_s0 5.833281e-03
*CONN
*I lt_pp14_4_s0:Z O
*I vs_9_14:A I
*CAP
1 pgm_pp14_4_s0:1 5.833281e-03
*RES
1 lt_pp14_4_s0:Z pgm_pp14_4_s0:1 6.619502e+00
2 pgm_pp14_4_s0:1 vs_9_14:A 1.000000e-03
*END

*D_NET pgm_pp14_4_s2 1.430620e-02
*CONN
*I lt_pp14_4_s2:Z O
*I vs_47_14:A I
*CAP
1 pgm_pp14_4_s2:1 1.430620e-02
*RES
1 lt_pp14_4_s2:Z pgm_pp14_4_s2:1 1.623442e+01
2 pgm_pp14_4_s2:1 vs_47_14:A 1.000000e-03
*END

*D_NET pgm_pp14_4_s3 6.236189e-03
*CONN
*I lt_pp14_4_s3:Z O
*I vs_48_14:A I
*CAP
1 pgm_pp14_4_s3:1 6.236189e-03
*RES
1 lt_pp14_4_s3:Z pgm_pp14_4_s3:1 7.076715e+00
2 pgm_pp14_4_s3:1 vs_48_14:A 1.000000e-03
*END

*D_NET pgm_pp14_6_s1 1.116885e-02
*CONN
*I lt_pp14_6_s1:Z O
*I vs_31_14:A I
*CAP
1 pgm_pp14_6_s1:1 1.116885e-02
*RES
1 lt_pp14_6_s1:Z pgm_pp14_6_s1:1 1.267421e+01
2 pgm_pp14_6_s1:1 vs_31_14:A 1.000000e-03
*END

*D_NET pgm_pp14_7_s3 9.420941e-04
*CONN
*I lt_pp14_7_s3:Z O
*I vs_57_14:A I
*CAP
1 pgm_pp14_7_s3:1 9.420941e-04
*RES
1 lt_pp14_7_s3:Z pgm_pp14_7_s3:1 1.069071e+00
2 pgm_pp14_7_s3:1 vs_57_14:A 1.000000e-03
*END

*D_NET pgm_pp14_8_s1 1.272532e-02
*CONN
*I lt_pp14_8_s1:Z O
*I vs_28_14:A I
*I vs_19_14:A I
*CAP
1 pgm_pp14_8_s1:1 1.272532e-02
*RES
1 lt_pp14_8_s1:Z pgm_pp14_8_s1:1 1.309991e+01
2 pgm_pp14_8_s1:1 vs_28_14:A 1.000000e-03
3 pgm_pp14_8_s1:1 vs_19_14:A 1.000000e-03
*END

*D_NET pgm_pp14_8_s3 9.773485e-03
*CONN
*I lt_pp14_8_s3:Z O
*I vs_58_14:A I
*I vs_51_14:A I
*CAP
1 pgm_pp14_8_s3:1 9.773485e-03
*RES
1 lt_pp14_8_s3:Z pgm_pp14_8_s3:1 1.109078e+01
2 pgm_pp14_8_s3:1 vs_58_14:A 1.000000e-03
3 pgm_pp14_8_s3:1 vs_51_14:A 1.000000e-03
*END

*D_NET pgm_pp14_9_s0 1.219376e-02
*CONN
*I lt_pp14_9_s0:Z O
*I vs_4_14:A I
*I vs_2_14:A I
*CAP
1 pgm_pp14_9_s0:1 1.219376e-02
*RES
1 lt_pp14_9_s0:Z pgm_pp14_9_s0:1 1.284100e+01
2 pgm_pp14_9_s0:1 vs_4_14:A 1.000000e-03
3 pgm_pp14_9_s0:1 vs_2_14:A 1.000000e-03
*END

*D_NET pgm_pp14_9_s2 7.889297e-03
*CONN
*I lt_pp14_9_s2:Z O
*I vs_44_14:A I
*I vs_40_14:A I
*CAP
1 pgm_pp14_9_s2:1 7.889297e-03
*RES
1 lt_pp14_9_s2:Z pgm_pp14_9_s2:1 8.952633e+00
2 pgm_pp14_9_s2:1 vs_44_14:A 1.000000e-03
3 pgm_pp14_9_s2:1 vs_40_14:A 1.000000e-03
*END

*D_NET pgm_pp14_9_s3 1.940477e-03
*CONN
*I lt_pp14_9_s3:Z O
*I vs_60_14:A I
*CAP
1 pgm_pp14_9_s3:1 1.940477e-03
*RES
1 lt_pp14_9_s3:Z pgm_pp14_9_s3:1 2.202018e+00
2 pgm_pp14_9_s3:1 vs_60_14:A 1.000000e-03
*END

*D_NET pgm_pp15_10_s0 1.841824e-02
*CONN
*I lt_pp15_10_s0:Z O
*I vs_15_15:A I
*I vs_3_15:A I
*CAP
1 pgm_pp15_10_s0:1 1.841824e-02
*RES
1 lt_pp15_10_s0:Z pgm_pp15_10_s0:1 2.090068e+01
2 pgm_pp15_10_s0:1 vs_15_15:A 1.000000e-03
3 pgm_pp15_10_s0:1 vs_3_15:A 1.000000e-03
*END

*D_NET pgm_pp15_10_s1 6.061398e-03
*CONN
*I lt_pp15_10_s1:Z O
*I vs_24_15:A I
*CAP
1 pgm_pp15_10_s1:1 6.061398e-03
*RES
1 lt_pp15_10_s1:Z pgm_pp15_10_s1:1 6.878366e+00
2 pgm_pp15_10_s1:1 vs_24_15:A 1.000000e-03
*END

*D_NET pgm_pp15_10_s3 2.475406e-02
*CONN
*I lt_pp15_10_s3:Z O
*I vs_63_15:A I
*I vs_59_15:A I
*I vs_52_15:A I
*I vs_48_15:A I
*CAP
1 pgm_pp15_10_s3:1 2.475406e-02
*RES
1 lt_pp15_10_s3:Z pgm_pp15_10_s3:1 2.604161e+01
2 pgm_pp15_10_s3:1 vs_63_15:A 1.000000e-03
3 pgm_pp15_10_s3:1 vs_59_15:A 1.000000e-03
4 pgm_pp15_10_s3:1 vs_52_15:A 1.000000e-03
5 pgm_pp15_10_s3:1 vs_48_15:A 1.000000e-03
*END

*D_NET pgm_pp15_11_s0 2.024838e-02
*CONN
*I lt_pp15_11_s0:Z O
*I vs_12_15:A I
*I vs_1_15:A I
*CAP
1 pgm_pp15_11_s0:1 2.024838e-02
*RES
1 lt_pp15_11_s0:Z pgm_pp15_11_s0:1 2.084101e+01
2 pgm_pp15_11_s0:1 vs_12_15:A 1.000000e-03
3 pgm_pp15_11_s0:1 vs_1_15:A 1.000000e-03
*END

*D_NET pgm_pp15_11_s1 2.838132e-03
*CONN
*I lt_pp15_11_s1:Z O
*I vs_28_15:A I
*CAP
1 pgm_pp15_11_s1:1 2.838132e-03
*RES
1 lt_pp15_11_s1:Z pgm_pp15_11_s1:1 3.220662e+00
2 pgm_pp15_11_s1:1 vs_28_15:A 1.000000e-03
*END

*D_NET pgm_pp15_11_s2 1.274197e-02
*CONN
*I lt_pp15_11_s2:Z O
*I vs_44_15:A I
*I vs_43_15:A I
*I vs_37_15:A I
*CAP
1 pgm_pp15_11_s2:1 1.274197e-02
*RES
1 lt_pp15_11_s2:Z pgm_pp15_11_s2:1 1.445936e+01
2 pgm_pp15_11_s2:1 vs_44_15:A 1.000000e-03
3 pgm_pp15_11_s2:1 vs_43_15:A 1.000000e-03
4 pgm_pp15_11_s2:1 vs_37_15:A 1.000000e-03
*END

*D_NET pgm_pp15_12_s0 2.791436e-02
*CONN
*I lt_pp15_12_s0:Z O
*I vs_10_15:A I
*I vs_7_15:A I
*I vs_0_15:A I
*CAP
1 pgm_pp15_12_s0:1 2.791436e-02
*RES
1 lt_pp15_12_s0:Z pgm_pp15_12_s0:1 2.438016e+01
2 pgm_pp15_12_s0:1 vs_10_15:A 1.000000e-03
3 pgm_pp15_12_s0:1 vs_7_15:A 1.000000e-03
4 pgm_pp15_12_s0:1 vs_0_15:A 1.000000e-03
*END

*D_NET pgm_pp15_12_s1 3.513596e-03
*CONN
*I lt_pp15_12_s1:Z O
*I vs_29_15:A I
*CAP
1 pgm_pp15_12_s1:1 3.513596e-03
*RES
1 lt_pp15_12_s1:Z pgm_pp15_12_s1:1 3.987166e+00
2 pgm_pp15_12_s1:1 vs_29_15:A 1.000000e-03
*END

*D_NET pgm_pp15_3_s3 1.671447e-02
*CONN
*I lt_pp15_3_s3:Z O
*I vs_62_15:A I
*I vs_58_15:A I
*I vs_53_15:A I
*CAP
1 pgm_pp15_3_s3:1 1.671447e-02
*RES
1 lt_pp15_3_s3:Z pgm_pp15_3_s3:1 1.813066e+01
2 pgm_pp15_3_s3:1 vs_62_15:A 1.000000e-03
3 pgm_pp15_3_s3:1 vs_58_15:A 1.000000e-03
4 pgm_pp15_3_s3:1 vs_53_15:A 1.000000e-03
*END

*D_NET pgm_pp15_4_s3 4.559380e-03
*CONN
*I lt_pp15_4_s3:Z O
*I vs_55_15:A I
*CAP
1 pgm_pp15_4_s3:1 4.559380e-03
*RES
1 lt_pp15_4_s3:Z pgm_pp15_4_s3:1 5.173903e+00
2 pgm_pp15_4_s3:1 vs_55_15:A 1.000000e-03
*END

*D_NET pgm_pp15_5_s1 8.564761e-03
*CONN
*I lt_pp15_5_s1:Z O
*I vs_16_15:A I
*CAP
1 pgm_pp15_5_s1:1 8.564761e-03
*RES
1 lt_pp15_5_s1:Z pgm_pp15_5_s1:1 9.719137e+00
2 pgm_pp15_5_s1:1 vs_16_15:A 1.000000e-03
*END

*D_NET pgm_pp15_5_s2 1.891002e-02
*CONN
*I lt_pp15_5_s2:Z O
*I vs_46_15:A I
*I vs_32_15:A I
*CAP
1 pgm_pp15_5_s2:1 1.891002e-02
*RES
1 lt_pp15_5_s2:Z pgm_pp15_5_s2:1 2.145875e+01
2 pgm_pp15_5_s2:1 vs_46_15:A 1.000000e-03
3 pgm_pp15_5_s2:1 vs_32_15:A 1.000000e-03
*END

*D_NET pgm_pp15_6_s1 5.557763e-03
*CONN
*I lt_pp15_6_s1:Z O
*I vs_22_15:A I
*I vs_20_15:A I
*CAP
1 pgm_pp15_6_s1:1 5.557763e-03
*RES
1 lt_pp15_6_s1:Z pgm_pp15_6_s1:1 6.306849e+00
2 pgm_pp15_6_s1:1 vs_22_15:A 1.000000e-03
3 pgm_pp15_6_s1:1 vs_20_15:A 1.000000e-03
*END

*D_NET pgm_pp15_6_s2 2.020466e-03
*CONN
*I lt_pp15_6_s2:Z O
*I vs_38_15:A I
*CAP
1 pgm_pp15_6_s2:1 2.020466e-03
*RES
1 lt_pp15_6_s2:Z pgm_pp15_6_s2:1 2.292789e+00
2 pgm_pp15_6_s2:1 vs_38_15:A 1.000000e-03
*END

*D_NET pgm_pp15_6_s3 8.712171e-03
*CONN
*I lt_pp15_6_s3:Z O
*I vs_49_15:A I
*CAP
1 pgm_pp15_6_s3:1 8.712171e-03
*RES
1 lt_pp15_6_s3:Z pgm_pp15_6_s3:1 7.193706e+00
2 pgm_pp15_6_s3:1 vs_49_15:A 1.000000e-03
*END

*D_NET pgm_pp15_8_s2 1.153325e-02
*CONN
*I lt_pp15_8_s2:Z O
*I vs_40_15:A I
*I vs_34_15:A I
*CAP
1 pgm_pp15_8_s2:1 1.153325e-02
*RES
1 lt_pp15_8_s2:Z pgm_pp15_8_s2:1 1.308772e+01
2 pgm_pp15_8_s2:1 vs_40_15:A 1.000000e-03
3 pgm_pp15_8_s2:1 vs_34_15:A 1.000000e-03
*END

*D_NET pgm_pp15_8_s3 1.075396e-02
*CONN
*I lt_pp15_8_s3:Z O
*I vs_50_15:A I
*CAP
1 pgm_pp15_8_s3:1 1.075396e-02
*RES
1 lt_pp15_8_s3:Z pgm_pp15_8_s3:1 1.120714e+01
2 pgm_pp15_8_s3:1 vs_50_15:A 1.000000e-03
*END

*D_NET pgm_pp15_9_s0 1.480687e-02
*CONN
*I lt_pp15_9_s0:Z O
*I vs_14_15:A I
*I vs_8_15:A I
*I vs_4_15:A I
*CAP
1 pgm_pp15_9_s0:1 1.480687e-02
*RES
1 lt_pp15_9_s0:Z pgm_pp15_9_s0:1 1.680258e+01
2 pgm_pp15_9_s0:1 vs_14_15:A 1.000000e-03
3 pgm_pp15_9_s0:1 vs_8_15:A 1.000000e-03
4 pgm_pp15_9_s0:1 vs_4_15:A 1.000000e-03
*END

*D_NET pgm_pp15_9_s1 1.358630e-02
*CONN
*I lt_pp15_9_s1:Z O
*I vs_17_15:A I
*CAP
1 pgm_pp15_9_s1:1 1.358630e-02
*RES
1 lt_pp15_9_s1:Z pgm_pp15_9_s1:1 1.541749e+01
2 pgm_pp15_9_s1:1 vs_17_15:A 1.000000e-03
*END

*D_NET pgm_pp15_9_s3 1.681286e-02
*CONN
*I lt_pp15_9_s3:Z O
*I vs_57_15:A I
*I vs_51_15:A I
*CAP
1 pgm_pp15_9_s3:1 1.681286e-02
*RES
1 lt_pp15_9_s3:Z pgm_pp15_9_s3:1 1.536447e+01
2 pgm_pp15_9_s3:1 vs_57_15:A 1.000000e-03
3 pgm_pp15_9_s3:1 vs_51_15:A 1.000000e-03
*END

*D_NET pgm_pp16_10_s0 1.796755e-02
*CONN
*I lt_pp16_10_s0:Z O
*I vs_12_16:A I
*I vs_8_16:A I
*I vs_7_16:A I
*I vs_4_16:A I
*I vs_3_16:A I
*I vs_1_16:A I
*CAP
1 pgm_pp16_10_s0:1 1.796755e-02
*RES
1 lt_pp16_10_s0:Z pgm_pp16_10_s0:1 1.777700e+01
2 pgm_pp16_10_s0:1 vs_12_16:A 1.000000e-03
3 pgm_pp16_10_s0:1 vs_8_16:A 1.000000e-03
4 pgm_pp16_10_s0:1 vs_7_16:A 1.000000e-03
5 pgm_pp16_10_s0:1 vs_4_16:A 1.000000e-03
6 pgm_pp16_10_s0:1 vs_3_16:A 1.000000e-03
7 pgm_pp16_10_s0:1 vs_1_16:A 1.000000e-03
*END

*D_NET pgm_pp16_10_s1 1.050081e-02
*CONN
*I lt_pp16_10_s1:Z O
*I vs_29_16:A I
*I vs_24_16:A I
*CAP
1 pgm_pp16_10_s1:1 1.050081e-02
*RES
1 lt_pp16_10_s1:Z pgm_pp16_10_s1:1 1.048794e+01
2 pgm_pp16_10_s1:1 vs_29_16:A 1.000000e-03
3 pgm_pp16_10_s1:1 vs_24_16:A 1.000000e-03
*END

*D_NET pgm_pp16_10_s2 1.242780e-02
*CONN
*I lt_pp16_10_s2:Z O
*I vs_38_16:A I
*I vs_36_16:A I
*CAP
1 pgm_pp16_10_s2:1 1.242780e-02
*RES
1 lt_pp16_10_s2:Z pgm_pp16_10_s2:1 1.310659e+01
2 pgm_pp16_10_s2:1 vs_38_16:A 1.000000e-03
3 pgm_pp16_10_s2:1 vs_36_16:A 1.000000e-03
*END

*D_NET pgm_pp16_10_s3 6.191750e-03
*CONN
*I lt_pp16_10_s3:Z O
*I vs_56_16:A I
*CAP
1 pgm_pp16_10_s3:1 6.191750e-03
*RES
1 lt_pp16_10_s3:Z pgm_pp16_10_s3:1 7.026287e+00
2 pgm_pp16_10_s3:1 vs_56_16:A 1.000000e-03
*END

*D_NET pgm_pp16_11_s0 1.761538e-02
*CONN
*I lt_pp16_11_s0:Z O
*I vs_0_16:A I
*CAP
1 pgm_pp16_11_s0:1 1.761538e-02
*RES
1 lt_pp16_11_s0:Z pgm_pp16_11_s0:1 1.998962e+01
2 pgm_pp16_11_s0:1 vs_0_16:A 1.000000e-03
*END

*D_NET pgm_pp16_11_s2 9.477229e-03
*CONN
*I lt_pp16_11_s2:Z O
*I vs_46_16:A I
*I vs_42_16:A I
*CAP
1 pgm_pp16_11_s2:1 9.477229e-03
*RES
1 lt_pp16_11_s2:Z pgm_pp16_11_s2:1 1.075459e+01
2 pgm_pp16_11_s2:1 vs_46_16:A 1.000000e-03
3 pgm_pp16_11_s2:1 vs_42_16:A 1.000000e-03
*END

*D_NET pgm_pp16_11_s3 1.838582e-02
*CONN
*I lt_pp16_11_s3:Z O
*I vs_62_16:A I
*I vs_52_16:A I
*I vs_50_16:A I
*CAP
1 pgm_pp16_11_s3:1 1.838582e-02
*RES
1 lt_pp16_11_s3:Z pgm_pp16_11_s3:1 1.901536e+01
2 pgm_pp16_11_s3:1 vs_62_16:A 1.000000e-03
3 pgm_pp16_11_s3:1 vs_52_16:A 1.000000e-03
4 pgm_pp16_11_s3:1 vs_50_16:A 1.000000e-03
*END

*D_NET pgm_pp16_12_s0 1.256364e-02
*CONN
*I lt_pp16_12_s0:Z O
*I vs_6_16:A I
*CAP
1 pgm_pp16_12_s0:1 1.256364e-02
*RES
1 lt_pp16_12_s0:Z pgm_pp16_12_s0:1 1.311675e+01
2 pgm_pp16_12_s0:1 vs_6_16:A 1.000000e-03
*END

*D_NET pgm_pp16_12_s1 2.375084e-02
*CONN
*I lt_pp16_12_s1:Z O
*I vs_30_16:A I
*I vs_25_16:A I
*I vs_16_16:A I
*CAP
1 pgm_pp16_12_s1:1 2.375084e-02
*RES
1 lt_pp16_12_s1:Z pgm_pp16_12_s1:1 2.695203e+01
2 pgm_pp16_12_s1:1 vs_30_16:A 1.000000e-03
3 pgm_pp16_12_s1:1 vs_25_16:A 1.000000e-03
4 pgm_pp16_12_s1:1 vs_16_16:A 1.000000e-03
*END

*D_NET pgm_pp16_12_s2 2.216441e-02
*CONN
*I lt_pp16_12_s2:Z O
*I vs_45_16:A I
*I vs_32_16:A I
*CAP
1 pgm_pp16_12_s2:1 2.216441e-02
*RES
1 lt_pp16_12_s2:Z pgm_pp16_12_s2:1 2.372358e+01
2 pgm_pp16_12_s2:1 vs_45_16:A 1.000000e-03
3 pgm_pp16_12_s2:1 vs_32_16:A 1.000000e-03
*END

*D_NET pgm_pp16_12_s3 8.621050e-03
*CONN
*I lt_pp16_12_s3:Z O
*I vs_60_16:A I
*I vs_57_16:A I
*CAP
1 pgm_pp16_12_s3:1 8.621050e-03
*RES
1 lt_pp16_12_s3:Z pgm_pp16_12_s3:1 9.783013e+00
2 pgm_pp16_12_s3:1 vs_60_16:A 1.000000e-03
3 pgm_pp16_12_s3:1 vs_57_16:A 1.000000e-03
*END

*D_NET pgm_pp16_5_s2 1.253755e-02
*CONN
*I lt_pp16_5_s2:Z O
*I vs_47_16:A I
*CAP
1 pgm_pp16_5_s2:1 1.253755e-02
*RES
1 lt_pp16_5_s2:Z pgm_pp16_5_s2:1 1.422739e+01
2 pgm_pp16_5_s2:1 vs_47_16:A 1.000000e-03
*END

*D_NET pgm_pp16_6_s2 2.423374e-03
*CONN
*I lt_pp16_6_s2:Z O
*I vs_41_16:A I
*CAP
1 pgm_pp16_6_s2:1 2.423374e-03
*RES
1 lt_pp16_6_s2:Z pgm_pp16_6_s2:1 2.750001e+00
2 pgm_pp16_6_s2:1 vs_41_16:A 1.000000e-03
*END

*D_NET pgm_pp16_6_s3 4.888224e-04
*CONN
*I lt_pp16_6_s3:Z O
*I vs_55_16:A I
*CAP
1 pgm_pp16_6_s3:1 4.888224e-04
*RES
1 lt_pp16_6_s3:Z pgm_pp16_6_s3:1 5.547069e-01
2 pgm_pp16_6_s3:1 vs_55_16:A 1.000000e-03
*END

*D_NET pgm_pp16_7_s0 8.739552e-03
*CONN
*I lt_pp16_7_s0:Z O
*I vs_15_16:A I
*I vs_10_16:A I
*CAP
1 pgm_pp16_7_s0:1 8.739552e-03
*RES
1 lt_pp16_7_s0:Z pgm_pp16_7_s0:1 9.917487e+00
2 pgm_pp16_7_s0:1 vs_15_16:A 1.000000e-03
3 pgm_pp16_7_s0:1 vs_10_16:A 1.000000e-03
*END

*D_NET pgm_pp16_8_s1 5.880682e-03
*CONN
*I lt_pp16_8_s1:Z O
*I vs_22_16:A I
*CAP
1 pgm_pp16_8_s1:1 5.880682e-03
*RES
1 lt_pp16_8_s1:Z pgm_pp16_8_s1:1 6.673292e+00
2 pgm_pp16_8_s1:1 vs_22_16:A 1.000000e-03
*END

*D_NET pgm_pp16_8_s3 9.012108e-03
*CONN
*I lt_pp16_8_s3:Z O
*I vs_51_16:A I
*CAP
1 pgm_pp16_8_s3:1 9.012108e-03
*RES
1 lt_pp16_8_s3:Z pgm_pp16_8_s3:1 1.022678e+01
2 pgm_pp16_8_s3:1 vs_51_16:A 1.000000e-03
*END

*D_NET pgm_pp16_9_s0 6.813888e-04
*CONN
*I lt_pp16_9_s0:Z O
*I vs_11_16:A I
*CAP
1 pgm_pp16_9_s0:1 6.813888e-04
*RES
1 lt_pp16_9_s0:Z pgm_pp16_9_s0:1 7.732278e-01
2 pgm_pp16_9_s0:1 vs_11_16:A 1.000000e-03
*END

*D_NET pgm_pp16_9_s1 1.800423e-02
*CONN
*I lt_pp16_9_s1:Z O
*I vs_28_16:A I
*I vs_23_16:A I
*I vs_17_16:A I
*CAP
1 pgm_pp16_9_s1:1 1.800423e-02
*RES
1 lt_pp16_9_s1:Z pgm_pp16_9_s1:1 1.972258e+01
2 pgm_pp16_9_s1:1 vs_28_16:A 1.000000e-03
3 pgm_pp16_9_s1:1 vs_23_16:A 1.000000e-03
4 pgm_pp16_9_s1:1 vs_17_16:A 1.000000e-03
*END

*D_NET pgm_pp16_9_s2 1.183246e-02
*CONN
*I lt_pp16_9_s2:Z O
*I vs_34_16:A I
*CAP
1 pgm_pp16_9_s2:1 1.183246e-02
*RES
1 lt_pp16_9_s2:Z pgm_pp16_9_s2:1 1.342727e+01
2 pgm_pp16_9_s2:1 vs_34_16:A 1.000000e-03
*END

*D_NET pgm_pp17_10_s2 1.611336e-02
*CONN
*I lt_pp17_10_s2:Z O
*I vs_38_17:A I
*I vs_35_17:A I
*CAP
1 pgm_pp17_10_s2:1 1.611336e-02
*RES
1 lt_pp17_10_s2:Z pgm_pp17_10_s2:1 1.828516e+01
2 pgm_pp17_10_s2:1 vs_38_17:A 1.000000e-03
3 pgm_pp17_10_s2:1 vs_35_17:A 1.000000e-03
*END

*D_NET pgm_pp17_10_s3 1.368406e-02
*CONN
*I lt_pp17_10_s3:Z O
*I vs_61_17:A I
*I vs_53_17:A I
*CAP
1 pgm_pp17_10_s3:1 1.368406e-02
*RES
1 lt_pp17_10_s3:Z pgm_pp17_10_s3:1 1.552843e+01
2 pgm_pp17_10_s3:1 vs_61_17:A 1.000000e-03
3 pgm_pp17_10_s3:1 vs_53_17:A 1.000000e-03
*END

*D_NET pgm_pp17_11_s0 1.838829e-02
*CONN
*I lt_pp17_11_s0:Z O
*I vs_12_17:A I
*I vs_9_17:A I
*I vs_4_17:A I
*I vs_2_17:A I
*CAP
1 pgm_pp17_11_s0:1 1.838829e-02
*RES
1 lt_pp17_11_s0:Z pgm_pp17_11_s0:1 1.964195e+01
2 pgm_pp17_11_s0:1 vs_12_17:A 1.000000e-03
3 pgm_pp17_11_s0:1 vs_9_17:A 1.000000e-03
4 pgm_pp17_11_s0:1 vs_4_17:A 1.000000e-03
5 pgm_pp17_11_s0:1 vs_2_17:A 1.000000e-03
*END

*D_NET pgm_pp17_11_s1 1.981953e-03
*CONN
*I lt_pp17_11_s1:Z O
*I vs_30_17:A I
*CAP
1 pgm_pp17_11_s1:1 1.981953e-03
*RES
1 lt_pp17_11_s1:Z pgm_pp17_11_s1:1 2.249084e+00
2 pgm_pp17_11_s1:1 vs_30_17:A 1.000000e-03
*END

*D_NET pgm_pp17_11_s2 3.916504e-03
*CONN
*I lt_pp17_11_s2:Z O
*I vs_46_17:A I
*I vs_45_17:A I
*I vs_44_17:A I
*CAP
1 pgm_pp17_11_s2:1 3.916504e-03
*RES
1 lt_pp17_11_s2:Z pgm_pp17_11_s2:1 4.444379e+00
2 pgm_pp17_11_s2:1 vs_46_17:A 1.000000e-03
3 pgm_pp17_11_s2:1 vs_45_17:A 1.000000e-03
4 pgm_pp17_11_s2:1 vs_44_17:A 1.000000e-03
*END

*D_NET pgm_pp17_12_s0 9.746273e-03
*CONN
*I lt_pp17_12_s0:Z O
*I vs_10_17:A I
*CAP
1 pgm_pp17_12_s0:1 9.746273e-03
*RES
1 lt_pp17_12_s0:Z pgm_pp17_12_s0:1 7.051672e+00
2 pgm_pp17_12_s0:1 vs_10_17:A 1.000000e-03
*END

*D_NET pgm_pp17_12_s1 1.865779e-02
*CONN
*I lt_pp17_12_s1:Z O
*I vs_26_17:A I
*I vs_19_17:A I
*CAP
1 pgm_pp17_12_s1:1 1.865779e-02
*RES
1 lt_pp17_12_s1:Z pgm_pp17_12_s1:1 1.817216e+01
2 pgm_pp17_12_s1:1 vs_26_17:A 1.000000e-03
3 pgm_pp17_12_s1:1 vs_19_17:A 1.000000e-03
*END

*D_NET pgm_pp17_12_s2 1.847500e-02
*CONN
*I lt_pp17_12_s2:Z O
*I vs_37_17:A I
*CAP
1 pgm_pp17_12_s2:1 1.847500e-02
*RES
1 lt_pp17_12_s2:Z pgm_pp17_12_s2:1 1.824109e+01
2 pgm_pp17_12_s2:1 vs_37_17:A 1.000000e-03
*END

*D_NET pgm_pp17_12_s3 2.193912e-02
*CONN
*I lt_pp17_12_s3:Z O
*I vs_59_17:A I
*I vs_48_17:A I
*CAP
1 pgm_pp17_12_s3:1 2.193912e-02
*RES
1 lt_pp17_12_s3:Z pgm_pp17_12_s3:1 2.246587e+01
2 pgm_pp17_12_s3:1 vs_59_17:A 1.000000e-03
3 pgm_pp17_12_s3:1 vs_48_17:A 1.000000e-03
*END

*D_NET pgm_pp17_1_s1 1.868783e-02
*CONN
*I lt_pp17_1_s1:Z O
*I vs_31_17:A I
*CAP
1 pgm_pp17_1_s1:1 1.868783e-02
*RES
1 lt_pp17_1_s1:Z pgm_pp17_1_s1:1 2.120661e+01
2 pgm_pp17_1_s1:1 vs_31_17:A 1.000000e-03
*END

*D_NET pgm_pp17_1_s2 9.089745e-03
*CONN
*I lt_pp17_1_s2:Z O
*I vs_39_17:A I
*CAP
1 pgm_pp17_1_s2:1 9.089745e-03
*RES
1 lt_pp17_1_s2:Z pgm_pp17_1_s2:1 8.598727e+00
2 pgm_pp17_1_s2:1 vs_39_17:A 1.000000e-03
*END

*D_NET pgm_pp17_3_s2 8.409242e-03
*CONN
*I lt_pp17_3_s2:Z O
*I vs_41_17:A I
*CAP
1 pgm_pp17_3_s2:1 8.409242e-03
*RES
1 lt_pp17_3_s2:Z pgm_pp17_3_s2:1 8.114463e+00
2 pgm_pp17_3_s2:1 vs_41_17:A 1.000000e-03
*END

*D_NET pgm_pp17_4_s0 4.977101e-03
*CONN
*I lt_pp17_4_s0:Z O
*I vs_1_17:A I
*CAP
1 pgm_pp17_4_s0:1 4.977101e-03
*RES
1 lt_pp17_4_s0:Z pgm_pp17_4_s0:1 5.647925e+00
2 pgm_pp17_4_s0:1 vs_1_17:A 1.000000e-03
*END

*D_NET pgm_pp17_4_s3 2.559652e-03
*CONN
*I lt_pp17_4_s3:Z O
*I vs_51_17:A I
*CAP
1 pgm_pp17_4_s3:1 2.559652e-03
*RES
1 lt_pp17_4_s3:Z pgm_pp17_4_s3:1 2.904647e+00
2 pgm_pp17_4_s3:1 vs_51_17:A 1.000000e-03
*END

*D_NET pgm_pp17_5_s0 7.133844e-03
*CONN
*I lt_pp17_5_s0:Z O
*I vs_11_17:A I
*CAP
1 pgm_pp17_5_s0:1 7.133844e-03
*RES
1 lt_pp17_5_s0:Z pgm_pp17_5_s0:1 8.095359e+00
2 pgm_pp17_5_s0:1 vs_11_17:A 1.000000e-03
*END

*D_NET pgm_pp17_6_s1 4.118672e-03
*CONN
*I lt_pp17_6_s1:Z O
*I vs_21_17:A I
*CAP
1 pgm_pp17_6_s1:1 4.118672e-03
*RES
1 lt_pp17_6_s1:Z pgm_pp17_6_s1:1 3.577380e+00
2 pgm_pp17_6_s1:1 vs_21_17:A 1.000000e-03
*END

*D_NET pgm_pp17_7_s1 8.917306e-04
*CONN
*I lt_pp17_7_s1:Z O
*I vs_25_17:A I
*CAP
1 pgm_pp17_7_s1:1 8.917306e-04
*RES
1 lt_pp17_7_s1:Z pgm_pp17_7_s1:1 1.011920e+00
2 pgm_pp17_7_s1:1 vs_25_17:A 1.000000e-03
*END

*D_NET pgm_pp17_9_s1 1.205466e-02
*CONN
*I lt_pp17_9_s1:Z O
*I vs_18_17:A I
*CAP
1 pgm_pp17_9_s1:1 1.205466e-02
*RES
1 lt_pp17_9_s1:Z pgm_pp17_9_s1:1 1.367941e+01
2 pgm_pp17_9_s1:1 vs_18_17:A 1.000000e-03
*END

*D_NET pgm_pp17_9_s2 2.085380e-02
*CONN
*I lt_pp17_9_s2:Z O
*I vs_47_17:A I
*I vs_43_17:A I
*I vs_36_17:A I
*CAP
1 pgm_pp17_9_s2:1 2.085380e-02
*RES
1 lt_pp17_9_s2:Z pgm_pp17_9_s2:1 1.995005e+01
2 pgm_pp17_9_s2:1 vs_47_17:A 1.000000e-03
3 pgm_pp17_9_s2:1 vs_43_17:A 1.000000e-03
4 pgm_pp17_9_s2:1 vs_36_17:A 1.000000e-03
*END

*D_NET pgm_pp17_9_s3 8.267925e-03
*CONN
*I lt_pp17_9_s3:Z O
*I vs_63_17:A I
*I vs_58_17:A I
*CAP
1 pgm_pp17_9_s3:1 8.267925e-03
*RES
1 lt_pp17_9_s3:Z pgm_pp17_9_s3:1 8.242058e+00
2 pgm_pp17_9_s3:1 vs_63_17:A 1.000000e-03
3 pgm_pp17_9_s3:1 vs_58_17:A 1.000000e-03
*END

*D_NET pgm_pp18_10_s0 8.741049e-03
*CONN
*I lt_pp18_10_s0:Z O
*I vs_7_18:A I
*CAP
1 pgm_pp18_10_s0:1 8.741049e-03
*RES
1 lt_pp18_10_s0:Z pgm_pp18_10_s0:1 8.490991e+00
2 pgm_pp18_10_s0:1 vs_7_18:A 1.000000e-03
*END

*D_NET pgm_pp18_10_s1 3.321030e-03
*CONN
*I lt_pp18_10_s1:Z O
*I vs_30_18:A I
*CAP
1 pgm_pp18_10_s1:1 3.321030e-03
*RES
1 lt_pp18_10_s1:Z pgm_pp18_10_s1:1 3.768645e+00
2 pgm_pp18_10_s1:1 vs_30_18:A 1.000000e-03
*END

*D_NET pgm_pp18_10_s2 1.497056e-02
*CONN
*I lt_pp18_10_s2:Z O
*I vs_42_18:A I
*I vs_34_18:A I
*CAP
1 pgm_pp18_10_s2:1 1.497056e-02
*RES
1 lt_pp18_10_s2:Z pgm_pp18_10_s2:1 1.628003e+01
2 pgm_pp18_10_s2:1 vs_42_18:A 1.000000e-03
3 pgm_pp18_10_s2:1 vs_34_18:A 1.000000e-03
*END

*D_NET pgm_pp18_10_s3 6.649924e-03
*CONN
*I lt_pp18_10_s3:Z O
*I vs_56_18:A I
*CAP
1 pgm_pp18_10_s3:1 6.649924e-03
*RES
1 lt_pp18_10_s3:Z pgm_pp18_10_s3:1 6.262000e+00
2 pgm_pp18_10_s3:1 vs_56_18:A 1.000000e-03
*END

*D_NET pgm_pp18_11_s0 2.319878e-02
*CONN
*I lt_pp18_11_s0:Z O
*I vs_13_18:A I
*I vs_10_18:A I
*I vs_0_18:A I
*CAP
1 pgm_pp18_11_s0:1 2.319878e-02
*RES
1 lt_pp18_11_s0:Z pgm_pp18_11_s0:1 2.504135e+01
2 pgm_pp18_11_s0:1 vs_13_18:A 1.000000e-03
3 pgm_pp18_11_s0:1 vs_10_18:A 1.000000e-03
4 pgm_pp18_11_s0:1 vs_0_18:A 1.000000e-03
*END

*D_NET pgm_pp18_11_s1 1.365801e-02
*CONN
*I lt_pp18_11_s1:Z O
*I vs_20_18:A I
*CAP
1 pgm_pp18_11_s1:1 1.365801e-02
*RES
1 lt_pp18_11_s1:Z pgm_pp18_11_s1:1 1.378271e+01
2 pgm_pp18_11_s1:1 vs_20_18:A 1.000000e-03
*END

*D_NET pgm_pp18_11_s2 2.467981e-03
*CONN
*I lt_pp18_11_s2:Z O
*I vs_45_18:A I
*CAP
1 pgm_pp18_11_s2:1 2.467981e-03
*RES
1 lt_pp18_11_s2:Z pgm_pp18_11_s2:1 9.404878e-01
2 pgm_pp18_11_s2:1 vs_45_18:A 1.000000e-03
*END

*D_NET pgm_pp18_11_s3 1.314134e-02
*CONN
*I lt_pp18_11_s3:Z O
*I vs_53_18:A I
*I vs_52_18:A I
*CAP
1 pgm_pp18_11_s3:1 1.314134e-02
*RES
1 lt_pp18_11_s3:Z pgm_pp18_11_s3:1 1.377232e+01
2 pgm_pp18_11_s3:1 vs_53_18:A 1.000000e-03
3 pgm_pp18_11_s3:1 vs_52_18:A 1.000000e-03
*END

*D_NET pgm_pp18_12_s2 1.501783e-02
*CONN
*I lt_pp18_12_s2:Z O
*I vs_44_18:A I
*I vs_40_18:A I
*I vs_38_18:A I
*CAP
1 pgm_pp18_12_s2:1 1.501783e-02
*RES
1 lt_pp18_12_s2:Z pgm_pp18_12_s2:1 1.532581e+01
2 pgm_pp18_12_s2:1 vs_44_18:A 1.000000e-03
3 pgm_pp18_12_s2:1 vs_40_18:A 1.000000e-03
4 pgm_pp18_12_s2:1 vs_38_18:A 1.000000e-03
*END

*D_NET pgm_pp18_12_s3 1.681951e-02
*CONN
*I lt_pp18_12_s3:Z O
*I vs_50_18:A I
*CAP
1 pgm_pp18_12_s3:1 1.681951e-02
*RES
1 lt_pp18_12_s3:Z pgm_pp18_12_s3:1 1.751430e+01
2 pgm_pp18_12_s3:1 vs_50_18:A 1.000000e-03
*END

*D_NET pgm_pp18_1_s2 8.808966e-03
*CONN
*I lt_pp18_1_s2:Z O
*I vs_39_18:A I
*CAP
1 pgm_pp18_1_s2:1 8.808966e-03
*RES
1 lt_pp18_1_s2:Z pgm_pp18_1_s2:1 8.496073e+00
2 pgm_pp18_1_s2:1 vs_39_18:A 1.000000e-03
*END

*D_NET pgm_pp18_3_s1 8.875830e-03
*CONN
*I lt_pp18_3_s1:Z O
*I vs_26_18:A I
*CAP
1 pgm_pp18_3_s1:1 8.875830e-03
*RES
1 lt_pp18_3_s1:Z pgm_pp18_3_s1:1 1.007213e+01
2 pgm_pp18_3_s1:1 vs_26_18:A 1.000000e-03
*END

*D_NET pgm_pp18_5_s3 1.048746e-02
*CONN
*I lt_pp18_5_s3:Z O
*I vs_62_18:A I
*CAP
1 pgm_pp18_5_s3:1 1.048746e-02
*RES
1 lt_pp18_5_s3:Z pgm_pp18_5_s3:1 1.190098e+01
2 pgm_pp18_5_s3:1 vs_62_18:A 1.000000e-03
*END

*D_NET pgm_pp18_7_s0 5.199293e-03
*CONN
*I lt_pp18_7_s0:Z O
*I vs_12_18:A I
*CAP
1 pgm_pp18_7_s0:1 5.199293e-03
*RES
1 lt_pp18_7_s0:Z pgm_pp18_7_s0:1 5.900064e+00
2 pgm_pp18_7_s0:1 vs_12_18:A 1.000000e-03
*END

*D_NET pgm_pp18_8_s2 1.267911e-02
*CONN
*I lt_pp18_8_s2:Z O
*I vs_33_18:A I
*CAP
1 pgm_pp18_8_s2:1 1.267911e-02
*RES
1 lt_pp18_8_s2:Z pgm_pp18_8_s2:1 1.247155e+01
2 pgm_pp18_8_s2:1 vs_33_18:A 1.000000e-03
*END

*D_NET pgm_pp18_9_s0 1.351816e-02
*CONN
*I lt_pp18_9_s0:Z O
*I vs_8_18:A I
*I vs_6_18:A I
*I vs_2_18:A I
*CAP
1 pgm_pp18_9_s0:1 1.351816e-02
*RES
1 lt_pp18_9_s0:Z pgm_pp18_9_s0:1 1.534017e+01
2 pgm_pp18_9_s0:1 vs_8_18:A 1.000000e-03
3 pgm_pp18_9_s0:1 vs_6_18:A 1.000000e-03
4 pgm_pp18_9_s0:1 vs_2_18:A 1.000000e-03
*END

*D_NET pgm_pp18_9_s1 9.160236e-03
*CONN
*I lt_pp18_9_s1:Z O
*I vs_31_18:A I
*I vs_28_18:A I
*I vs_25_18:A I
*CAP
1 pgm_pp18_9_s1:1 9.160236e-03
*RES
1 lt_pp18_9_s1:Z pgm_pp18_9_s1:1 1.039487e+01
2 pgm_pp18_9_s1:1 vs_31_18:A 1.000000e-03
3 pgm_pp18_9_s1:1 vs_28_18:A 1.000000e-03
4 pgm_pp18_9_s1:1 vs_25_18:A 1.000000e-03
*END

*D_NET pgm_pp18_9_s2 7.673030e-03
*CONN
*I lt_pp18_9_s2:Z O
*I vs_46_18:A I
*I vs_41_18:A I
*CAP
1 pgm_pp18_9_s2:1 7.673030e-03
*RES
1 lt_pp18_9_s2:Z pgm_pp18_9_s2:1 8.707217e+00
2 pgm_pp18_9_s2:1 vs_46_18:A 1.000000e-03
3 pgm_pp18_9_s2:1 vs_41_18:A 1.000000e-03
*END

*D_NET pgm_pp19_10_s0 2.036000e-02
*CONN
*I lt_pp19_10_s0:Z O
*I vs_15_19:A I
*I vs_11_19:A I
*I vs_3_19:A I
*CAP
1 pgm_pp19_10_s0:1 2.036000e-02
*RES
1 lt_pp19_10_s0:Z pgm_pp19_10_s0:1 1.990348e+01
2 pgm_pp19_10_s0:1 vs_15_19:A 1.000000e-03
3 pgm_pp19_10_s0:1 vs_11_19:A 1.000000e-03
4 pgm_pp19_10_s0:1 vs_3_19:A 1.000000e-03
*END

*D_NET pgm_pp19_10_s1 3.593585e-03
*CONN
*I lt_pp19_10_s1:Z O
*I vs_30_19:A I
*CAP
1 pgm_pp19_10_s1:1 3.593585e-03
*RES
1 lt_pp19_10_s1:Z pgm_pp19_10_s1:1 4.077936e+00
2 pgm_pp19_10_s1:1 vs_30_19:A 1.000000e-03
*END

*D_NET pgm_pp19_10_s2 1.465282e-02
*CONN
*I lt_pp19_10_s2:Z O
*I vs_33_19:A I
*CAP
1 pgm_pp19_10_s2:1 1.465282e-02
*RES
1 lt_pp19_10_s2:Z pgm_pp19_10_s2:1 1.662776e+01
2 pgm_pp19_10_s2:1 vs_33_19:A 1.000000e-03
*END

*D_NET pgm_pp19_10_s3 5.024502e-03
*CONN
*I lt_pp19_10_s3:Z O
*I vs_63_19:A I
*I vs_60_19:A I
*CAP
1 pgm_pp19_10_s3:1 5.024502e-03
*RES
1 lt_pp19_10_s3:Z pgm_pp19_10_s3:1 5.701715e+00
2 pgm_pp19_10_s3:1 vs_63_19:A 1.000000e-03
3 pgm_pp19_10_s3:1 vs_60_19:A 1.000000e-03
*END

*D_NET pgm_pp19_11_s0 2.079332e-02
*CONN
*I lt_pp19_11_s0:Z O
*I vs_14_19:A I
*I vs_13_19:A I
*I vs_9_19:A I
*I vs_7_19:A I
*I vs_0_19:A I
*CAP
1 pgm_pp19_11_s0:1 2.079332e-02
*RES
1 lt_pp19_11_s0:Z pgm_pp19_11_s0:1 2.331953e+01
2 pgm_pp19_11_s0:1 vs_14_19:A 1.000000e-03
3 pgm_pp19_11_s0:1 vs_13_19:A 1.000000e-03
4 pgm_pp19_11_s0:1 vs_9_19:A 1.000000e-03
5 pgm_pp19_11_s0:1 vs_7_19:A 1.000000e-03
6 pgm_pp19_11_s0:1 vs_0_19:A 1.000000e-03
*END

*D_NET pgm_pp19_11_s2 6.425793e-03
*CONN
*I lt_pp19_11_s2:Z O
*I vs_44_19:A I
*I vs_42_19:A I
*CAP
1 pgm_pp19_11_s2:1 6.425793e-03
*RES
1 lt_pp19_11_s2:Z pgm_pp19_11_s2:1 7.291874e+00
2 pgm_pp19_11_s2:1 vs_44_19:A 1.000000e-03
3 pgm_pp19_11_s2:1 vs_42_19:A 1.000000e-03
*END

*D_NET pgm_pp19_11_s3 4.460150e-03
*CONN
*I lt_pp19_11_s3:Z O
*I vs_59_19:A I
*CAP
1 pgm_pp19_11_s3:1 4.460150e-03
*RES
1 lt_pp19_11_s3:Z pgm_pp19_11_s3:1 3.633104e+00
2 pgm_pp19_11_s3:1 vs_59_19:A 1.000000e-03
*END

*D_NET pgm_pp19_12_s0 1.464884e-02
*CONN
*I lt_pp19_12_s0:Z O
*I vs_5_19:A I
*CAP
1 pgm_pp19_12_s0:1 1.464884e-02
*RES
1 lt_pp19_12_s0:Z pgm_pp19_12_s0:1 1.533902e+01
2 pgm_pp19_12_s0:1 vs_5_19:A 1.000000e-03
*END

*D_NET pgm_pp19_12_s1 6.916860e-03
*CONN
*I lt_pp19_12_s1:Z O
*I vs_27_19:A I
*CAP
1 pgm_pp19_12_s1:1 6.916860e-03
*RES
1 lt_pp19_12_s1:Z pgm_pp19_12_s1:1 5.701038e+00
2 pgm_pp19_12_s1:1 vs_27_19:A 1.000000e-03
*END

*D_NET pgm_pp19_12_s2 1.097257e-02
*CONN
*I lt_pp19_12_s2:Z O
*I vs_41_19:A I
*CAP
1 pgm_pp19_12_s2:1 1.097257e-02
*RES
1 lt_pp19_12_s2:Z pgm_pp19_12_s2:1 6.659156e+00
2 pgm_pp19_12_s2:1 vs_41_19:A 1.000000e-03
*END

*D_NET pgm_pp19_12_s3 7.784585e-03
*CONN
*I lt_pp19_12_s3:Z O
*I vs_62_19:A I
*I vs_58_19:A I
*CAP
1 pgm_pp19_12_s3:1 7.784585e-03
*RES
1 lt_pp19_12_s3:Z pgm_pp19_12_s3:1 7.549592e+00
2 pgm_pp19_12_s3:1 vs_62_19:A 1.000000e-03
3 pgm_pp19_12_s3:1 vs_58_19:A 1.000000e-03
*END

*D_NET pgm_pp19_7_s0 3.229190e-03
*CONN
*I lt_pp19_7_s0:Z O
*I vs_6_19:A I
*CAP
1 pgm_pp19_7_s0:1 3.229190e-03
*RES
1 lt_pp19_7_s0:Z pgm_pp19_7_s0:1 3.664427e+00
2 pgm_pp19_7_s0:1 vs_6_19:A 1.000000e-03
*END

*D_NET pgm_pp19_7_s1 9.625594e-03
*CONN
*I lt_pp19_7_s1:Z O
*I vs_26_19:A I
*I vs_21_19:A I
*I vs_20_19:A I
*CAP
1 pgm_pp19_7_s1:1 9.625594e-03
*RES
1 lt_pp19_7_s1:Z pgm_pp19_7_s1:1 9.294438e+00
2 pgm_pp19_7_s1:1 vs_26_19:A 1.000000e-03
3 pgm_pp19_7_s1:1 vs_21_19:A 1.000000e-03
4 pgm_pp19_7_s1:1 vs_20_19:A 1.000000e-03
*END

*D_NET pgm_pp19_9_s0 1.023166e-02
*CONN
*I lt_pp19_9_s0:Z O
*I vs_4_19:A I
*CAP
1 pgm_pp19_9_s0:1 1.023166e-02
*RES
1 lt_pp19_9_s0:Z pgm_pp19_9_s0:1 1.032649e+01
2 pgm_pp19_9_s0:1 vs_4_19:A 1.000000e-03
*END

*D_NET pgm_pp19_9_s1 1.287232e-02
*CONN
*I lt_pp19_9_s1:Z O
*I vs_18_19:A I
*CAP
1 pgm_pp19_9_s1:1 1.287232e-02
*RES
1 lt_pp19_9_s1:Z pgm_pp19_9_s1:1 1.460728e+01
2 pgm_pp19_9_s1:1 vs_18_19:A 1.000000e-03
*END

*D_NET pgm_pp19_9_s2 1.519497e-02
*CONN
*I lt_pp19_9_s2:Z O
*I vs_47_19:A I
*I vs_43_19:A I
*I vs_39_19:A I
*CAP
1 pgm_pp19_9_s2:1 1.519497e-02
*RES
1 lt_pp19_9_s2:Z pgm_pp19_9_s2:1 1.724298e+01
2 pgm_pp19_9_s2:1 vs_47_19:A 1.000000e-03
3 pgm_pp19_9_s2:1 vs_43_19:A 1.000000e-03
4 pgm_pp19_9_s2:1 vs_39_19:A 1.000000e-03
*END

*D_NET pgm_pp19_9_s3 8.023971e-03
*CONN
*I lt_pp19_9_s3:Z O
*I vs_57_19:A I
*I vs_55_19:A I
*I vs_54_19:A I
*CAP
1 pgm_pp19_9_s3:1 8.023971e-03
*RES
1 lt_pp19_9_s3:Z pgm_pp19_9_s3:1 6.124791e+00
2 pgm_pp19_9_s3:1 vs_57_19:A 1.000000e-03
3 pgm_pp19_9_s3:1 vs_55_19:A 1.000000e-03
4 pgm_pp19_9_s3:1 vs_54_19:A 1.000000e-03
*END

*D_NET pgm_pp1_10_s0 1.622890e-02
*CONN
*I lt_pp1_10_s0:Z O
*I vs_7_1:A I
*I vs_2_1:A I
*CAP
1 pgm_pp1_10_s0:1 1.622890e-02
*RES
1 lt_pp1_10_s0:Z pgm_pp1_10_s0:1 1.841627e+01
2 pgm_pp1_10_s0:1 vs_7_1:A 1.000000e-03
3 pgm_pp1_10_s0:1 vs_2_1:A 1.000000e-03
*END

*D_NET pgm_pp1_10_s1 1.548826e-02
*CONN
*I lt_pp1_10_s1:Z O
*I vs_24_1:A I
*I vs_19_1:A I
*I vs_18_1:A I
*CAP
1 pgm_pp1_10_s1:1 1.548826e-02
*RES
1 lt_pp1_10_s1:Z pgm_pp1_10_s1:1 1.757580e+01
2 pgm_pp1_10_s1:1 vs_24_1:A 1.000000e-03
3 pgm_pp1_10_s1:1 vs_19_1:A 1.000000e-03
4 pgm_pp1_10_s1:1 vs_18_1:A 1.000000e-03
*END

*D_NET pgm_pp1_10_s2 1.339308e-02
*CONN
*I lt_pp1_10_s2:Z O
*I vs_39_1:A I
*I vs_35_1:A I
*CAP
1 pgm_pp1_10_s2:1 1.339308e-02
*RES
1 lt_pp1_10_s2:Z pgm_pp1_10_s2:1 1.328756e+01
2 pgm_pp1_10_s2:1 vs_39_1:A 1.000000e-03
3 pgm_pp1_10_s2:1 vs_35_1:A 1.000000e-03
*END

*D_NET pgm_pp1_10_s3 1.885966e-02
*CONN
*I lt_pp1_10_s3:Z O
*I vs_63_1:A I
*I vs_56_1:A I
*I vs_53_1:A I
*I vs_52_1:A I
*CAP
1 pgm_pp1_10_s3:1 1.885966e-02
*RES
1 lt_pp1_10_s3:Z pgm_pp1_10_s3:1 2.140160e+01
2 pgm_pp1_10_s3:1 vs_63_1:A 1.000000e-03
3 pgm_pp1_10_s3:1 vs_56_1:A 1.000000e-03
4 pgm_pp1_10_s3:1 vs_53_1:A 1.000000e-03
5 pgm_pp1_10_s3:1 vs_52_1:A 1.000000e-03
*END

*D_NET pgm_pp1_11_s0 1.480378e-02
*CONN
*I lt_pp1_11_s0:Z O
*I vs_3_1:A I
*CAP
1 pgm_pp1_11_s0:1 1.480378e-02
*RES
1 lt_pp1_11_s0:Z pgm_pp1_11_s0:1 1.580280e+01
2 pgm_pp1_11_s0:1 vs_3_1:A 1.000000e-03
*END

*D_NET pgm_pp1_11_s1 4.894149e-03
*CONN
*I lt_pp1_11_s1:Z O
*I vs_30_1:A I
*I vs_28_1:A I
*CAP
1 pgm_pp1_11_s1:1 4.894149e-03
*RES
1 lt_pp1_11_s1:Z pgm_pp1_11_s1:1 5.553793e+00
2 pgm_pp1_11_s1:1 vs_30_1:A 1.000000e-03
3 pgm_pp1_11_s1:1 vs_28_1:A 1.000000e-03
*END

*D_NET pgm_pp1_12_s3 2.250807e-02
*CONN
*I lt_pp1_12_s3:Z O
*I vs_61_1:A I
*I vs_54_1:A I
*I vs_51_1:A I
*I vs_49_1:A I
*CAP
1 pgm_pp1_12_s3:1 2.250807e-02
*RES
1 lt_pp1_12_s3:Z pgm_pp1_12_s3:1 2.411355e+01
2 pgm_pp1_12_s3:1 vs_61_1:A 1.000000e-03
3 pgm_pp1_12_s3:1 vs_54_1:A 1.000000e-03
4 pgm_pp1_12_s3:1 vs_51_1:A 1.000000e-03
5 pgm_pp1_12_s3:1 vs_49_1:A 1.000000e-03
*END

*D_NET pgm_pp1_3_s1 1.220575e-03
*CONN
*I lt_pp1_3_s1:Z O
*I vs_20_1:A I
*CAP
1 pgm_pp1_3_s1:1 1.220575e-03
*RES
1 lt_pp1_3_s1:Z pgm_pp1_3_s1:1 1.385086e+00
2 pgm_pp1_3_s1:1 vs_20_1:A 1.000000e-03
*END

*D_NET pgm_pp1_4_s0 7.468614e-03
*CONN
*I lt_pp1_4_s0:Z O
*I vs_9_1:A I
*CAP
1 pgm_pp1_4_s0:1 7.468614e-03
*RES
1 lt_pp1_4_s0:Z pgm_pp1_4_s0:1 8.475249e+00
2 pgm_pp1_4_s0:1 vs_9_1:A 1.000000e-03
*END

*D_NET pgm_pp1_4_s1 9.480192e-04
*CONN
*I lt_pp1_4_s1:Z O
*I vs_21_1:A I
*CAP
1 pgm_pp1_4_s1:1 9.480192e-04
*RES
1 lt_pp1_4_s1:Z pgm_pp1_4_s1:1 1.075795e+00
2 pgm_pp1_4_s1:1 vs_21_1:A 1.000000e-03
*END

*D_NET pgm_pp1_4_s2 7.587116e-03
*CONN
*I lt_pp1_4_s2:Z O
*I vs_42_1:A I
*CAP
1 pgm_pp1_4_s2:1 7.587116e-03
*RES
1 lt_pp1_4_s2:Z pgm_pp1_4_s2:1 8.609723e+00
2 pgm_pp1_4_s2:1 vs_42_1:A 1.000000e-03
*END

*D_NET pgm_pp1_5_s0 6.912775e-03
*CONN
*I lt_pp1_5_s0:Z O
*I vs_11_1:A I
*CAP
1 pgm_pp1_5_s0:1 6.912775e-03
*RES
1 lt_pp1_5_s0:Z pgm_pp1_5_s0:1 6.503938e+00
2 pgm_pp1_5_s0:1 vs_11_1:A 1.000000e-03
*END

*D_NET pgm_pp1_5_s1 6.997567e-03
*CONN
*I lt_pp1_5_s1:Z O
*I vs_17_1:A I
*CAP
1 pgm_pp1_5_s1:1 6.997567e-03
*RES
1 lt_pp1_5_s1:Z pgm_pp1_5_s1:1 7.940713e+00
2 pgm_pp1_5_s1:1 vs_17_1:A 1.000000e-03
*END

*D_NET pgm_pp1_6_s2 1.298888e-02
*CONN
*I lt_pp1_6_s2:Z O
*I vs_32_1:A I
*CAP
1 pgm_pp1_6_s2:1 1.298888e-02
*RES
1 lt_pp1_6_s2:Z pgm_pp1_6_s2:1 1.277926e+01
2 pgm_pp1_6_s2:1 vs_32_1:A 1.000000e-03
*END

*D_NET pgm_pp1_7_s0 9.557219e-03
*CONN
*I lt_pp1_7_s0:Z O
*I vs_15_1:A I
*CAP
1 pgm_pp1_7_s0:1 9.557219e-03
*RES
1 lt_pp1_7_s0:Z pgm_pp1_7_s0:1 1.084536e+01
2 pgm_pp1_7_s0:1 vs_15_1:A 1.000000e-03
*END

*D_NET pgm_pp1_9_s1 6.493932e-03
*CONN
*I lt_pp1_9_s1:Z O
*I vs_22_1:A I
*CAP
1 pgm_pp1_9_s1:1 6.493932e-03
*RES
1 lt_pp1_9_s1:Z pgm_pp1_9_s1:1 7.369197e+00
2 pgm_pp1_9_s1:1 vs_22_1:A 1.000000e-03
*END

*D_NET pgm_pp1_9_s2 2.266804e-02
*CONN
*I lt_pp1_9_s2:Z O
*I vs_47_1:A I
*I vs_41_1:A I
*I vs_33_1:A I
*CAP
1 pgm_pp1_9_s2:1 2.266804e-02
*RES
1 lt_pp1_9_s2:Z pgm_pp1_9_s2:1 2.429510e+01
2 pgm_pp1_9_s2:1 vs_47_1:A 1.000000e-03
3 pgm_pp1_9_s2:1 vs_41_1:A 1.000000e-03
4 pgm_pp1_9_s2:1 vs_33_1:A 1.000000e-03
*END

*D_NET pgm_pp1_9_s3 2.918122e-03
*CONN
*I lt_pp1_9_s3:Z O
*I vs_60_1:A I
*CAP
1 pgm_pp1_9_s3:1 2.918122e-03
*RES
1 lt_pp1_9_s3:Z pgm_pp1_9_s3:1 3.311432e+00
2 pgm_pp1_9_s3:1 vs_60_1:A 1.000000e-03
*END

*D_NET pgm_pp20_0_s1 9.532052e-03
*CONN
*I lt_pp20_0_s1:Z O
*I vs_22_20:A I
*CAP
1 pgm_pp20_0_s1:1 9.532052e-03
*RES
1 lt_pp20_0_s1:Z pgm_pp20_0_s1:1 9.388608e+00
2 pgm_pp20_0_s1:1 vs_22_20:A 1.000000e-03
*END

*D_NET pgm_pp20_10_s1 1.834628e-02
*CONN
*I lt_pp20_10_s1:Z O
*I vs_26_20:A I
*I vs_17_20:A I
*CAP
1 pgm_pp20_10_s1:1 1.834628e-02
*RES
1 lt_pp20_10_s1:Z pgm_pp20_10_s1:1 1.767468e+01
2 pgm_pp20_10_s1:1 vs_26_20:A 1.000000e-03
3 pgm_pp20_10_s1:1 vs_17_20:A 1.000000e-03
*END

*D_NET pgm_pp20_10_s3 1.051235e-02
*CONN
*I lt_pp20_10_s3:Z O
*I vs_56_20:A I
*I vs_54_20:A I
*CAP
1 pgm_pp20_10_s3:1 1.051235e-02
*RES
1 lt_pp20_10_s3:Z pgm_pp20_10_s3:1 1.136491e+01
2 pgm_pp20_10_s3:1 vs_56_20:A 1.000000e-03
3 pgm_pp20_10_s3:1 vs_54_20:A 1.000000e-03
*END

*D_NET pgm_pp20_11_s0 9.670101e-03
*CONN
*I lt_pp20_11_s0:Z O
*I vs_7_20:A I
*CAP
1 pgm_pp20_11_s0:1 9.670101e-03
*RES
1 lt_pp20_11_s0:Z pgm_pp20_11_s0:1 1.012118e+01
2 pgm_pp20_11_s0:1 vs_7_20:A 1.000000e-03
*END

*D_NET pgm_pp20_11_s2 6.627858e-03
*CONN
*I lt_pp20_11_s2:Z O
*I vs_42_20:A I
*CAP
1 pgm_pp20_11_s2:1 6.627858e-03
*RES
1 lt_pp20_11_s2:Z pgm_pp20_11_s2:1 5.805021e+00
2 pgm_pp20_11_s2:1 vs_42_20:A 1.000000e-03
*END

*D_NET pgm_pp20_11_s3 9.368669e-03
*CONN
*I lt_pp20_11_s3:Z O
*I vs_63_20:A I
*I vs_61_20:A I
*I vs_59_20:A I
*CAP
1 pgm_pp20_11_s3:1 9.368669e-03
*RES
1 lt_pp20_11_s3:Z pgm_pp20_11_s3:1 9.059224e+00
2 pgm_pp20_11_s3:1 vs_63_20:A 1.000000e-03
3 pgm_pp20_11_s3:1 vs_61_20:A 1.000000e-03
4 pgm_pp20_11_s3:1 vs_59_20:A 1.000000e-03
*END

*D_NET pgm_pp20_12_s0 1.885124e-02
*CONN
*I lt_pp20_12_s0:Z O
*I vs_13_20:A I
*I vs_3_20:A I
*I vs_2_20:A I
*CAP
1 pgm_pp20_12_s0:1 1.885124e-02
*RES
1 lt_pp20_12_s0:Z pgm_pp20_12_s0:1 1.868544e+01
2 pgm_pp20_12_s0:1 vs_13_20:A 1.000000e-03
3 pgm_pp20_12_s0:1 vs_3_20:A 1.000000e-03
4 pgm_pp20_12_s0:1 vs_2_20:A 1.000000e-03
*END

*D_NET pgm_pp20_12_s1 1.753468e-02
*CONN
*I lt_pp20_12_s1:Z O
*I vs_21_20:A I
*I vs_20_20:A I
*I vs_19_20:A I
*CAP
1 pgm_pp20_12_s1:1 1.753468e-02
*RES
1 lt_pp20_12_s1:Z pgm_pp20_12_s1:1 1.774994e+01
2 pgm_pp20_12_s1:1 vs_21_20:A 1.000000e-03
3 pgm_pp20_12_s1:1 vs_20_20:A 1.000000e-03
4 pgm_pp20_12_s1:1 vs_19_20:A 1.000000e-03
*END

*D_NET pgm_pp20_12_s2 1.200787e-02
*CONN
*I lt_pp20_12_s2:Z O
*I vs_41_20:A I
*I vs_39_20:A I
*CAP
1 pgm_pp20_12_s2:1 1.200787e-02
*RES
1 lt_pp20_12_s2:Z pgm_pp20_12_s2:1 1.191016e+01
2 pgm_pp20_12_s2:1 vs_41_20:A 1.000000e-03
3 pgm_pp20_12_s2:1 vs_39_20:A 1.000000e-03
*END

*D_NET pgm_pp20_12_s3 1.822036e-02
*CONN
*I lt_pp20_12_s3:Z O
*I vs_49_20:A I
*CAP
1 pgm_pp20_12_s3:1 1.822036e-02
*RES
1 lt_pp20_12_s3:Z pgm_pp20_12_s3:1 1.895998e+01
2 pgm_pp20_12_s3:1 vs_49_20:A 1.000000e-03
*END

*D_NET pgm_pp20_1_s0 1.828492e-02
*CONN
*I lt_pp20_1_s0:Z O
*I vs_15_20:A I
*CAP
1 pgm_pp20_1_s0:1 1.828492e-02
*RES
1 lt_pp20_1_s0:Z pgm_pp20_1_s0:1 2.074940e+01
2 pgm_pp20_1_s0:1 vs_15_20:A 1.000000e-03
*END

*D_NET pgm_pp20_3_s0 7.717469e-03
*CONN
*I lt_pp20_3_s0:Z O
*I vs_9_20:A I
*CAP
1 pgm_pp20_3_s0:1 7.717469e-03
*RES
1 lt_pp20_3_s0:Z pgm_pp20_3_s0:1 8.757645e+00
2 pgm_pp20_3_s0:1 vs_9_20:A 1.000000e-03
*END

*D_NET pgm_pp20_3_s2 1.798706e-02
*CONN
*I lt_pp20_3_s2:Z O
*I vs_46_20:A I
*I vs_37_20:A I
*CAP
1 pgm_pp20_3_s2:1 1.798706e-02
*RES
1 lt_pp20_3_s2:Z pgm_pp20_3_s2:1 1.798114e+01
2 pgm_pp20_3_s2:1 vs_46_20:A 1.000000e-03
3 pgm_pp20_3_s2:1 vs_37_20:A 1.000000e-03
*END

*D_NET pgm_pp20_3_s3 1.170211e-03
*CONN
*I lt_pp20_3_s3:Z O
*I vs_51_20:A I
*CAP
1 pgm_pp20_3_s3:1 1.170211e-03
*RES
1 lt_pp20_3_s3:Z pgm_pp20_3_s3:1 1.327935e+00
2 pgm_pp20_3_s3:1 vs_51_20:A 1.000000e-03
*END

*D_NET pgm_pp20_4_s1 1.288833e-02
*CONN
*I lt_pp20_4_s1:Z O
*I vs_30_20:A I
*CAP
1 pgm_pp20_4_s1:1 1.288833e-02
*RES
1 lt_pp20_4_s1:Z pgm_pp20_4_s1:1 1.406113e+01
2 pgm_pp20_4_s1:1 vs_30_20:A 1.000000e-03
*END

*D_NET pgm_pp20_6_s2 8.210002e-03
*CONN
*I lt_pp20_6_s2:Z O
*I vs_44_20:A I
*CAP
1 pgm_pp20_6_s2:1 8.210002e-03
*RES
1 lt_pp20_6_s2:Z pgm_pp20_6_s2:1 8.608266e+00
2 pgm_pp20_6_s2:1 vs_44_20:A 1.000000e-03
*END

*D_NET pgm_pp20_7_s0 2.150819e-03
*CONN
*I lt_pp20_7_s0:Z O
*I vs_10_20:A I
*CAP
1 pgm_pp20_7_s0:1 2.150819e-03
*RES
1 lt_pp20_7_s0:Z pgm_pp20_7_s0:1 2.440710e+00
2 pgm_pp20_7_s0:1 vs_10_20:A 1.000000e-03
*END

*D_NET pgm_pp20_8_s1 2.832207e-03
*CONN
*I lt_pp20_8_s1:Z O
*I vs_24_20:A I
*CAP
1 pgm_pp20_8_s1:1 2.832207e-03
*RES
1 lt_pp20_8_s1:Z pgm_pp20_8_s1:1 3.213938e+00
2 pgm_pp20_8_s1:1 vs_24_20:A 1.000000e-03
*END

*D_NET pgm_pp20_9_s0 1.863344e-02
*CONN
*I lt_pp20_9_s0:Z O
*I vs_14_20:A I
*I vs_12_20:A I
*I vs_1_20:A I
*CAP
1 pgm_pp20_9_s0:1 1.863344e-02
*RES
1 lt_pp20_9_s0:Z pgm_pp20_9_s0:1 1.947257e+01
2 pgm_pp20_9_s0:1 vs_14_20:A 1.000000e-03
3 pgm_pp20_9_s0:1 vs_12_20:A 1.000000e-03
4 pgm_pp20_9_s0:1 vs_1_20:A 1.000000e-03
*END

*D_NET pgm_pp20_9_s1 2.974410e-03
*CONN
*I lt_pp20_9_s1:Z O
*I vs_28_20:A I
*CAP
1 pgm_pp20_9_s1:1 2.974410e-03
*RES
1 lt_pp20_9_s1:Z pgm_pp20_9_s1:1 3.375307e+00
2 pgm_pp20_9_s1:1 vs_28_20:A 1.000000e-03
*END

*D_NET pgm_pp20_9_s3 1.534606e-02
*CONN
*I lt_pp20_9_s3:Z O
*I vs_62_20:A I
*I vs_60_20:A I
*I vs_57_20:A I
*I vs_53_20:A I
*CAP
1 pgm_pp20_9_s3:1 1.534606e-02
*RES
1 lt_pp20_9_s3:Z pgm_pp20_9_s3:1 1.741443e+01
2 pgm_pp20_9_s3:1 vs_62_20:A 1.000000e-03
3 pgm_pp20_9_s3:1 vs_60_20:A 1.000000e-03
4 pgm_pp20_9_s3:1 vs_57_20:A 1.000000e-03
5 pgm_pp20_9_s3:1 vs_53_20:A 1.000000e-03
*END

*D_NET pgm_pp21_0_s0 2.003876e-02
*CONN
*I lt_pp21_0_s0:Z O
*I vs_15_21:A I
*I vs_13_21:A I
*I vs_9_21:A I
*I vs_6_21:A I
*I vs_5_21:A I
*I vs_1_21:A I
*I vs_0_21:A I
*CAP
1 pgm_pp21_0_s0:1 2.003876e-02
*RES
1 lt_pp21_0_s0:Z pgm_pp21_0_s0:1 2.273962e+01
2 pgm_pp21_0_s0:1 vs_15_21:A 1.000000e-03
3 pgm_pp21_0_s0:1 vs_13_21:A 1.000000e-03
4 pgm_pp21_0_s0:1 vs_9_21:A 1.000000e-03
5 pgm_pp21_0_s0:1 vs_6_21:A 1.000000e-03
6 pgm_pp21_0_s0:1 vs_5_21:A 1.000000e-03
7 pgm_pp21_0_s0:1 vs_1_21:A 1.000000e-03
8 pgm_pp21_0_s0:1 vs_0_21:A 1.000000e-03
*END

*D_NET pgm_pp21_0_s1 2.110231e-02
*CONN
*I lt_pp21_0_s1:Z O
*I vs_31_21:A I
*I vs_30_21:A I
*I vs_28_21:A I
*I vs_27_21:A I
*I vs_24_21:A I
*I vs_23_21:A I
*I vs_22_21:A I
*I vs_21_21:A I
*I vs_18_21:A I
*I vs_17_21:A I
*I vs_16_21:A I
*CAP
1 pgm_pp21_0_s1:1 2.110231e-02
*RES
1 lt_pp21_0_s1:Z pgm_pp21_0_s1:1 2.394653e+01
2 pgm_pp21_0_s1:1 vs_31_21:A 1.000000e-03
3 pgm_pp21_0_s1:1 vs_30_21:A 1.000000e-03
4 pgm_pp21_0_s1:1 vs_28_21:A 1.000000e-03
5 pgm_pp21_0_s1:1 vs_27_21:A 1.000000e-03
6 pgm_pp21_0_s1:1 vs_24_21:A 1.000000e-03
7 pgm_pp21_0_s1:1 vs_23_21:A 1.000000e-03
8 pgm_pp21_0_s1:1 vs_22_21:A 1.000000e-03
9 pgm_pp21_0_s1:1 vs_21_21:A 1.000000e-03
10 pgm_pp21_0_s1:1 vs_18_21:A 1.000000e-03
11 pgm_pp21_0_s1:1 vs_17_21:A 1.000000e-03
12 pgm_pp21_0_s1:1 vs_16_21:A 1.000000e-03
*END

*D_NET pgm_pp21_0_s2 1.868783e-02
*CONN
*I lt_pp21_0_s2:Z O
*I vs_47_21:A I
*I vs_39_21:A I
*I vs_38_21:A I
*I vs_36_21:A I
*I vs_34_21:A I
*I vs_33_21:A I
*CAP
1 pgm_pp21_0_s2:1 1.868783e-02
*RES
1 lt_pp21_0_s2:Z pgm_pp21_0_s2:1 2.120661e+01
2 pgm_pp21_0_s2:1 vs_47_21:A 1.000000e-03
3 pgm_pp21_0_s2:1 vs_39_21:A 1.000000e-03
4 pgm_pp21_0_s2:1 vs_38_21:A 1.000000e-03
5 pgm_pp21_0_s2:1 vs_36_21:A 1.000000e-03
6 pgm_pp21_0_s2:1 vs_34_21:A 1.000000e-03
7 pgm_pp21_0_s2:1 vs_33_21:A 1.000000e-03
*END

*D_NET pgm_pp21_0_s3 1.874412e-02
*CONN
*I lt_pp21_0_s3:Z O
*I vs_62_21:A I
*I vs_61_21:A I
*I vs_56_21:A I
*I vs_53_21:A I
*I vs_50_21:A I
*I vs_48_21:A I
*CAP
1 pgm_pp21_0_s3:1 1.874412e-02
*RES
1 lt_pp21_0_s3:Z pgm_pp21_0_s3:1 2.127049e+01
2 pgm_pp21_0_s3:1 vs_62_21:A 1.000000e-03
3 pgm_pp21_0_s3:1 vs_61_21:A 1.000000e-03
4 pgm_pp21_0_s3:1 vs_56_21:A 1.000000e-03
5 pgm_pp21_0_s3:1 vs_53_21:A 1.000000e-03
6 pgm_pp21_0_s3:1 vs_50_21:A 1.000000e-03
7 pgm_pp21_0_s3:1 vs_48_21:A 1.000000e-03
*END

*D_NET pgm_pp2_10_s0 1.988626e-03
*CONN
*I lt_pp2_10_s0:Z O
*I vs_12_2:A I
*CAP
1 pgm_pp2_10_s0:1 1.988626e-03
*RES
1 lt_pp2_10_s0:Z pgm_pp2_10_s0:1 1.548360e+00
2 pgm_pp2_10_s0:1 vs_12_2:A 1.000000e-03
*END

*D_NET pgm_pp2_10_s3 5.936970e-03
*CONN
*I lt_pp2_10_s3:Z O
*I vs_57_2:A I
*CAP
1 pgm_pp2_10_s3:1 5.936970e-03
*RES
1 lt_pp2_10_s3:Z pgm_pp2_10_s3:1 6.737167e+00
2 pgm_pp2_10_s3:1 vs_57_2:A 1.000000e-03
*END

*D_NET pgm_pp2_11_s0 1.572115e-02
*CONN
*I lt_pp2_11_s0:Z O
*I vs_15_2:A I
*I vs_7_2:A I
*CAP
1 pgm_pp2_11_s0:1 1.572115e-02
*RES
1 lt_pp2_11_s0:Z pgm_pp2_11_s0:1 1.554800e+01
2 pgm_pp2_11_s0:1 vs_15_2:A 1.000000e-03
3 pgm_pp2_11_s0:1 vs_7_2:A 1.000000e-03
*END

*D_NET pgm_pp2_11_s1 2.838132e-03
*CONN
*I lt_pp2_11_s1:Z O
*I vs_28_2:A I
*CAP
1 pgm_pp2_11_s1:1 2.838132e-03
*RES
1 lt_pp2_11_s1:Z pgm_pp2_11_s1:1 3.220662e+00
2 pgm_pp2_11_s1:1 vs_28_2:A 1.000000e-03
*END

*D_NET pgm_pp2_11_s2 2.081791e-02
*CONN
*I lt_pp2_11_s2:Z O
*I vs_46_2:A I
*I vs_32_2:A I
*CAP
1 pgm_pp2_11_s2:1 2.081791e-02
*RES
1 lt_pp2_11_s2:Z pgm_pp2_11_s2:1 2.362379e+01
2 pgm_pp2_11_s2:1 vs_46_2:A 1.000000e-03
3 pgm_pp2_11_s2:1 vs_32_2:A 1.000000e-03
*END

*D_NET pgm_pp2_11_s3 1.493665e-02
*CONN
*I lt_pp2_11_s3:Z O
*I vs_58_2:A I
*I vs_51_2:A I
*CAP
1 pgm_pp2_11_s3:1 1.493665e-02
*RES
1 lt_pp2_11_s3:Z pgm_pp2_11_s3:1 1.580960e+01
2 pgm_pp2_11_s3:1 vs_58_2:A 1.000000e-03
3 pgm_pp2_11_s3:1 vs_51_2:A 1.000000e-03
*END

*D_NET pgm_pp2_12_s0 1.002636e-02
*CONN
*I lt_pp2_12_s0:Z O
*I vs_8_2:A I
*CAP
1 pgm_pp2_12_s0:1 1.002636e-02
*RES
1 lt_pp2_12_s0:Z pgm_pp2_12_s0:1 9.805557e+00
2 pgm_pp2_12_s0:1 vs_8_2:A 1.000000e-03
*END

*D_NET pgm_pp2_12_s1 1.686660e-02
*CONN
*I lt_pp2_12_s1:Z O
*I vs_29_2:A I
*I vs_20_2:A I
*CAP
1 pgm_pp2_12_s1:1 1.686660e-02
*RES
1 lt_pp2_12_s1:Z pgm_pp2_12_s1:1 1.843162e+01
2 pgm_pp2_12_s1:1 vs_29_2:A 1.000000e-03
3 pgm_pp2_12_s1:1 vs_20_2:A 1.000000e-03
*END

*D_NET pgm_pp2_12_s2 2.282046e-02
*CONN
*I lt_pp2_12_s2:Z O
*I vs_47_2:A I
*I vs_34_2:A I
*CAP
1 pgm_pp2_12_s2:1 2.282046e-02
*RES
1 lt_pp2_12_s2:Z pgm_pp2_12_s2:1 2.490000e+01
2 pgm_pp2_12_s2:1 vs_47_2:A 1.000000e-03
3 pgm_pp2_12_s2:1 vs_34_2:A 1.000000e-03
*END

*D_NET pgm_pp2_12_s3 1.558456e-02
*CONN
*I lt_pp2_12_s3:Z O
*I vs_59_2:A I
*I vs_53_2:A I
*CAP
1 pgm_pp2_12_s3:1 1.558456e-02
*RES
1 lt_pp2_12_s3:Z pgm_pp2_12_s3:1 1.625689e+01
2 pgm_pp2_12_s3:1 vs_59_2:A 1.000000e-03
3 pgm_pp2_12_s3:1 vs_53_2:A 1.000000e-03
*END

*D_NET pgm_pp2_5_s0 5.157817e-03
*CONN
*I lt_pp2_5_s0:Z O
*I vs_2_2:A I
*CAP
1 pgm_pp2_5_s0:1 5.157817e-03
*RES
1 lt_pp2_5_s0:Z pgm_pp2_5_s0:1 5.852998e+00
2 pgm_pp2_5_s0:1 vs_2_2:A 1.000000e-03
*END

*D_NET pgm_pp2_5_s3 2.826282e-03
*CONN
*I lt_pp2_5_s3:Z O
*I vs_56_2:A I
*CAP
1 pgm_pp2_5_s3:1 2.826282e-03
*RES
1 lt_pp2_5_s3:Z pgm_pp2_5_s3:1 3.207214e+00
2 pgm_pp2_5_s3:1 vs_56_2:A 1.000000e-03
*END

*D_NET pgm_pp2_7_s0 4.340899e-03
*CONN
*I lt_pp2_7_s0:Z O
*I vs_11_2:A I
*CAP
1 pgm_pp2_7_s0:1 4.340899e-03
*RES
1 lt_pp2_7_s0:Z pgm_pp2_7_s0:1 4.217677e+00
2 pgm_pp2_7_s0:1 vs_11_2:A 1.000000e-03
*END

*D_NET pgm_pp2_8_s1 3.632099e-03
*CONN
*I lt_pp2_8_s1:Z O
*I vs_23_2:A I
*CAP
1 pgm_pp2_8_s1:1 3.632099e-03
*RES
1 lt_pp2_8_s1:Z pgm_pp2_8_s1:1 4.121640e+00
2 pgm_pp2_8_s1:1 vs_23_2:A 1.000000e-03
*END

*D_NET pgm_pp2_8_s2 6.307290e-03
*CONN
*I lt_pp2_8_s2:Z O
*I vs_42_2:A I
*I vs_40_2:A I
*CAP
1 pgm_pp2_8_s2:1 6.307290e-03
*RES
1 lt_pp2_8_s2:Z pgm_pp2_8_s2:1 7.157400e+00
2 pgm_pp2_8_s2:1 vs_42_2:A 1.000000e-03
3 pgm_pp2_8_s2:1 vs_40_2:A 1.000000e-03
*END

*D_NET pgm_pp2_8_s3 1.170211e-02
*CONN
*I lt_pp2_8_s3:Z O
*I vs_49_2:A I
*CAP
1 pgm_pp2_8_s3:1 1.170211e-02
*RES
1 lt_pp2_8_s3:Z pgm_pp2_8_s3:1 1.327935e+01
2 pgm_pp2_8_s3:1 vs_49_2:A 1.000000e-03
*END

*D_NET pgm_pp2_9_s0 7.542678e-03
*CONN
*I lt_pp2_9_s0:Z O
*I vs_6_2:A I
*CAP
1 pgm_pp2_9_s0:1 7.542678e-03
*RES
1 lt_pp2_9_s0:Z pgm_pp2_9_s0:1 8.559296e+00
2 pgm_pp2_9_s0:1 vs_6_2:A 1.000000e-03
*END

*D_NET pgm_pp2_9_s1 1.638296e-02
*CONN
*I lt_pp2_9_s1:Z O
*I vs_18_2:A I
*I vs_16_2:A I
*CAP
1 pgm_pp2_9_s1:1 1.638296e-02
*RES
1 lt_pp2_9_s1:Z pgm_pp2_9_s1:1 1.859109e+01
2 pgm_pp2_9_s1:1 vs_18_2:A 1.000000e-03
3 pgm_pp2_9_s1:1 vs_16_2:A 1.000000e-03
*END

*D_NET pgm_pp3_10_s1 1.273012e-02
*CONN
*I lt_pp3_10_s1:Z O
*I vs_19_3:A I
*CAP
1 pgm_pp3_10_s1:1 1.273012e-02
*RES
1 lt_pp3_10_s1:Z pgm_pp3_10_s1:1 1.444591e+01
2 pgm_pp3_10_s1:1 vs_19_3:A 1.000000e-03
*END

*D_NET pgm_pp3_10_s2 8.282959e-03
*CONN
*I lt_pp3_10_s2:Z O
*I vs_39_3:A I
*CAP
1 pgm_pp3_10_s2:1 8.282959e-03
*RES
1 lt_pp3_10_s2:Z pgm_pp3_10_s2:1 8.331108e+00
2 pgm_pp3_10_s2:1 vs_39_3:A 1.000000e-03
*END

*D_NET pgm_pp3_11_s0 2.059997e-02
*CONN
*I lt_pp3_11_s0:Z O
*I vs_10_3:A I
*I vs_7_3:A I
*I vs_0_3:A I
*CAP
1 pgm_pp3_11_s0:1 2.059997e-02
*RES
1 lt_pp3_11_s0:Z pgm_pp3_11_s0:1 2.017579e+01
2 pgm_pp3_11_s0:1 vs_10_3:A 1.000000e-03
3 pgm_pp3_11_s0:1 vs_7_3:A 1.000000e-03
4 pgm_pp3_11_s0:1 vs_0_3:A 1.000000e-03
*END

*D_NET pgm_pp3_11_s2 1.291084e-02
*CONN
*I lt_pp3_11_s2:Z O
*I vs_36_3:A I
*CAP
1 pgm_pp3_11_s2:1 1.291084e-02
*RES
1 lt_pp3_11_s2:Z pgm_pp3_11_s2:1 1.465099e+01
2 pgm_pp3_11_s2:1 vs_36_3:A 1.000000e-03
*END

*D_NET pgm_pp3_11_s3 1.027416e-02
*CONN
*I lt_pp3_11_s3:Z O
*I vs_59_3:A I
*I vs_56_3:A I
*CAP
1 pgm_pp3_11_s3:1 1.027416e-02
*RES
1 lt_pp3_11_s3:Z pgm_pp3_11_s3:1 1.165893e+01
2 pgm_pp3_11_s3:1 vs_59_3:A 1.000000e-03
3 pgm_pp3_11_s3:1 vs_56_3:A 1.000000e-03
*END

*D_NET pgm_pp3_12_s0 1.876724e-02
*CONN
*I lt_pp3_12_s0:Z O
*I vs_15_3:A I
*I vs_13_3:A I
*I vs_3_3:A I
*CAP
1 pgm_pp3_12_s0:1 1.876724e-02
*RES
1 lt_pp3_12_s0:Z pgm_pp3_12_s0:1 2.015649e+01
2 pgm_pp3_12_s0:1 vs_15_3:A 1.000000e-03
3 pgm_pp3_12_s0:1 vs_13_3:A 1.000000e-03
4 pgm_pp3_12_s0:1 vs_3_3:A 1.000000e-03
*END

*D_NET pgm_pp3_12_s1 1.614404e-02
*CONN
*I lt_pp3_12_s1:Z O
*I vs_30_3:A I
*I vs_21_3:A I
*CAP
1 pgm_pp3_12_s1:1 1.614404e-02
*RES
1 lt_pp3_12_s1:Z pgm_pp3_12_s1:1 1.675940e+01
2 pgm_pp3_12_s1:1 vs_30_3:A 1.000000e-03
3 pgm_pp3_12_s1:1 vs_21_3:A 1.000000e-03
*END

*D_NET pgm_pp3_12_s2 1.959273e-02
*CONN
*I lt_pp3_12_s2:Z O
*I vs_45_3:A I
*I vs_44_3:A I
*I vs_41_3:A I
*I vs_34_3:A I
*CAP
1 pgm_pp3_12_s2:1 1.959273e-02
*RES
1 lt_pp3_12_s2:Z pgm_pp3_12_s2:1 1.942092e+01
2 pgm_pp3_12_s2:1 vs_45_3:A 1.000000e-03
3 pgm_pp3_12_s2:1 vs_44_3:A 1.000000e-03
4 pgm_pp3_12_s2:1 vs_41_3:A 1.000000e-03
5 pgm_pp3_12_s2:1 vs_34_3:A 1.000000e-03
*END

*D_NET pgm_pp3_1_s2 1.399915e-02
*CONN
*I lt_pp3_1_s2:Z O
*I vs_43_3:A I
*CAP
1 pgm_pp3_1_s2:1 1.399915e-02
*RES
1 lt_pp3_1_s2:Z pgm_pp3_1_s2:1 1.431381e+01
2 pgm_pp3_1_s2:1 vs_43_3:A 1.000000e-03
*END

*D_NET pgm_pp3_2_s0 1.079455e-02
*CONN
*I lt_pp3_2_s0:Z O
*I vs_9_3:A I
*CAP
1 pgm_pp3_2_s0:1 1.079455e-02
*RES
1 lt_pp3_2_s0:Z pgm_pp3_2_s0:1 1.096524e+01
2 pgm_pp3_2_s0:1 vs_9_3:A 1.000000e-03
*END

*D_NET pgm_pp3_4_s0 9.358727e-03
*CONN
*I lt_pp3_4_s0:Z O
*I vs_12_3:A I
*CAP
1 pgm_pp3_4_s0:1 9.358727e-03
*RES
1 lt_pp3_4_s0:Z pgm_pp3_4_s0:1 1.062012e+01
2 pgm_pp3_4_s0:1 vs_12_3:A 1.000000e-03
*END

*D_NET pgm_pp3_4_s1 6.588733e-03
*CONN
*I lt_pp3_4_s1:Z O
*I vs_16_3:A I
*CAP
1 pgm_pp3_4_s1:1 6.588733e-03
*RES
1 lt_pp3_4_s1:Z pgm_pp3_4_s1:1 7.476777e+00
2 pgm_pp3_4_s1:1 vs_16_3:A 1.000000e-03
*END

*D_NET pgm_pp3_4_s2 5.068940e-03
*CONN
*I lt_pp3_4_s2:Z O
*I vs_40_3:A I
*CAP
1 pgm_pp3_4_s2:1 5.068940e-03
*RES
1 lt_pp3_4_s2:Z pgm_pp3_4_s2:1 5.752142e+00
2 pgm_pp3_4_s2:1 vs_40_3:A 1.000000e-03
*END

*D_NET pgm_pp3_5_s1 9.875148e-03
*CONN
*I lt_pp3_5_s1:Z O
*I vs_28_3:A I
*CAP
1 pgm_pp3_5_s1:1 9.875148e-03
*RES
1 lt_pp3_5_s1:Z pgm_pp3_5_s1:1 1.018171e+01
2 pgm_pp3_5_s1:1 vs_28_3:A 1.000000e-03
*END

*D_NET pgm_pp3_5_s2 4.630481e-03
*CONN
*I lt_pp3_5_s2:Z O
*I vs_35_3:A I
*CAP
1 pgm_pp3_5_s2:1 4.630481e-03
*RES
1 lt_pp3_5_s2:Z pgm_pp3_5_s2:1 5.254587e+00
2 pgm_pp3_5_s2:1 vs_35_3:A 1.000000e-03
*END

*D_NET pgm_pp3_5_s3 1.804199e-03
*CONN
*I lt_pp3_5_s3:Z O
*I vs_55_3:A I
*CAP
1 pgm_pp3_5_s3:1 1.804199e-03
*RES
1 lt_pp3_5_s3:Z pgm_pp3_5_s3:1 2.047373e+00
2 pgm_pp3_5_s3:1 vs_55_3:A 1.000000e-03
*END

*D_NET pgm_pp3_6_s0 8.155928e-03
*CONN
*I lt_pp3_6_s0:Z O
*I vs_1_3:A I
*CAP
1 pgm_pp3_6_s0:1 8.155928e-03
*RES
1 lt_pp3_6_s0:Z pgm_pp3_6_s0:1 9.255201e+00
2 pgm_pp3_6_s0:1 vs_1_3:A 1.000000e-03
*END

*D_NET pgm_pp3_6_s3 3.279554e-03
*CONN
*I lt_pp3_6_s3:Z O
*I vs_53_3:A I
*CAP
1 pgm_pp3_6_s3:1 3.279554e-03
*RES
1 lt_pp3_6_s3:Z pgm_pp3_6_s3:1 3.721579e+00
2 pgm_pp3_6_s3:1 vs_53_3:A 1.000000e-03
*END

*D_NET pgm_pp3_7_s3 8.917306e-03
*CONN
*I lt_pp3_7_s3:Z O
*I vs_50_3:A I
*CAP
1 pgm_pp3_7_s3:1 8.917306e-03
*RES
1 lt_pp3_7_s3:Z pgm_pp3_7_s3:1 1.011920e+01
2 pgm_pp3_7_s3:1 vs_50_3:A 1.000000e-03
*END

*D_NET pgm_pp3_9_s0 8.478847e-03
*CONN
*I lt_pp3_9_s0:Z O
*I vs_5_3:A I
*CAP
1 pgm_pp3_9_s0:1 8.478847e-03
*RES
1 lt_pp3_9_s0:Z pgm_pp3_9_s0:1 9.621643e+00
2 pgm_pp3_9_s0:1 vs_5_3:A 1.000000e-03
*END

*D_NET pgm_pp3_9_s1 1.086371e-02
*CONN
*I lt_pp3_9_s1:Z O
*I vs_24_3:A I
*I vs_20_3:A I
*CAP
1 pgm_pp3_9_s1:1 1.086371e-02
*RES
1 lt_pp3_9_s1:Z pgm_pp3_9_s1:1 1.232794e+01
2 pgm_pp3_9_s1:1 vs_24_3:A 1.000000e-03
3 pgm_pp3_9_s1:1 vs_20_3:A 1.000000e-03
*END

*D_NET pgm_pp3_9_s2 7.270122e-03
*CONN
*I lt_pp3_9_s2:Z O
*I vs_38_3:A I
*CAP
1 pgm_pp3_9_s2:1 7.270122e-03
*RES
1 lt_pp3_9_s2:Z pgm_pp3_9_s2:1 8.250004e+00
2 pgm_pp3_9_s2:1 vs_38_3:A 1.000000e-03
*END

*D_NET pgm_pp3_9_s3 7.101256e-03
*CONN
*I lt_pp3_9_s3:Z O
*I vs_63_3:A I
*CAP
1 pgm_pp3_9_s3:1 7.101256e-03
*RES
1 lt_pp3_9_s3:Z pgm_pp3_9_s3:1 8.058378e+00
2 pgm_pp3_9_s3:1 vs_63_3:A 1.000000e-03
*END

*D_NET pgm_pp4_10_s0 1.131167e-02
*CONN
*I lt_pp4_10_s0:Z O
*I vs_7_4:A I
*CAP
1 pgm_pp4_10_s0:1 1.131167e-02
*RES
1 lt_pp4_10_s0:Z pgm_pp4_10_s0:1 1.112012e+01
2 pgm_pp4_10_s0:1 vs_7_4:A 1.000000e-03
*END

*D_NET pgm_pp4_10_s2 8.978054e-03
*CONN
*I lt_pp4_10_s2:Z O
*I vs_39_4:A I
*CAP
1 pgm_pp4_10_s2:1 8.978054e-03
*RES
1 lt_pp4_10_s2:Z pgm_pp4_10_s2:1 8.759940e+00
2 pgm_pp4_10_s2:1 vs_39_4:A 1.000000e-03
*END

*D_NET pgm_pp4_10_s3 5.310370e-03
*CONN
*I lt_pp4_10_s3:Z O
*I vs_63_4:A I
*CAP
1 pgm_pp4_10_s3:1 5.310370e-03
*RES
1 lt_pp4_10_s3:Z pgm_pp4_10_s3:1 4.209800e+00
2 pgm_pp4_10_s3:1 vs_63_4:A 1.000000e-03
*END

*D_NET pgm_pp4_11_s0 1.842967e-02
*CONN
*I lt_pp4_11_s0:Z O
*I vs_13_4:A I
*I vs_6_4:A I
*I vs_1_4:A I
*CAP
1 pgm_pp4_11_s0:1 1.842967e-02
*RES
1 lt_pp4_11_s0:Z pgm_pp4_11_s0:1 1.736868e+01
2 pgm_pp4_11_s0:1 vs_13_4:A 1.000000e-03
3 pgm_pp4_11_s0:1 vs_6_4:A 1.000000e-03
4 pgm_pp4_11_s0:1 vs_1_4:A 1.000000e-03
*END

*D_NET pgm_pp4_11_s3 1.325449e-02
*CONN
*I lt_pp4_11_s3:Z O
*I vs_54_4:A I
*I vs_52_4:A I
*CAP
1 pgm_pp4_11_s3:1 1.325449e-02
*RES
1 lt_pp4_11_s3:Z pgm_pp4_11_s3:1 1.504096e+01
2 pgm_pp4_11_s3:1 vs_54_4:A 1.000000e-03
3 pgm_pp4_11_s3:1 vs_52_4:A 1.000000e-03
*END

*D_NET pgm_pp4_12_s1 2.010128e-02
*CONN
*I lt_pp4_12_s1:Z O
*I vs_31_4:A I
*I vs_30_4:A I
*I vs_21_4:A I
*I vs_18_4:A I
*CAP
1 pgm_pp4_12_s1:1 2.010128e-02
*RES
1 lt_pp4_12_s1:Z pgm_pp4_12_s1:1 2.195829e+01
2 pgm_pp4_12_s1:1 vs_31_4:A 1.000000e-03
3 pgm_pp4_12_s1:1 vs_30_4:A 1.000000e-03
4 pgm_pp4_12_s1:1 vs_21_4:A 1.000000e-03
5 pgm_pp4_12_s1:1 vs_18_4:A 1.000000e-03
*END

*D_NET pgm_pp4_12_s2 9.432211e-03
*CONN
*I lt_pp4_12_s2:Z O
*I vs_41_4:A I
*CAP
1 pgm_pp4_12_s2:1 9.432211e-03
*RES
1 lt_pp4_12_s2:Z pgm_pp4_12_s2:1 9.563269e+00
2 pgm_pp4_12_s2:1 vs_41_4:A 1.000000e-03
*END

*D_NET pgm_pp4_12_s3 3.513596e-03
*CONN
*I lt_pp4_12_s3:Z O
*I vs_62_4:A I
*I vs_61_4:A I
*CAP
1 pgm_pp4_12_s3:1 3.513596e-03
*RES
1 lt_pp4_12_s3:Z pgm_pp4_12_s3:1 3.987166e+00
2 pgm_pp4_12_s3:1 vs_62_4:A 1.000000e-03
3 pgm_pp4_12_s3:1 vs_61_4:A 1.000000e-03
*END

*D_NET pgm_pp4_3_s2 1.309748e-02
*CONN
*I lt_pp4_3_s2:Z O
*I vs_45_4:A I
*CAP
1 pgm_pp4_3_s2:1 1.309748e-02
*RES
1 lt_pp4_3_s2:Z pgm_pp4_3_s2:1 1.486278e+01
2 pgm_pp4_3_s2:1 vs_45_4:A 1.000000e-03
*END

*D_NET pgm_pp4_4_s2 2.292684e-02
*CONN
*I lt_pp4_4_s2:Z O
*I vs_46_4:A I
*I vs_43_4:A I
*I vs_32_4:A I
*CAP
1 pgm_pp4_4_s2:1 2.292684e-02
*RES
1 lt_pp4_4_s2:Z pgm_pp4_4_s2:1 2.301660e+01
2 pgm_pp4_4_s2:1 vs_46_4:A 1.000000e-03
3 pgm_pp4_4_s2:1 vs_43_4:A 1.000000e-03
4 pgm_pp4_4_s2:1 vs_32_4:A 1.000000e-03
*END

*D_NET pgm_pp4_4_s3 3.718013e-03
*CONN
*I lt_pp4_4_s3:Z O
*I vs_50_4:A I
*CAP
1 pgm_pp4_4_s3:1 3.718013e-03
*RES
1 lt_pp4_4_s3:Z pgm_pp4_4_s3:1 4.219134e+00
2 pgm_pp4_4_s3:1 vs_50_4:A 1.000000e-03
*END

*D_NET pgm_pp4_5_s0 7.439294e-03
*CONN
*I lt_pp4_5_s0:Z O
*I vs_11_4:A I
*CAP
1 pgm_pp4_5_s0:1 7.439294e-03
*RES
1 lt_pp4_5_s0:Z pgm_pp4_5_s0:1 7.589701e+00
2 pgm_pp4_5_s0:1 vs_11_4:A 1.000000e-03
*END

*D_NET pgm_pp4_6_s1 4.437915e-03
*CONN
*I lt_pp4_6_s1:Z O
*I vs_20_4:A I
*CAP
1 pgm_pp4_6_s1:1 4.437915e-03
*RES
1 lt_pp4_6_s1:Z pgm_pp4_6_s1:1 5.036066e+00
2 pgm_pp4_6_s1:1 vs_20_4:A 1.000000e-03
*END

*D_NET pgm_pp4_6_s2 2.156744e-03
*CONN
*I lt_pp4_6_s2:Z O
*I vs_38_4:A I
*CAP
1 pgm_pp4_6_s2:1 2.156744e-03
*RES
1 lt_pp4_6_s2:Z pgm_pp4_6_s2:1 2.447434e+00
2 pgm_pp4_6_s2:1 vs_38_4:A 1.000000e-03
*END

*D_NET pgm_pp4_7_s0 9.635436e-03
*CONN
*I lt_pp4_7_s0:Z O
*I vs_2_4:A I
*CAP
1 pgm_pp4_7_s0:1 9.635436e-03
*RES
1 lt_pp4_7_s0:Z pgm_pp4_7_s0:1 1.036980e+01
2 pgm_pp4_7_s0:1 vs_2_4:A 1.000000e-03
*END

*D_NET pgm_pp4_7_s2 4.926737e-03
*CONN
*I lt_pp4_7_s2:Z O
*I vs_37_4:A I
*CAP
1 pgm_pp4_7_s2:1 4.926737e-03
*RES
1 lt_pp4_7_s2:Z pgm_pp4_7_s2:1 5.590773e+00
2 pgm_pp4_7_s2:1 vs_37_4:A 1.000000e-03
*END

*D_NET pgm_pp4_7_s3 2.236733e-03
*CONN
*I lt_pp4_7_s3:Z O
*I vs_58_4:A I
*CAP
1 pgm_pp4_7_s3:1 2.236733e-03
*RES
1 lt_pp4_7_s3:Z pgm_pp4_7_s3:1 2.538204e+00
2 pgm_pp4_7_s3:1 vs_58_4:A 1.000000e-03
*END

*D_NET pgm_pp4_9_s0 4.630481e-03
*CONN
*I lt_pp4_9_s0:Z O
*I vs_14_4:A I
*CAP
1 pgm_pp4_9_s0:1 4.630481e-03
*RES
1 lt_pp4_9_s0:Z pgm_pp4_9_s0:1 5.254587e+00
2 pgm_pp4_9_s0:1 vs_14_4:A 1.000000e-03
*END

*D_NET pgm_pp4_9_s1 9.995677e-03
*CONN
*I lt_pp4_9_s1:Z O
*I vs_29_4:A I
*I vs_28_4:A I
*I vs_23_4:A I
*I vs_22_4:A I
*CAP
1 pgm_pp4_9_s1:1 9.995677e-03
*RES
1 lt_pp4_9_s1:Z pgm_pp4_9_s1:1 1.134292e+01
2 pgm_pp4_9_s1:1 vs_29_4:A 1.000000e-03
3 pgm_pp4_9_s1:1 vs_28_4:A 1.000000e-03
4 pgm_pp4_9_s1:1 vs_23_4:A 1.000000e-03
5 pgm_pp4_9_s1:1 vs_22_4:A 1.000000e-03
*END

*D_NET pgm_pp4_9_s2 1.372258e-02
*CONN
*I lt_pp4_9_s2:Z O
*I vs_33_4:A I
*CAP
1 pgm_pp4_9_s2:1 1.372258e-02
*RES
1 lt_pp4_9_s2:Z pgm_pp4_9_s2:1 1.557214e+01
2 pgm_pp4_9_s2:1 vs_33_4:A 1.000000e-03
*END

*D_NET pgm_pp5_10_s0 4.274974e-03
*CONN
*I lt_pp5_10_s0:Z O
*I vs_13_5:A I
*I vs_11_5:A I
*CAP
1 pgm_pp5_10_s0:1 4.274974e-03
*RES
1 lt_pp5_10_s0:Z pgm_pp5_10_s0:1 4.851164e+00
2 pgm_pp5_10_s0:1 vs_13_5:A 1.000000e-03
3 pgm_pp5_10_s0:1 vs_11_5:A 1.000000e-03
*END

*D_NET pgm_pp5_10_s2 2.213032e-03
*CONN
*I lt_pp5_10_s2:Z O
*I vs_43_5:A I
*CAP
1 pgm_pp5_10_s2:1 2.213032e-03
*RES
1 lt_pp5_10_s2:Z pgm_pp5_10_s2:1 2.511309e+00
2 pgm_pp5_10_s2:1 vs_43_5:A 1.000000e-03
*END

*D_NET pgm_pp5_10_s3 7.584154e-03
*CONN
*I lt_pp5_10_s3:Z O
*I vs_56_5:A I
*CAP
1 pgm_pp5_10_s3:1 7.584154e-03
*RES
1 lt_pp5_10_s3:Z pgm_pp5_10_s3:1 8.606362e+00
2 pgm_pp5_10_s3:1 vs_56_5:A 1.000000e-03
*END

*D_NET pgm_pp5_11_s1 3.996493e-03
*CONN
*I lt_pp5_11_s1:Z O
*I vs_28_5:A I
*I vs_27_5:A I
*CAP
1 pgm_pp5_11_s1:1 3.996493e-03
*RES
1 lt_pp5_11_s1:Z pgm_pp5_11_s1:1 4.535149e+00
2 pgm_pp5_11_s1:1 vs_28_5:A 1.000000e-03
3 pgm_pp5_11_s1:1 vs_27_5:A 1.000000e-03
*END

*D_NET pgm_pp5_11_s3 1.819339e-02
*CONN
*I lt_pp5_11_s3:Z O
*I vs_51_5:A I
*I vs_48_5:A I
*CAP
1 pgm_pp5_11_s3:1 1.819339e-02
*RES
1 lt_pp5_11_s3:Z pgm_pp5_11_s3:1 1.979325e+01
2 pgm_pp5_11_s3:1 vs_51_5:A 1.000000e-03
3 pgm_pp5_11_s3:1 vs_48_5:A 1.000000e-03
*END

*D_NET pgm_pp5_12_s0 1.949957e-02
*CONN
*I lt_pp5_12_s0:Z O
*I vs_0_5:A I
*CAP
1 pgm_pp5_12_s0:1 1.949957e-02
*RES
1 lt_pp5_12_s0:Z pgm_pp5_12_s0:1 2.212776e+01
2 pgm_pp5_12_s0:1 vs_0_5:A 1.000000e-03
*END

*D_NET pgm_pp5_12_s1 2.301317e-02
*CONN
*I lt_pp5_12_s1:Z O
*I vs_30_5:A I
*I vs_21_5:A I
*I vs_17_5:A I
*CAP
1 pgm_pp5_12_s1:1 2.301317e-02
*RES
1 lt_pp5_12_s1:Z pgm_pp5_12_s1:1 2.611493e+01
2 pgm_pp5_12_s1:1 vs_30_5:A 1.000000e-03
3 pgm_pp5_12_s1:1 vs_21_5:A 1.000000e-03
4 pgm_pp5_12_s1:1 vs_17_5:A 1.000000e-03
*END

*D_NET pgm_pp5_12_s2 4.683807e-03
*CONN
*I lt_pp5_12_s2:Z O
*I vs_44_5:A I
*CAP
1 pgm_pp5_12_s2:1 4.683807e-03
*RES
1 lt_pp5_12_s2:Z pgm_pp5_12_s2:1 5.315101e+00
2 pgm_pp5_12_s2:1 vs_44_5:A 1.000000e-03
*END

*D_NET pgm_pp5_12_s3 1.585535e-02
*CONN
*I lt_pp5_12_s3:Z O
*I vs_52_5:A I
*CAP
1 pgm_pp5_12_s3:1 1.585535e-02
*RES
1 lt_pp5_12_s3:Z pgm_pp5_12_s3:1 1.598825e+01
2 pgm_pp5_12_s3:1 vs_52_5:A 1.000000e-03
*END

*D_NET pgm_pp5_1_s0 1.712656e-02
*CONN
*I lt_pp5_1_s0:Z O
*I vs_14_5:A I
*CAP
1 pgm_pp5_1_s0:1 1.712656e-02
*RES
1 lt_pp5_1_s0:Z pgm_pp5_1_s0:1 1.943491e+01
2 pgm_pp5_1_s0:1 vs_14_5:A 1.000000e-03
*END

*D_NET pgm_pp5_3_s2 1.067560e-02
*CONN
*I lt_pp5_3_s2:Z O
*I vs_42_5:A I
*CAP
1 pgm_pp5_3_s2:1 1.067560e-02
*RES
1 lt_pp5_3_s2:Z pgm_pp5_3_s2:1 1.068629e+01
2 pgm_pp5_3_s2:1 vs_42_5:A 1.000000e-03
*END

*D_NET pgm_pp5_3_s3 1.534606e-02
*CONN
*I lt_pp5_3_s3:Z O
*I vs_62_5:A I
*I vs_60_5:A I
*CAP
1 pgm_pp5_3_s3:1 1.534606e-02
*RES
1 lt_pp5_3_s3:Z pgm_pp5_3_s3:1 1.741443e+01
2 pgm_pp5_3_s3:1 vs_62_5:A 1.000000e-03
3 pgm_pp5_3_s3:1 vs_60_5:A 1.000000e-03
*END

*D_NET pgm_pp5_4_s0 6.787225e-03
*CONN
*I lt_pp5_4_s0:Z O
*I vs_9_5:A I
*CAP
1 pgm_pp5_4_s0:1 6.787225e-03
*RES
1 lt_pp5_4_s0:Z pgm_pp5_4_s0:1 7.702021e+00
2 pgm_pp5_4_s0:1 vs_9_5:A 1.000000e-03
*END

*D_NET pgm_pp5_4_s1 1.303526e-02
*CONN
*I lt_pp5_4_s1:Z O
*I vs_31_5:A I
*CAP
1 pgm_pp5_4_s1:1 1.303526e-02
*RES
1 lt_pp5_4_s1:Z pgm_pp5_4_s1:1 1.479218e+01
2 pgm_pp5_4_s1:1 vs_31_5:A 1.000000e-03
*END

*D_NET pgm_pp5_4_s3 6.086698e-03
*CONN
*I lt_pp5_4_s3:Z O
*I vs_57_5:A I
*CAP
1 pgm_pp5_4_s3:1 6.086698e-03
*RES
1 lt_pp5_4_s3:Z pgm_pp5_4_s3:1 6.098619e+00
2 pgm_pp5_4_s3:1 vs_57_5:A 1.000000e-03
*END

*D_NET pgm_pp5_5_s0 2.962560e-03
*CONN
*I lt_pp5_5_s0:Z O
*I vs_8_5:A I
*CAP
1 pgm_pp5_5_s0:1 2.962560e-03
*RES
1 lt_pp5_5_s0:Z pgm_pp5_5_s0:1 3.361860e+00
2 pgm_pp5_5_s0:1 vs_8_5:A 1.000000e-03
*END

*D_NET pgm_pp5_5_s2 6.316178e-03
*CONN
*I lt_pp5_5_s2:Z O
*I vs_33_5:A I
*CAP
1 pgm_pp5_5_s2:1 6.316178e-03
*RES
1 lt_pp5_5_s2:Z pgm_pp5_5_s2:1 7.167486e+00
2 pgm_pp5_5_s2:1 vs_33_5:A 1.000000e-03
*END

*D_NET pgm_pp5_6_s1 1.263297e-02
*CONN
*I lt_pp5_6_s1:Z O
*I vs_16_5:A I
*CAP
1 pgm_pp5_6_s1:1 1.263297e-02
*RES
1 lt_pp5_6_s1:Z pgm_pp5_6_s1:1 1.261951e+01
2 pgm_pp5_6_s1:1 vs_16_5:A 1.000000e-03
*END

*D_NET pgm_pp5_9_s0 9.198611e-03
*CONN
*I lt_pp5_9_s0:Z O
*I vs_5_5:A I
*CAP
1 pgm_pp5_9_s0:1 9.198611e-03
*RES
1 lt_pp5_9_s0:Z pgm_pp5_9_s0:1 9.442164e+00
2 pgm_pp5_9_s0:1 vs_5_5:A 1.000000e-03
*END

*D_NET pgm_pp5_9_s1 3.235116e-03
*CONN
*I lt_pp5_9_s1:Z O
*I vs_26_5:A I
*CAP
1 pgm_pp5_9_s1:1 3.235116e-03
*RES
1 lt_pp5_9_s1:Z pgm_pp5_9_s1:1 3.671151e+00
2 pgm_pp5_9_s1:1 vs_26_5:A 1.000000e-03
*END

*D_NET pgm_pp5_9_s2 5.134116e-03
*CONN
*I lt_pp5_9_s2:Z O
*I vs_41_5:A I
*I vs_40_5:A I
*CAP
1 pgm_pp5_9_s2:1 5.134116e-03
*RES
1 lt_pp5_9_s2:Z pgm_pp5_9_s2:1 5.826103e+00
2 pgm_pp5_9_s2:1 vs_41_5:A 1.000000e-03
3 pgm_pp5_9_s2:1 vs_40_5:A 1.000000e-03
*END

*D_NET pgm_pp5_9_s3 1.569346e-02
*CONN
*I lt_pp5_9_s3:Z O
*I vs_53_5:A I
*I vs_50_5:A I
*CAP
1 pgm_pp5_9_s3:1 1.569346e-02
*RES
1 lt_pp5_9_s3:Z pgm_pp5_9_s3:1 1.423237e+01
2 pgm_pp5_9_s3:1 vs_53_5:A 1.000000e-03
3 pgm_pp5_9_s3:1 vs_50_5:A 1.000000e-03
*END

*D_NET pgm_pp6_0_s0 9.118042e-03
*CONN
*I lt_pp6_0_s0:Z O
*I vs_5_6:A I
*CAP
1 pgm_pp6_0_s0:1 9.118042e-03
*RES
1 lt_pp6_0_s0:Z pgm_pp6_0_s0:1 8.198900e+00
2 pgm_pp6_0_s0:1 vs_5_6:A 1.000000e-03
*END

*D_NET pgm_pp6_10_s0 1.012708e-02
*CONN
*I lt_pp6_10_s0:Z O
*I vs_6_6:A I
*CAP
1 pgm_pp6_10_s0:1 1.012708e-02
*RES
1 lt_pp6_10_s0:Z pgm_pp6_10_s0:1 9.919860e+00
2 pgm_pp6_10_s0:1 vs_6_6:A 1.000000e-03
*END

*D_NET pgm_pp6_10_s1 3.643949e-03
*CONN
*I lt_pp6_10_s1:Z O
*I vs_27_6:A I
*I vs_26_6:A I
*CAP
1 pgm_pp6_10_s1:1 3.643949e-03
*RES
1 lt_pp6_10_s1:Z pgm_pp6_10_s1:1 4.135088e+00
2 pgm_pp6_10_s1:1 vs_27_6:A 1.000000e-03
3 pgm_pp6_10_s1:1 vs_26_6:A 1.000000e-03
*END

*D_NET pgm_pp6_10_s2 1.813383e-02
*CONN
*I lt_pp6_10_s2:Z O
*I vs_44_6:A I
*I vs_41_6:A I
*I vs_33_6:A I
*CAP
1 pgm_pp6_10_s2:1 1.813383e-02
*RES
1 lt_pp6_10_s2:Z pgm_pp6_10_s2:1 2.057795e+01
2 pgm_pp6_10_s2:1 vs_44_6:A 1.000000e-03
3 pgm_pp6_10_s2:1 vs_41_6:A 1.000000e-03
4 pgm_pp6_10_s2:1 vs_33_6:A 1.000000e-03
*END

*D_NET pgm_pp6_10_s3 1.702985e-02
*CONN
*I lt_pp6_10_s3:Z O
*I vs_62_6:A I
*I vs_55_6:A I
*I vs_51_6:A I
*CAP
1 pgm_pp6_10_s3:1 1.702985e-02
*RES
1 lt_pp6_10_s3:Z pgm_pp6_10_s3:1 1.775299e+01
2 pgm_pp6_10_s3:1 vs_62_6:A 1.000000e-03
3 pgm_pp6_10_s3:1 vs_55_6:A 1.000000e-03
4 pgm_pp6_10_s3:1 vs_51_6:A 1.000000e-03
*END

*D_NET pgm_pp6_11_s0 8.968826e-03
*CONN
*I lt_pp6_11_s0:Z O
*I vs_7_6:A I
*CAP
1 pgm_pp6_11_s0:1 8.968826e-03
*RES
1 lt_pp6_11_s0:Z pgm_pp6_11_s0:1 9.225227e+00
2 pgm_pp6_11_s0:1 vs_7_6:A 1.000000e-03
*END

*D_NET pgm_pp6_11_s1 1.198846e-02
*CONN
*I lt_pp6_11_s1:Z O
*I vs_21_6:A I
*CAP
1 pgm_pp6_11_s1:1 1.198846e-02
*RES
1 lt_pp6_11_s1:Z pgm_pp6_11_s1:1 1.232007e+01
2 pgm_pp6_11_s1:1 vs_21_6:A 1.000000e-03
*END

*D_NET pgm_pp6_11_s3 7.666525e-03
*CONN
*I lt_pp6_11_s3:Z O
*I vs_56_6:A I
*CAP
1 pgm_pp6_11_s3:1 7.666525e-03
*RES
1 lt_pp6_11_s3:Z pgm_pp6_11_s3:1 7.559600e+00
2 pgm_pp6_11_s3:1 vs_56_6:A 1.000000e-03
*END

*D_NET pgm_pp6_12_s0 2.058979e-02
*CONN
*I lt_pp6_12_s0:Z O
*I vs_0_6:A I
*CAP
1 pgm_pp6_12_s0:1 2.058979e-02
*RES
1 lt_pp6_12_s0:Z pgm_pp6_12_s0:1 2.336493e+01
2 pgm_pp6_12_s0:1 vs_0_6:A 1.000000e-03
*END

*D_NET pgm_pp6_12_s1 1.928923e-02
*CONN
*I lt_pp6_12_s1:Z O
*I vs_17_6:A I
*CAP
1 pgm_pp6_12_s1:1 1.928923e-02
*RES
1 lt_pp6_12_s1:Z pgm_pp6_12_s1:1 2.188907e+01
2 pgm_pp6_12_s1:1 vs_17_6:A 1.000000e-03
*END

*D_NET pgm_pp6_12_s2 2.304872e-03
*CONN
*I lt_pp6_12_s2:Z O
*I vs_47_6:A I
*CAP
1 pgm_pp6_12_s2:1 2.304872e-03
*RES
1 lt_pp6_12_s2:Z pgm_pp6_12_s2:1 2.615527e+00
2 pgm_pp6_12_s2:1 vs_47_6:A 1.000000e-03
*END

*D_NET pgm_pp6_12_s3 1.801829e-02
*CONN
*I lt_pp6_12_s3:Z O
*I vs_49_6:A I
*CAP
1 pgm_pp6_12_s3:1 1.801829e-02
*RES
1 lt_pp6_12_s3:Z pgm_pp6_12_s3:1 2.044683e+01
2 pgm_pp6_12_s3:1 vs_49_6:A 1.000000e-03
*END

*D_NET pgm_pp6_3_s0 1.476836e-02
*CONN
*I lt_pp6_3_s0:Z O
*I vs_14_6:A I
*CAP
1 pgm_pp6_3_s0:1 1.476836e-02
*RES
1 lt_pp6_3_s0:Z pgm_pp6_3_s0:1 1.675887e+01
2 pgm_pp6_3_s0:1 vs_14_6:A 1.000000e-03
*END

*D_NET pgm_pp6_3_s2 5.305945e-03
*CONN
*I lt_pp6_3_s2:Z O
*I vs_38_6:A I
*I vs_36_6:A I
*CAP
1 pgm_pp6_3_s2:1 5.305945e-03
*RES
1 lt_pp6_3_s2:Z pgm_pp6_3_s2:1 6.021091e+00
2 pgm_pp6_3_s2:1 vs_38_6:A 1.000000e-03
3 pgm_pp6_3_s2:1 vs_36_6:A 1.000000e-03
*END

*D_NET pgm_pp6_5_s0 6.861289e-03
*CONN
*I lt_pp6_5_s0:Z O
*I vs_4_6:A I
*I vs_1_6:A I
*CAP
1 pgm_pp6_5_s0:1 6.861289e-03
*RES
1 lt_pp6_5_s0:Z pgm_pp6_5_s0:1 7.786068e+00
2 pgm_pp6_5_s0:1 vs_4_6:A 1.000000e-03
3 pgm_pp6_5_s0:1 vs_1_6:A 1.000000e-03
*END

*D_NET pgm_pp6_5_s3 5.602201e-03
*CONN
*I lt_pp6_5_s3:Z O
*I vs_53_6:A I
*I vs_50_6:A I
*CAP
1 pgm_pp6_5_s3:1 5.602201e-03
*RES
1 lt_pp6_5_s3:Z pgm_pp6_5_s3:1 6.357277e+00
2 pgm_pp6_5_s3:1 vs_53_6:A 1.000000e-03
3 pgm_pp6_5_s3:1 vs_50_6:A 1.000000e-03
*END

*D_NET pgm_pp6_6_s1 9.092097e-03
*CONN
*I lt_pp6_6_s1:Z O
*I vs_30_6:A I
*CAP
1 pgm_pp6_6_s1:1 9.092097e-03
*RES
1 lt_pp6_6_s1:Z pgm_pp6_6_s1:1 1.031755e+01
2 pgm_pp6_6_s1:1 vs_30_6:A 1.000000e-03
*END

*D_NET pgm_pp6_6_s3 3.718013e-03
*CONN
*I lt_pp6_6_s3:Z O
*I vs_58_6:A I
*I vs_57_6:A I
*CAP
1 pgm_pp6_6_s3:1 3.718013e-03
*RES
1 lt_pp6_6_s3:Z pgm_pp6_6_s3:1 4.219134e+00
2 pgm_pp6_6_s3:1 vs_58_6:A 1.000000e-03
3 pgm_pp6_6_s3:1 vs_57_6:A 1.000000e-03
*END

*D_NET pgm_pp6_7_s2 2.070829e-03
*CONN
*I lt_pp6_7_s2:Z O
*I vs_42_6:A I
*CAP
1 pgm_pp6_7_s2:1 2.070829e-03
*RES
1 lt_pp6_7_s2:Z pgm_pp6_7_s2:1 2.349940e+00
2 pgm_pp6_7_s2:1 vs_42_6:A 1.000000e-03
*END

*D_NET pgm_pp6_8_s0 2.595847e-03
*CONN
*I lt_pp6_8_s0:Z O
*I vs_11_6:A I
*CAP
1 pgm_pp6_8_s0:1 2.595847e-03
*RES
1 lt_pp6_8_s0:Z pgm_pp6_8_s0:1 1.073069e+00
2 pgm_pp6_8_s0:1 vs_11_6:A 1.000000e-03
*END

*D_NET pgm_pp6_8_s1 9.345854e-03
*CONN
*I lt_pp6_8_s1:Z O
*I vs_22_6:A I
*I vs_20_6:A I
*CAP
1 pgm_pp6_8_s1:1 9.345854e-03
*RES
1 lt_pp6_8_s1:Z pgm_pp6_8_s1:1 9.321293e+00
2 pgm_pp6_8_s1:1 vs_22_6:A 1.000000e-03
3 pgm_pp6_8_s1:1 vs_20_6:A 1.000000e-03
*END

*D_NET pgm_pp6_8_s3 9.210599e-03
*CONN
*I lt_pp6_8_s3:Z O
*I vs_60_6:A I
*I vs_54_6:A I
*CAP
1 pgm_pp6_8_s3:1 9.210599e-03
*RES
1 lt_pp6_8_s3:Z pgm_pp6_8_s3:1 1.045202e+01
2 pgm_pp6_8_s3:1 vs_60_6:A 1.000000e-03
3 pgm_pp6_8_s3:1 vs_54_6:A 1.000000e-03
*END

*D_NET pgm_pp6_9_s0 1.890113e-03
*CONN
*I lt_pp6_9_s0:Z O
*I vs_10_6:A I
*CAP
1 pgm_pp6_9_s0:1 1.890113e-03
*RES
1 lt_pp6_9_s0:Z pgm_pp6_9_s0:1 2.144867e+00
2 pgm_pp6_9_s0:1 vs_10_6:A 1.000000e-03
*END

*D_NET pgm_pp6_9_s1 3.049358e-03
*CONN
*I lt_pp6_9_s1:Z O
*I vs_28_6:A I
*CAP
1 pgm_pp6_9_s1:1 3.049358e-03
*RES
1 lt_pp6_9_s1:Z pgm_pp6_9_s1:1 2.126062e+00
2 pgm_pp6_9_s1:1 vs_28_6:A 1.000000e-03
*END

*D_NET pgm_pp6_9_s2 1.346766e-02
*CONN
*I lt_pp6_9_s2:Z O
*I vs_46_6:A I
*I vs_40_6:A I
*I vs_39_6:A I
*CAP
1 pgm_pp6_9_s2:1 1.346766e-02
*RES
1 lt_pp6_9_s2:Z pgm_pp6_9_s2:1 1.428660e+01
2 pgm_pp6_9_s2:1 vs_46_6:A 1.000000e-03
3 pgm_pp6_9_s2:1 vs_40_6:A 1.000000e-03
4 pgm_pp6_9_s2:1 vs_39_6:A 1.000000e-03
*END

*D_NET pgm_pp6_9_s3 9.687571e-03
*CONN
*I lt_pp6_9_s3:Z O
*I vs_52_6:A I
*CAP
1 pgm_pp6_9_s3:1 9.687571e-03
*RES
1 lt_pp6_9_s3:Z pgm_pp6_9_s3:1 1.099328e+01
2 pgm_pp6_9_s3:1 vs_52_6:A 1.000000e-03
*END

*D_NET pgm_pp7_0_s1 1.570099e-02
*CONN
*I lt_pp7_0_s1:Z O
*I vs_27_7:A I
*CAP
1 pgm_pp7_0_s1:1 1.570099e-02
*RES
1 lt_pp7_0_s1:Z pgm_pp7_0_s1:1 1.667696e+01
2 pgm_pp7_0_s1:1 vs_27_7:A 1.000000e-03
*END

*D_NET pgm_pp7_10_s0 5.039315e-03
*CONN
*I lt_pp7_10_s0:Z O
*I vs_15_7:A I
*I vs_14_7:A I
*I vs_13_7:A I
*I vs_12_7:A I
*CAP
1 pgm_pp7_10_s0:1 5.039315e-03
*RES
1 lt_pp7_10_s0:Z pgm_pp7_10_s0:1 5.718524e+00
2 pgm_pp7_10_s0:1 vs_15_7:A 1.000000e-03
3 pgm_pp7_10_s0:1 vs_14_7:A 1.000000e-03
4 pgm_pp7_10_s0:1 vs_13_7:A 1.000000e-03
5 pgm_pp7_10_s0:1 vs_12_7:A 1.000000e-03
*END

*D_NET pgm_pp7_10_s2 5.844551e-03
*CONN
*I lt_pp7_10_s2:Z O
*I vs_41_7:A I
*CAP
1 pgm_pp7_10_s2:1 5.844551e-03
*RES
1 lt_pp7_10_s2:Z pgm_pp7_10_s2:1 5.492056e+00
2 pgm_pp7_10_s2:1 vs_41_7:A 1.000000e-03
*END

*D_NET pgm_pp7_11_s1 1.794617e-02
*CONN
*I lt_pp7_11_s1:Z O
*I vs_25_7:A I
*I vs_20_7:A I
*I vs_19_7:A I
*CAP
1 pgm_pp7_11_s1:1 1.794617e-02
*RES
1 lt_pp7_11_s1:Z pgm_pp7_11_s1:1 1.908077e+01
2 pgm_pp7_11_s1:1 vs_25_7:A 1.000000e-03
3 pgm_pp7_11_s1:1 vs_20_7:A 1.000000e-03
4 pgm_pp7_11_s1:1 vs_19_7:A 1.000000e-03
*END

*D_NET pgm_pp7_11_s2 1.911444e-02
*CONN
*I lt_pp7_11_s2:Z O
*I vs_46_7:A I
*I vs_33_7:A I
*CAP
1 pgm_pp7_11_s2:1 1.911444e-02
*RES
1 lt_pp7_11_s2:Z pgm_pp7_11_s2:1 2.169072e+01
2 pgm_pp7_11_s2:1 vs_46_7:A 1.000000e-03
3 pgm_pp7_11_s2:1 vs_33_7:A 1.000000e-03
*END

*D_NET pgm_pp7_11_s3 1.291574e-02
*CONN
*I lt_pp7_11_s3:Z O
*I vs_52_7:A I
*CAP
1 pgm_pp7_11_s3:1 1.291574e-02
*RES
1 lt_pp7_11_s3:Z pgm_pp7_11_s3:1 1.337233e+01
2 pgm_pp7_11_s3:1 vs_52_7:A 1.000000e-03
*END

*D_NET pgm_pp7_12_s1 1.178567e-02
*CONN
*I lt_pp7_12_s1:Z O
*I vs_23_7:A I
*CAP
1 pgm_pp7_12_s1:1 1.178567e-02
*RES
1 lt_pp7_12_s1:Z pgm_pp7_12_s1:1 1.165802e+01
2 pgm_pp7_12_s1:1 vs_23_7:A 1.000000e-03
*END

*D_NET pgm_pp7_12_s2 7.979465e-03
*CONN
*I lt_pp7_12_s2:Z O
*I vs_42_7:A I
*CAP
1 pgm_pp7_12_s2:1 7.979465e-03
*RES
1 lt_pp7_12_s2:Z pgm_pp7_12_s2:1 5.842666e+00
2 pgm_pp7_12_s2:1 vs_42_7:A 1.000000e-03
*END

*D_NET pgm_pp7_12_s3 1.928895e-02
*CONN
*I lt_pp7_12_s3:Z O
*I vs_61_7:A I
*I vs_54_7:A I
*I vs_50_7:A I
*CAP
1 pgm_pp7_12_s3:1 1.928895e-02
*RES
1 lt_pp7_12_s3:Z pgm_pp7_12_s3:1 1.989625e+01
2 pgm_pp7_12_s3:1 vs_61_7:A 1.000000e-03
3 pgm_pp7_12_s3:1 vs_54_7:A 1.000000e-03
4 pgm_pp7_12_s3:1 vs_50_7:A 1.000000e-03
*END

*D_NET pgm_pp7_3_s3 1.486909e-02
*CONN
*I lt_pp7_3_s3:Z O
*I vs_63_7:A I
*CAP
1 pgm_pp7_3_s3:1 1.486909e-02
*RES
1 lt_pp7_3_s3:Z pgm_pp7_3_s3:1 1.687318e+01
2 pgm_pp7_3_s3:1 vs_63_7:A 1.000000e-03
*END

*D_NET pgm_pp7_4_s1 6.588733e-03
*CONN
*I lt_pp7_4_s1:Z O
*I vs_16_7:A I
*CAP
1 pgm_pp7_4_s1:1 6.588733e-03
*RES
1 lt_pp7_4_s1:Z pgm_pp7_4_s1:1 7.476777e+00
2 pgm_pp7_4_s1:1 vs_16_7:A 1.000000e-03
*END

*D_NET pgm_pp7_4_s2 1.425584e-02
*CONN
*I lt_pp7_4_s2:Z O
*I vs_47_7:A I
*CAP
1 pgm_pp7_4_s2:1 1.425584e-02
*RES
1 lt_pp7_4_s2:Z pgm_pp7_4_s2:1 1.617727e+01
2 pgm_pp7_4_s2:1 vs_47_7:A 1.000000e-03
*END

*D_NET pgm_pp7_5_s0 6.316178e-03
*CONN
*I lt_pp7_5_s0:Z O
*I vs_1_7:A I
*CAP
1 pgm_pp7_5_s0:1 6.316178e-03
*RES
1 lt_pp7_5_s0:Z pgm_pp7_5_s0:1 7.167486e+00
2 pgm_pp7_5_s0:1 vs_1_7:A 1.000000e-03
*END

*D_NET pgm_pp7_5_s3 1.531644e-03
*CONN
*I lt_pp7_5_s3:Z O
*I vs_55_7:A I
*CAP
1 pgm_pp7_5_s3:1 1.531644e-03
*RES
1 lt_pp7_5_s3:Z pgm_pp7_5_s3:1 1.738082e+00
2 pgm_pp7_5_s3:1 vs_55_7:A 1.000000e-03
*END

*D_NET pgm_pp7_6_s2 6.912775e-03
*CONN
*I lt_pp7_6_s2:Z O
*I vs_44_7:A I
*CAP
1 pgm_pp7_6_s2:1 6.912775e-03
*RES
1 lt_pp7_6_s2:Z pgm_pp7_6_s2:1 6.503938e+00
2 pgm_pp7_6_s2:1 vs_44_7:A 1.000000e-03
*END

*D_NET pgm_pp7_7_s0 1.798274e-03
*CONN
*I lt_pp7_7_s0:Z O
*I vs_7_7:A I
*CAP
1 pgm_pp7_7_s0:1 1.798274e-03
*RES
1 lt_pp7_7_s0:Z pgm_pp7_7_s0:1 2.040649e+00
2 pgm_pp7_7_s0:1 vs_7_7:A 1.000000e-03
*END

*D_NET pgm_pp7_7_s1 8.672433e-03
*CONN
*I lt_pp7_7_s1:Z O
*I vs_29_7:A I
*CAP
1 pgm_pp7_7_s1:1 8.672433e-03
*RES
1 lt_pp7_7_s1:Z pgm_pp7_7_s1:1 7.881029e+00
2 pgm_pp7_7_s1:1 vs_29_7:A 1.000000e-03
*END

*D_NET pgm_pp7_7_s2 1.064744e-02
*CONN
*I lt_pp7_7_s2:Z O
*I vs_34_7:A I
*CAP
1 pgm_pp7_7_s2:1 1.064744e-02
*RES
1 lt_pp7_7_s2:Z pgm_pp7_7_s2:1 1.208252e+01
2 pgm_pp7_7_s2:1 vs_34_7:A 1.000000e-03
*END

*D_NET pgm_pp7_9_s0 1.076002e-02
*CONN
*I lt_pp7_9_s0:Z O
*I vs_3_7:A I
*CAP
1 pgm_pp7_9_s0:1 1.076002e-02
*RES
1 lt_pp7_9_s0:Z pgm_pp7_9_s0:1 1.221028e+01
2 pgm_pp7_9_s0:1 vs_3_7:A 1.000000e-03
*END

*D_NET pgm_pp7_9_s1 4.796385e-03
*CONN
*I lt_pp7_9_s1:Z O
*I vs_30_7:A I
*CAP
1 pgm_pp7_9_s1:1 4.796385e-03
*RES
1 lt_pp7_9_s1:Z pgm_pp7_9_s1:1 5.442851e+00
2 pgm_pp7_9_s1:1 vs_30_7:A 1.000000e-03
*END

*D_NET pgm_pp7_9_s2 1.546443e-02
*CONN
*I lt_pp7_9_s2:Z O
*I vs_36_7:A I
*I vs_32_7:A I
*CAP
1 pgm_pp7_9_s2:1 1.546443e-02
*RES
1 lt_pp7_9_s2:Z pgm_pp7_9_s2:1 1.655250e+01
2 pgm_pp7_9_s2:1 vs_36_7:A 1.000000e-03
3 pgm_pp7_9_s2:1 vs_32_7:A 1.000000e-03
*END

*D_NET pgm_pp7_9_s3 2.039426e-02
*CONN
*I lt_pp7_9_s3:Z O
*I vs_62_7:A I
*I vs_59_7:A I
*I vs_56_7:A I
*I vs_48_7:A I
*CAP
1 pgm_pp7_9_s3:1 2.039426e-02
*RES
1 lt_pp7_9_s3:Z pgm_pp7_9_s3:1 2.314304e+01
2 pgm_pp7_9_s3:1 vs_62_7:A 1.000000e-03
3 pgm_pp7_9_s3:1 vs_59_7:A 1.000000e-03
4 pgm_pp7_9_s3:1 vs_56_7:A 1.000000e-03
5 pgm_pp7_9_s3:1 vs_48_7:A 1.000000e-03
*END

*D_NET pgm_pp8_10_s0 3.421757e-03
*CONN
*I lt_pp8_10_s0:Z O
*I vs_14_8:A I
*CAP
1 pgm_pp8_10_s0:1 3.421757e-03
*RES
1 lt_pp8_10_s0:Z pgm_pp8_10_s0:1 3.882948e+00
2 pgm_pp8_10_s0:1 vs_14_8:A 1.000000e-03
*END

*D_NET pgm_pp8_10_s1 1.499082e-02
*CONN
*I lt_pp8_10_s1:Z O
*I vs_25_8:A I
*I vs_18_8:A I
*CAP
1 pgm_pp8_10_s1:1 1.499082e-02
*RES
1 lt_pp8_10_s1:Z pgm_pp8_10_s1:1 1.577092e+01
2 pgm_pp8_10_s1:1 vs_25_8:A 1.000000e-03
3 pgm_pp8_10_s1:1 vs_18_8:A 1.000000e-03
*END

*D_NET pgm_pp8_10_s3 2.172445e-02
*CONN
*I lt_pp8_10_s3:Z O
*I vs_61_8:A I
*I vs_59_8:A I
*I vs_54_8:A I
*I vs_48_8:A I
*CAP
1 pgm_pp8_10_s3:1 2.172445e-02
*RES
1 lt_pp8_10_s3:Z pgm_pp8_10_s3:1 2.465252e+01
2 pgm_pp8_10_s3:1 vs_61_8:A 1.000000e-03
3 pgm_pp8_10_s3:1 vs_59_8:A 1.000000e-03
4 pgm_pp8_10_s3:1 vs_54_8:A 1.000000e-03
5 pgm_pp8_10_s3:1 vs_48_8:A 1.000000e-03
*END

*D_NET pgm_pp8_11_s0 1.333554e-02
*CONN
*I lt_pp8_11_s0:Z O
*I vs_4_8:A I
*CAP
1 pgm_pp8_11_s0:1 1.333554e-02
*RES
1 lt_pp8_11_s0:Z pgm_pp8_11_s0:1 1.356075e+01
2 pgm_pp8_11_s0:1 vs_4_8:A 1.000000e-03
*END

*D_NET pgm_pp8_11_s1 9.254320e-03
*CONN
*I lt_pp8_11_s1:Z O
*I vs_24_8:A I
*CAP
1 pgm_pp8_11_s1:1 9.254320e-03
*RES
1 lt_pp8_11_s1:Z pgm_pp8_11_s1:1 8.353545e+00
2 pgm_pp8_11_s1:1 vs_24_8:A 1.000000e-03
*END

*D_NET pgm_pp8_11_s2 1.910201e-02
*CONN
*I lt_pp8_11_s2:Z O
*I vs_38_8:A I
*I vs_32_8:A I
*CAP
1 pgm_pp8_11_s2:1 1.910201e-02
*RES
1 lt_pp8_11_s2:Z pgm_pp8_11_s2:1 2.053638e+01
2 pgm_pp8_11_s2:1 vs_38_8:A 1.000000e-03
3 pgm_pp8_11_s2:1 vs_32_8:A 1.000000e-03
*END

*D_NET pgm_pp8_11_s3 6.457801e-03
*CONN
*I lt_pp8_11_s3:Z O
*I vs_57_8:A I
*CAP
1 pgm_pp8_11_s3:1 6.457801e-03
*RES
1 lt_pp8_11_s3:Z pgm_pp8_11_s3:1 6.187961e+00
2 pgm_pp8_11_s3:1 vs_57_8:A 1.000000e-03
*END

*D_NET pgm_pp8_12_s0 1.872338e-02
*CONN
*I lt_pp8_12_s0:Z O
*I vs_15_8:A I
*I vs_12_8:A I
*I vs_9_8:A I
*I vs_8_8:A I
*I vs_3_8:A I
*CAP
1 pgm_pp8_12_s0:1 1.872338e-02
*RES
1 lt_pp8_12_s0:Z pgm_pp8_12_s0:1 2.124696e+01
2 pgm_pp8_12_s0:1 vs_15_8:A 1.000000e-03
3 pgm_pp8_12_s0:1 vs_12_8:A 1.000000e-03
4 pgm_pp8_12_s0:1 vs_9_8:A 1.000000e-03
5 pgm_pp8_12_s0:1 vs_8_8:A 1.000000e-03
6 pgm_pp8_12_s0:1 vs_3_8:A 1.000000e-03
*END

*D_NET pgm_pp8_12_s1 7.684881e-03
*CONN
*I lt_pp8_12_s1:Z O
*I vs_26_8:A I
*CAP
1 pgm_pp8_12_s1:1 7.684881e-03
*RES
1 lt_pp8_12_s1:Z pgm_pp8_12_s1:1 8.720665e+00
2 pgm_pp8_12_s1:1 vs_26_8:A 1.000000e-03
*END

*D_NET pgm_pp8_12_s2 9.835699e-03
*CONN
*I lt_pp8_12_s2:Z O
*I vs_47_8:A I
*I vs_41_8:A I
*CAP
1 pgm_pp8_12_s2:1 9.835699e-03
*RES
1 lt_pp8_12_s2:Z pgm_pp8_12_s2:1 1.116138e+01
2 pgm_pp8_12_s2:1 vs_47_8:A 1.000000e-03
3 pgm_pp8_12_s2:1 vs_41_8:A 1.000000e-03
*END

*D_NET pgm_pp8_12_s3 1.643185e-02
*CONN
*I lt_pp8_12_s3:Z O
*I vs_53_8:A I
*I vs_51_8:A I
*CAP
1 pgm_pp8_12_s3:1 1.643185e-02
*RES
1 lt_pp8_12_s3:Z pgm_pp8_12_s3:1 1.721838e+01
2 pgm_pp8_12_s3:1 vs_53_8:A 1.000000e-03
3 pgm_pp8_12_s3:1 vs_51_8:A 1.000000e-03
*END

*D_NET pgm_pp8_3_s0 1.008455e-02
*CONN
*I lt_pp8_3_s0:Z O
*I vs_11_8:A I
*CAP
1 pgm_pp8_3_s0:1 1.008455e-02
*RES
1 lt_pp8_3_s0:Z pgm_pp8_3_s0:1 1.144377e+01
2 pgm_pp8_3_s0:1 vs_11_8:A 1.000000e-03
*END

*D_NET pgm_pp8_3_s1 5.249656e-03
*CONN
*I lt_pp8_3_s1:Z O
*I vs_23_8:A I
*CAP
1 pgm_pp8_3_s1:1 5.249656e-03
*RES
1 lt_pp8_3_s1:Z pgm_pp8_3_s1:1 5.957216e+00
2 pgm_pp8_3_s1:1 vs_23_8:A 1.000000e-03
*END

*D_NET pgm_pp8_3_s3 2.328572e-03
*CONN
*I lt_pp8_3_s3:Z O
*I vs_50_8:A I
*CAP
1 pgm_pp8_3_s3:1 2.328572e-03
*RES
1 lt_pp8_3_s3:Z pgm_pp8_3_s3:1 2.642422e+00
2 pgm_pp8_3_s3:1 vs_50_8:A 1.000000e-03
*END

*D_NET pgm_pp8_5_s2 2.690004e-03
*CONN
*I lt_pp8_5_s2:Z O
*I vs_36_8:A I
*CAP
1 pgm_pp8_5_s2:1 2.690004e-03
*RES
1 lt_pp8_5_s2:Z pgm_pp8_5_s2:1 3.052569e+00
2 pgm_pp8_5_s2:1 vs_36_8:A 1.000000e-03
*END

*D_NET pgm_pp8_5_s3 2.690004e-03
*CONN
*I lt_pp8_5_s3:Z O
*I vs_52_8:A I
*CAP
1 pgm_pp8_5_s3:1 2.690004e-03
*RES
1 lt_pp8_5_s3:Z pgm_pp8_5_s3:1 3.052569e+00
2 pgm_pp8_5_s3:1 vs_52_8:A 1.000000e-03
*END

*D_NET pgm_pp8_7_s1 5.658490e-03
*CONN
*I lt_pp8_7_s1:Z O
*I vs_28_8:A I
*CAP
1 pgm_pp8_7_s1:1 5.658490e-03
*RES
1 lt_pp8_7_s1:Z pgm_pp8_7_s1:1 6.421153e+00
2 pgm_pp8_7_s1:1 vs_28_8:A 1.000000e-03
*END

*D_NET pgm_pp8_7_s2 1.401291e-03
*CONN
*I lt_pp8_7_s2:Z O
*I vs_40_8:A I
*CAP
1 pgm_pp8_7_s2:1 1.401291e-03
*RES
1 lt_pp8_7_s2:Z pgm_pp8_7_s2:1 1.590160e+00
2 pgm_pp8_7_s2:1 vs_40_8:A 1.000000e-03
*END

*D_NET pgm_pp8_7_s3 7.990024e-03
*CONN
*I lt_pp8_7_s3:Z O
*I vs_62_8:A I
*CAP
1 pgm_pp8_7_s3:1 7.990024e-03
*RES
1 lt_pp8_7_s3:Z pgm_pp8_7_s3:1 9.066936e+00
2 pgm_pp8_7_s3:1 vs_62_8:A 1.000000e-03
*END

*D_NET pgm_pp8_8_s2 9.625357e-03
*CONN
*I lt_pp8_8_s2:Z O
*I vs_34_8:A I
*CAP
1 pgm_pp8_8_s2:1 9.625357e-03
*RES
1 lt_pp8_8_s2:Z pgm_pp8_8_s2:1 1.092268e+01
2 pgm_pp8_8_s2:1 vs_34_8:A 1.000000e-03
*END

*D_NET pgm_pp8_9_s0 5.566650e-03
*CONN
*I lt_pp8_9_s0:Z O
*I vs_7_8:A I
*CAP
1 pgm_pp8_9_s0:1 5.566650e-03
*RES
1 lt_pp8_9_s0:Z pgm_pp8_9_s0:1 6.316935e+00
2 pgm_pp8_9_s0:1 vs_7_8:A 1.000000e-03
*END

*D_NET pgm_pp8_9_s1 5.845131e-03
*CONN
*I lt_pp8_9_s1:Z O
*I vs_30_8:A I
*I vs_27_8:A I
*CAP
1 pgm_pp8_9_s1:1 5.845131e-03
*RES
1 lt_pp8_9_s1:Z pgm_pp8_9_s1:1 6.632950e+00
2 pgm_pp8_9_s1:1 vs_30_8:A 1.000000e-03
3 pgm_pp8_9_s1:1 vs_27_8:A 1.000000e-03
*END

*D_NET pgm_pp8_9_s2 1.385886e-02
*CONN
*I lt_pp8_9_s2:Z O
*I vs_33_8:A I
*CAP
1 pgm_pp8_9_s2:1 1.385886e-02
*RES
1 lt_pp8_9_s2:Z pgm_pp8_9_s2:1 1.572678e+01
2 pgm_pp8_9_s2:1 vs_33_8:A 1.000000e-03
*END

*D_NET pgm_pp8_9_s3 1.467652e-02
*CONN
*I lt_pp8_9_s3:Z O
*I vs_58_8:A I
*I vs_49_8:A I
*CAP
1 pgm_pp8_9_s3:1 1.467652e-02
*RES
1 lt_pp8_9_s3:Z pgm_pp8_9_s3:1 1.665465e+01
2 pgm_pp8_9_s3:1 vs_58_8:A 1.000000e-03
3 pgm_pp8_9_s3:1 vs_49_8:A 1.000000e-03
*END

*D_NET pgm_pp9_0_s2 1.696260e-02
*CONN
*I lt_pp9_0_s2:Z O
*I vs_43_9:A I
*CAP
1 pgm_pp9_0_s2:1 1.696260e-02
*RES
1 lt_pp9_0_s2:Z pgm_pp9_0_s2:1 1.796463e+01
2 pgm_pp9_0_s2:1 vs_43_9:A 1.000000e-03
*END

*D_NET pgm_pp9_0_s3 9.765957e-03
*CONN
*I lt_pp9_0_s3:Z O
*I vs_53_9:A I
*CAP
1 pgm_pp9_0_s3:1 9.765957e-03
*RES
1 lt_pp9_0_s3:Z pgm_pp9_0_s3:1 8.646183e+00
2 pgm_pp9_0_s3:1 vs_53_9:A 1.000000e-03
*END

*D_NET pgm_pp9_10_s0 2.006514e-02
*CONN
*I lt_pp9_10_s0:Z O
*I vs_14_9:A I
*I vs_1_9:A I
*CAP
1 pgm_pp9_10_s0:1 2.006514e-02
*RES
1 lt_pp9_10_s0:Z pgm_pp9_10_s0:1 2.077125e+01
2 pgm_pp9_10_s0:1 vs_14_9:A 1.000000e-03
3 pgm_pp9_10_s0:1 vs_1_9:A 1.000000e-03
*END

*D_NET pgm_pp9_10_s2 2.213032e-03
*CONN
*I lt_pp9_10_s2:Z O
*I vs_45_9:A I
*CAP
1 pgm_pp9_10_s2:1 2.213032e-03
*RES
1 lt_pp9_10_s2:Z pgm_pp9_10_s2:1 2.511309e+00
2 pgm_pp9_10_s2:1 vs_45_9:A 1.000000e-03
*END

*D_NET pgm_pp9_10_s3 1.728374e-02
*CONN
*I lt_pp9_10_s3:Z O
*I vs_60_9:A I
*I vs_51_9:A I
*CAP
1 pgm_pp9_10_s3:1 1.728374e-02
*RES
1 lt_pp9_10_s3:Z pgm_pp9_10_s3:1 1.776475e+01
2 pgm_pp9_10_s3:1 vs_60_9:A 1.000000e-03
3 pgm_pp9_10_s3:1 vs_51_9:A 1.000000e-03
*END

*D_NET pgm_pp9_11_s0 1.276301e-02
*CONN
*I lt_pp9_11_s0:Z O
*I vs_4_9:A I
*CAP
1 pgm_pp9_11_s0:1 1.276301e-02
*RES
1 lt_pp9_11_s0:Z pgm_pp9_11_s0:1 1.363096e+01
2 pgm_pp9_11_s0:1 vs_4_9:A 1.000000e-03
*END

*D_NET pgm_pp9_11_s1 3.996493e-03
*CONN
*I lt_pp9_11_s1:Z O
*I vs_27_9:A I
*CAP
1 pgm_pp9_11_s1:1 3.996493e-03
*RES
1 lt_pp9_11_s1:Z pgm_pp9_11_s1:1 4.535149e+00
2 pgm_pp9_11_s1:1 vs_27_9:A 1.000000e-03
*END

*D_NET pgm_pp9_11_s2 1.680957e-02
*CONN
*I lt_pp9_11_s2:Z O
*I vs_33_9:A I
*CAP
1 pgm_pp9_11_s2:1 1.680957e-02
*RES
1 lt_pp9_11_s2:Z pgm_pp9_11_s2:1 1.907519e+01
2 pgm_pp9_11_s2:1 vs_33_9:A 1.000000e-03
*END

*D_NET pgm_pp9_11_s3 1.705992e-02
*CONN
*I lt_pp9_11_s3:Z O
*I vs_57_9:A I
*I vs_52_9:A I
*I vs_50_9:A I
*CAP
1 pgm_pp9_11_s3:1 1.705992e-02
*RES
1 lt_pp9_11_s3:Z pgm_pp9_11_s3:1 1.793109e+01
2 pgm_pp9_11_s3:1 vs_57_9:A 1.000000e-03
3 pgm_pp9_11_s3:1 vs_52_9:A 1.000000e-03
4 pgm_pp9_11_s3:1 vs_50_9:A 1.000000e-03
*END

*D_NET pgm_pp9_12_s0 1.374628e-02
*CONN
*I lt_pp9_12_s0:Z O
*I vs_12_9:A I
*I vs_10_9:A I
*I vs_8_9:A I
*I vs_6_9:A I
*CAP
1 pgm_pp9_12_s0:1 1.374628e-02
*RES
1 lt_pp9_12_s0:Z pgm_pp9_12_s0:1 1.559903e+01
2 pgm_pp9_12_s0:1 vs_12_9:A 1.000000e-03
3 pgm_pp9_12_s0:1 vs_10_9:A 1.000000e-03
4 pgm_pp9_12_s0:1 vs_8_9:A 1.000000e-03
5 pgm_pp9_12_s0:1 vs_6_9:A 1.000000e-03
*END

*D_NET pgm_pp9_12_s1 1.678382e-02
*CONN
*I lt_pp9_12_s1:Z O
*I vs_23_9:A I
*I vs_21_9:A I
*CAP
1 pgm_pp9_12_s1:1 1.678382e-02
*RES
1 lt_pp9_12_s1:Z pgm_pp9_12_s1:1 1.646595e+01
2 pgm_pp9_12_s1:1 vs_23_9:A 1.000000e-03
3 pgm_pp9_12_s1:1 vs_21_9:A 1.000000e-03
*END

*D_NET pgm_pp9_12_s2 1.256942e-02
*CONN
*I lt_pp9_12_s2:Z O
*I vs_41_9:A I
*I vs_39_9:A I
*CAP
1 pgm_pp9_12_s2:1 1.256942e-02
*RES
1 lt_pp9_12_s2:Z pgm_pp9_12_s2:1 1.211547e+01
2 pgm_pp9_12_s2:1 vs_41_9:A 1.000000e-03
3 pgm_pp9_12_s2:1 vs_39_9:A 1.000000e-03
*END

*D_NET pgm_pp9_3_s3 1.408105e-02
*CONN
*I lt_pp9_3_s3:Z O
*I vs_59_9:A I
*I vs_49_9:A I
*CAP
1 pgm_pp9_3_s3:1 1.408105e-02
*RES
1 lt_pp9_3_s3:Z pgm_pp9_3_s3:1 1.597892e+01
2 pgm_pp9_3_s3:1 vs_59_9:A 1.000000e-03
3 pgm_pp9_3_s3:1 vs_49_9:A 1.000000e-03
*END

*D_NET pgm_pp9_5_s0 5.702928e-03
*CONN
*I lt_pp9_5_s0:Z O
*I vs_2_9:A I
*CAP
1 pgm_pp9_5_s0:1 5.702928e-03
*RES
1 lt_pp9_5_s0:Z pgm_pp9_5_s0:1 6.471581e+00
2 pgm_pp9_5_s0:1 vs_2_9:A 1.000000e-03
*END

*D_NET pgm_pp9_6_s0 6.967941e-03
*CONN
*I lt_pp9_6_s0:Z O
*I vs_3_9:A I
*CAP
1 pgm_pp9_6_s0:1 6.967941e-03
*RES
1 lt_pp9_6_s0:Z pgm_pp9_6_s0:1 7.907095e+00
2 pgm_pp9_6_s0:1 vs_3_9:A 1.000000e-03
*END

*D_NET pgm_pp9_6_s2 6.242114e-03
*CONN
*I lt_pp9_6_s2:Z O
*I vs_35_9:A I
*CAP
1 pgm_pp9_6_s2:1 6.242114e-03
*RES
1 lt_pp9_6_s2:Z pgm_pp9_6_s2:1 7.083439e+00
2 pgm_pp9_6_s2:1 vs_35_9:A 1.000000e-03
*END

*D_NET pgm_pp9_7_s3 4.541604e-03
*CONN
*I lt_pp9_7_s3:Z O
*I vs_54_9:A I
*CAP
1 pgm_pp9_7_s3:1 4.541604e-03
*RES
1 lt_pp9_7_s3:Z pgm_pp9_7_s3:1 5.153731e+00
2 pgm_pp9_7_s3:1 vs_54_9:A 1.000000e-03
*END

*D_NET pgm_pp9_9_s1 2.104572e-02
*CONN
*I lt_pp9_9_s1:Z O
*I vs_30_9:A I
*I vs_26_9:A I
*I vs_16_9:A I
*CAP
1 pgm_pp9_9_s1:1 2.104572e-02
*RES
1 lt_pp9_9_s1:Z pgm_pp9_9_s1:1 2.150167e+01
2 pgm_pp9_9_s1:1 vs_30_9:A 1.000000e-03
3 pgm_pp9_9_s1:1 vs_26_9:A 1.000000e-03
4 pgm_pp9_9_s1:1 vs_16_9:A 1.000000e-03
*END

*D_NET pgm_pp9_9_s2 2.156744e-03
*CONN
*I lt_pp9_9_s2:Z O
*I vs_44_9:A I
*CAP
1 pgm_pp9_9_s2:1 2.156744e-03
*RES
1 lt_pp9_9_s2:Z pgm_pp9_9_s2:1 2.447434e+00
2 pgm_pp9_9_s2:1 vs_44_9:A 1.000000e-03
*END

