*SPEF "ieee 1481-1999"
*DESIGN "top"
*DATE "r3"
*VENDOR "r3_prog_spef"
*PROGRAM "r3_prog_spef.py"
*VERSION "1"
*DESIGN_FLOW "NAME_SCOPE LOCAL" "PIN_CAP NONE"
*DIVIDER /
*DELIMITER :
*BUS_DELIMITER []
*T_UNIT 1 NS
*C_UNIT 1 PF
*R_UNIT 1 OHM
*L_UNIT 1 HENRY

*D_NET pgm_pn0_10_s0 1.662057e-02
*CONN
*I lt_pn0_10_s0:Z O
*I vs_2_0:A I
*CAP
1 pgm_pn0_10_s0:1 1.662057e-02
*RES
1 lt_pn0_10_s0:Z pgm_pn0_10_s0:1 1.714457e+01
2 pgm_pn0_10_s0:1 vs_2_0:A 1.000000e-03
*END

*D_NET pgm_pn0_10_s2 1.652608e-02
*CONN
*I lt_pn0_10_s2:Z O
*I vs_43_0:A I
*I vs_37_0:A I
*I vs_36_0:A I
*CAP
1 pgm_pn0_10_s2:1 1.652608e-02
*RES
1 lt_pn0_10_s2:Z pgm_pn0_10_s2:1 1.618507e+01
2 pgm_pn0_10_s2:1 vs_43_0:A 1.000000e-03
3 pgm_pn0_10_s2:1 vs_37_0:A 1.000000e-03
4 pgm_pn0_10_s2:1 vs_36_0:A 1.000000e-03
*END

*D_NET pgm_pn0_10_s3 1.917920e-02
*CONN
*I lt_pn0_10_s3:Z O
*I vs_55_0:A I
*I vs_49_0:A I
*CAP
1 pgm_pn0_10_s3:1 1.917920e-02
*RES
1 lt_pn0_10_s3:Z pgm_pn0_10_s3:1 1.876385e+01
2 pgm_pn0_10_s3:1 vs_55_0:A 1.000000e-03
3 pgm_pn0_10_s3:1 vs_49_0:A 1.000000e-03
*END

*D_NET pgm_pn0_11_s1 7.342720e-03
*CONN
*I lt_pn0_11_s1:Z O
*I vs_29_0:A I
*I vs_26_0:A I
*CAP
1 pgm_pn0_11_s1:1 7.342720e-03
*RES
1 lt_pn0_11_s1:Z pgm_pn0_11_s1:1 6.904193e+00
2 pgm_pn0_11_s1:1 vs_29_0:A 1.000000e-03
3 pgm_pn0_11_s1:1 vs_26_0:A 1.000000e-03
*END

*D_NET pgm_pn0_11_s2 1.971468e-02
*CONN
*I lt_pn0_11_s2:Z O
*I vs_42_0:A I
*I vs_41_0:A I
*I vs_35_0:A I
*CAP
1 pgm_pn0_11_s2:1 1.971468e-02
*RES
1 lt_pn0_11_s2:Z pgm_pn0_11_s2:1 2.009139e+01
2 pgm_pn0_11_s2:1 vs_42_0:A 1.000000e-03
3 pgm_pn0_11_s2:1 vs_41_0:A 1.000000e-03
4 pgm_pn0_11_s2:1 vs_35_0:A 1.000000e-03
*END

*D_NET pgm_pn0_11_s3 2.093940e-02
*CONN
*I lt_pn0_11_s3:Z O
*I vs_50_0:A I
*CAP
1 pgm_pn0_11_s3:1 2.093940e-02
*RES
1 lt_pn0_11_s3:Z pgm_pn0_11_s3:1 2.089367e+01
2 pgm_pn0_11_s3:1 vs_50_0:A 1.000000e-03
*END

*D_NET pgm_pn0_12_s0 2.542309e-02
*CONN
*I lt_pn0_12_s0:Z O
*I vs_13_0:A I
*I vs_0_0:A I
*CAP
1 pgm_pn0_12_s0:1 2.542309e-02
*RES
1 lt_pn0_12_s0:Z pgm_pn0_12_s0:1 2.641361e+01
2 pgm_pn0_12_s0:1 vs_13_0:A 1.000000e-03
3 pgm_pn0_12_s0:1 vs_0_0:A 1.000000e-03
*END

*D_NET pgm_pn0_12_s1 1.972769e-02
*CONN
*I lt_pn0_12_s1:Z O
*I vs_18_0:A I
*CAP
1 pgm_pn0_12_s1:1 1.972769e-02
*RES
1 lt_pn0_12_s1:Z pgm_pn0_12_s1:1 2.238663e+01
2 pgm_pn0_12_s1:1 vs_18_0:A 1.000000e-03
*END

*D_NET pgm_pn0_12_s3 1.521817e-02
*CONN
*I lt_pn0_12_s3:Z O
*I vs_54_0:A I
*CAP
1 pgm_pn0_12_s3:1 1.521817e-02
*RES
1 lt_pn0_12_s3:Z pgm_pn0_12_s3:1 1.519321e+01
2 pgm_pn0_12_s3:1 vs_54_0:A 1.000000e-03
*END

*D_NET pgm_pn0_1_s1 1.769537e-02
*CONN
*I lt_pn0_1_s1:Z O
*I vs_30_0:A I
*CAP
1 pgm_pn0_1_s1:1 1.769537e-02
*RES
1 lt_pn0_1_s1:Z pgm_pn0_1_s1:1 2.008039e+01
2 pgm_pn0_1_s1:1 vs_30_0:A 1.000000e-03
*END

*D_NET pgm_pn0_3_s0 8.176666e-04
*CONN
*I lt_pn0_3_s0:Z O
*I vs_4_0:A I
*CAP
1 pgm_pn0_3_s0:1 8.176666e-04
*RES
1 lt_pn0_3_s0:Z pgm_pn0_3_s0:1 9.278734e-01
2 pgm_pn0_3_s0:1 vs_4_0:A 1.000000e-03
*END

*D_NET pgm_pn0_6_s0 5.063015e-03
*CONN
*I lt_pn0_6_s0:Z O
*I vs_11_0:A I
*CAP
1 pgm_pn0_6_s0:1 5.063015e-03
*RES
1 lt_pn0_6_s0:Z pgm_pn0_6_s0:1 5.745419e+00
2 pgm_pn0_6_s0:1 vs_11_0:A 1.000000e-03
*END

*D_NET pgm_pn0_6_s1 8.058163e-04
*CONN
*I lt_pn0_6_s1:Z O
*I vs_23_0:A I
*CAP
1 pgm_pn0_6_s1:1 8.058163e-04
*RES
1 lt_pn0_6_s1:Z pgm_pn0_6_s1:1 9.144259e-01
2 pgm_pn0_6_s1:1 vs_23_0:A 1.000000e-03
*END

*D_NET pgm_pn0_6_s2 1.085186e-02
*CONN
*I lt_pn0_6_s2:Z O
*I vs_33_0:A I
*CAP
1 pgm_pn0_6_s2:1 1.085186e-02
*RES
1 lt_pn0_6_s2:Z pgm_pn0_6_s2:1 1.231449e+01
2 pgm_pn0_6_s2:1 vs_33_0:A 1.000000e-03
*END

*D_NET pgm_pn0_8_s0 8.053292e-03
*CONN
*I lt_pn0_8_s0:Z O
*I vs_14_0:A I
*CAP
1 pgm_pn0_8_s0:1 8.053292e-03
*RES
1 lt_pn0_8_s0:Z pgm_pn0_8_s0:1 7.566558e+00
2 pgm_pn0_8_s0:1 vs_14_0:A 1.000000e-03
*END

*D_NET pgm_pn0_8_s1 1.233314e-02
*CONN
*I lt_pn0_8_s1:Z O
*I vs_27_0:A I
*I vs_19_0:A I
*CAP
1 pgm_pn0_8_s1:1 1.233314e-02
*RES
1 lt_pn0_8_s1:Z pgm_pn0_8_s1:1 1.399542e+01
2 pgm_pn0_8_s1:1 vs_27_0:A 1.000000e-03
3 pgm_pn0_8_s1:1 vs_19_0:A 1.000000e-03
*END

*D_NET pgm_pn0_8_s2 6.322103e-03
*CONN
*I lt_pn0_8_s2:Z O
*I vs_38_0:A I
*CAP
1 pgm_pn0_8_s2:1 6.322103e-03
*RES
1 lt_pn0_8_s2:Z pgm_pn0_8_s2:1 7.174209e+00
2 pgm_pn0_8_s2:1 vs_38_0:A 1.000000e-03
*END

*D_NET pgm_pn0_9_s2 2.084208e-02
*CONN
*I lt_pn0_9_s2:Z O
*I vs_47_0:A I
*I vs_34_0:A I
*CAP
1 pgm_pn0_9_s2:1 2.084208e-02
*RES
1 lt_pn0_9_s2:Z pgm_pn0_9_s2:1 2.093881e+01
2 pgm_pn0_9_s2:1 vs_47_0:A 1.000000e-03
3 pgm_pn0_9_s2:1 vs_34_0:A 1.000000e-03
*END

*D_NET pgm_pn0_9_s3 1.041044e-02
*CONN
*I lt_pn0_9_s3:Z O
*I vs_62_0:A I
*I vs_59_0:A I
*I vs_56_0:A I
*CAP
1 pgm_pn0_9_s3:1 1.041044e-02
*RES
1 lt_pn0_9_s3:Z pgm_pn0_9_s3:1 1.181358e+01
2 pgm_pn0_9_s3:1 vs_62_0:A 1.000000e-03
3 pgm_pn0_9_s3:1 vs_59_0:A 1.000000e-03
4 pgm_pn0_9_s3:1 vs_56_0:A 1.000000e-03
*END

*D_NET pgm_pn10_10_s0 1.964551e-02
*CONN
*I lt_pn10_10_s0:Z O
*I vs_1_10:A I
*CAP
1 pgm_pn10_10_s0:1 1.964551e-02
*RES
1 lt_pn10_10_s0:Z pgm_pn10_10_s0:1 1.871709e+01
2 pgm_pn10_10_s0:1 vs_1_10:A 1.000000e-03
*END

*D_NET pgm_pn10_10_s1 1.257535e-02
*CONN
*I lt_pn10_10_s1:Z O
*I vs_31_10:A I
*I vs_25_10:A I
*CAP
1 pgm_pn10_10_s1:1 1.257535e-02
*RES
1 lt_pn10_10_s1:Z pgm_pn10_10_s1:1 1.157757e+01
2 pgm_pn10_10_s1:1 vs_31_10:A 1.000000e-03
3 pgm_pn10_10_s1:1 vs_25_10:A 1.000000e-03
*END

*D_NET pgm_pn10_10_s3 8.490697e-03
*CONN
*I lt_pn10_10_s3:Z O
*I vs_63_10:A I
*I vs_58_10:A I
*CAP
1 pgm_pn10_10_s3:1 8.490697e-03
*RES
1 lt_pn10_10_s3:Z pgm_pn10_10_s3:1 9.635091e+00
2 pgm_pn10_10_s3:1 vs_63_10:A 1.000000e-03
3 pgm_pn10_10_s3:1 vs_58_10:A 1.000000e-03
*END

*D_NET pgm_pn10_11_s2 1.797194e-02
*CONN
*I lt_pn10_11_s2:Z O
*I vs_41_10:A I
*I vs_35_10:A I
*CAP
1 pgm_pn10_11_s2:1 1.797194e-02
*RES
1 lt_pn10_11_s2:Z pgm_pn10_11_s2:1 1.882207e+01
2 pgm_pn10_11_s2:1 vs_41_10:A 1.000000e-03
3 pgm_pn10_11_s2:1 vs_35_10:A 1.000000e-03
*END

*D_NET pgm_pn10_12_s0 1.949296e-02
*CONN
*I lt_pn10_12_s0:Z O
*I vs_6_10:A I
*I vs_5_10:A I
*CAP
1 pgm_pn10_12_s0:1 1.949296e-02
*RES
1 lt_pn10_12_s0:Z pgm_pn10_12_s0:1 1.710418e+01
2 pgm_pn10_12_s0:1 vs_6_10:A 1.000000e-03
3 pgm_pn10_12_s0:1 vs_5_10:A 1.000000e-03
*END

*D_NET pgm_pn10_12_s1 2.052758e-02
*CONN
*I lt_pn10_12_s1:Z O
*I vs_17_10:A I
*CAP
1 pgm_pn10_12_s1:1 2.052758e-02
*RES
1 lt_pn10_12_s1:Z pgm_pn10_12_s1:1 2.329433e+01
2 pgm_pn10_12_s1:1 vs_17_10:A 1.000000e-03
*END

*D_NET pgm_pn10_12_s2 2.533878e-02
*CONN
*I lt_pn10_12_s2:Z O
*I vs_46_10:A I
*I vs_32_10:A I
*CAP
1 pgm_pn10_12_s2:1 2.533878e-02
*RES
1 lt_pn10_12_s2:Z pgm_pn10_12_s2:1 2.875399e+01
2 pgm_pn10_12_s2:1 vs_46_10:A 1.000000e-03
3 pgm_pn10_12_s2:1 vs_32_10:A 1.000000e-03
*END

*D_NET pgm_pn10_12_s3 1.541124e-02
*CONN
*I lt_pn10_12_s3:Z O
*I vs_54_10:A I
*CAP
1 pgm_pn10_12_s3:1 1.541124e-02
*RES
1 lt_pn10_12_s3:Z pgm_pn10_12_s3:1 1.748840e+01
2 pgm_pn10_12_s3:1 vs_54_10:A 1.000000e-03
*END

*D_NET pgm_pn10_3_s0 1.364259e-02
*CONN
*I lt_pn10_3_s0:Z O
*I vs_13_10:A I
*CAP
1 pgm_pn10_3_s0:1 1.364259e-02
*RES
1 lt_pn10_3_s0:Z pgm_pn10_3_s0:1 1.548137e+01
2 pgm_pn10_3_s0:1 vs_13_10:A 1.000000e-03
*END

*D_NET pgm_pn10_3_s1 1.147474e-02
*CONN
*I lt_pn10_3_s1:Z O
*I vs_27_10:A I
*CAP
1 pgm_pn10_3_s1:1 1.147474e-02
*RES
1 lt_pn10_3_s1:Z pgm_pn10_3_s1:1 1.231304e+01
2 pgm_pn10_3_s1:1 vs_27_10:A 1.000000e-03
*END

*D_NET pgm_pn10_3_s2 1.116293e-02
*CONN
*I lt_pn10_3_s2:Z O
*I vs_44_10:A I
*CAP
1 pgm_pn10_3_s2:1 1.116293e-02
*RES
1 lt_pn10_3_s2:Z pgm_pn10_3_s2:1 1.266749e+01
2 pgm_pn10_3_s2:1 vs_44_10:A 1.000000e-03
*END

*D_NET pgm_pn10_4_s0 1.359713e-02
*CONN
*I lt_pn10_4_s0:Z O
*I vs_14_10:A I
*CAP
1 pgm_pn10_4_s0:1 1.359713e-02
*RES
1 lt_pn10_4_s0:Z pgm_pn10_4_s0:1 1.414556e+01
2 pgm_pn10_4_s0:1 vs_14_10:A 1.000000e-03
*END

*D_NET pgm_pn10_5_s2 5.895494e-04
*CONN
*I lt_pn10_5_s2:Z O
*I vs_39_10:A I
*CAP
1 pgm_pn10_5_s2:1 5.895494e-04
*RES
1 lt_pn10_5_s2:Z pgm_pn10_5_s2:1 6.690101e-01
2 pgm_pn10_5_s2:1 vs_39_10:A 1.000000e-03
*END

*D_NET pgm_pn10_6_s0 6.322103e-03
*CONN
*I lt_pn10_6_s0:Z O
*I vs_12_10:A I
*CAP
1 pgm_pn10_6_s0:1 6.322103e-03
*RES
1 lt_pn10_6_s0:Z pgm_pn10_6_s0:1 7.174209e+00
2 pgm_pn10_6_s0:1 vs_12_10:A 1.000000e-03
*END

*D_NET pgm_pn10_9_s0 1.627038e-02
*CONN
*I lt_pn10_9_s0:Z O
*I vs_0_10:A I
*CAP
1 pgm_pn10_9_s0:1 1.627038e-02
*RES
1 lt_pn10_9_s0:Z pgm_pn10_9_s0:1 1.846334e+01
2 pgm_pn10_9_s0:1 vs_0_10:A 1.000000e-03
*END

*D_NET pgm_pn10_9_s1 8.846372e-03
*CONN
*I lt_pn10_9_s1:Z O
*I vs_23_10:A I
*CAP
1 pgm_pn10_9_s1:1 8.846372e-03
*RES
1 lt_pn10_9_s1:Z pgm_pn10_9_s1:1 8.178572e+00
2 pgm_pn10_9_s1:1 vs_23_10:A 1.000000e-03
*END

*D_NET pgm_pn10_9_s2 2.832207e-03
*CONN
*I lt_pn10_9_s2:Z O
*I vs_45_10:A I
*CAP
1 pgm_pn10_9_s2:1 2.832207e-03
*RES
1 lt_pn10_9_s2:Z pgm_pn10_9_s2:1 3.213938e+00
2 pgm_pn10_9_s2:1 vs_45_10:A 1.000000e-03
*END

*D_NET pgm_pn10_9_s3 1.583372e-02
*CONN
*I lt_pn10_9_s3:Z O
*I vs_60_10:A I
*I vs_51_10:A I
*CAP
1 pgm_pn10_9_s3:1 1.583372e-02
*RES
1 lt_pn10_9_s3:Z pgm_pn10_9_s3:1 1.568155e+01
2 pgm_pn10_9_s3:1 vs_60_10:A 1.000000e-03
3 pgm_pn10_9_s3:1 vs_51_10:A 1.000000e-03
*END

*D_NET pgm_pn11_10_s0 1.184431e-02
*CONN
*I lt_pn11_10_s0:Z O
*I vs_5_11:A I
*CAP
1 pgm_pn11_10_s0:1 1.184431e-02
*RES
1 lt_pn11_10_s0:Z pgm_pn11_10_s0:1 1.344072e+01
2 pgm_pn11_10_s0:1 vs_5_11:A 1.000000e-03
*END

*D_NET pgm_pn11_10_s1 6.417210e-03
*CONN
*I lt_pn11_10_s1:Z O
*I vs_25_11:A I
*CAP
1 pgm_pn11_10_s1:1 6.417210e-03
*RES
1 lt_pn11_10_s1:Z pgm_pn11_10_s1:1 6.429859e+00
2 pgm_pn11_10_s1:1 vs_25_11:A 1.000000e-03
*END

*D_NET pgm_pn11_10_s2 7.944563e-03
*CONN
*I lt_pn11_10_s2:Z O
*I vs_43_11:A I
*I vs_40_11:A I
*CAP
1 pgm_pn11_10_s2:1 7.944563e-03
*RES
1 lt_pn11_10_s2:Z pgm_pn11_10_s2:1 7.731133e+00
2 pgm_pn11_10_s2:1 vs_43_11:A 1.000000e-03
3 pgm_pn11_10_s2:1 vs_40_11:A 1.000000e-03
*END

*D_NET pgm_pn11_10_s3 3.646740e-03
*CONN
*I lt_pn11_10_s3:Z O
*I vs_59_11:A I
*CAP
1 pgm_pn11_10_s3:1 3.646740e-03
*RES
1 lt_pn11_10_s3:Z pgm_pn11_10_s3:1 2.753880e+00
2 pgm_pn11_10_s3:1 vs_59_11:A 1.000000e-03
*END

*D_NET pgm_pn11_11_s0 1.229490e-02
*CONN
*I lt_pn11_11_s0:Z O
*I vs_6_11:A I
*CAP
1 pgm_pn11_11_s0:1 1.229490e-02
*RES
1 lt_pn11_11_s0:Z pgm_pn11_11_s0:1 1.271163e+01
2 pgm_pn11_11_s0:1 vs_6_11:A 1.000000e-03
*END

*D_NET pgm_pn11_11_s1 1.384006e-02
*CONN
*I lt_pn11_11_s1:Z O
*I vs_30_11:A I
*I vs_29_11:A I
*I vs_23_11:A I
*I vs_22_11:A I
*CAP
1 pgm_pn11_11_s1:1 1.384006e-02
*RES
1 lt_pn11_11_s1:Z pgm_pn11_11_s1:1 1.442123e+01
2 pgm_pn11_11_s1:1 vs_30_11:A 1.000000e-03
3 pgm_pn11_11_s1:1 vs_29_11:A 1.000000e-03
4 pgm_pn11_11_s1:1 vs_23_11:A 1.000000e-03
5 pgm_pn11_11_s1:1 vs_22_11:A 1.000000e-03
*END

*D_NET pgm_pn11_11_s2 1.161000e-02
*CONN
*I lt_pn11_11_s2:Z O
*I vs_39_11:A I
*CAP
1 pgm_pn11_11_s2:1 1.161000e-02
*RES
1 lt_pn11_11_s2:Z pgm_pn11_11_s2:1 1.117071e+01
2 pgm_pn11_11_s2:1 vs_39_11:A 1.000000e-03
*END

*D_NET pgm_pn11_12_s2 1.662885e-02
*CONN
*I lt_pn11_12_s2:Z O
*I vs_36_11:A I
*CAP
1 pgm_pn11_12_s2:1 1.662885e-02
*RES
1 lt_pn11_12_s2:Z pgm_pn11_12_s2:1 1.887012e+01
2 pgm_pn11_12_s2:1 vs_36_11:A 1.000000e-03
*END

*D_NET pgm_pn11_1_s3 2.264308e-02
*CONN
*I lt_pn11_1_s3:Z O
*I vs_61_11:A I
*CAP
1 pgm_pn11_1_s3:1 2.264308e-02
*RES
1 lt_pn11_1_s3:Z pgm_pn11_1_s3:1 1.808725e+01
2 pgm_pn11_1_s3:1 vs_61_11:A 1.000000e-03
*END

*D_NET pgm_pn11_3_s1 6.005109e-03
*CONN
*I lt_pn11_3_s1:Z O
*I vs_16_11:A I
*CAP
1 pgm_pn11_3_s1:1 6.005109e-03
*RES
1 lt_pn11_3_s1:Z pgm_pn11_3_s1:1 6.814490e+00
2 pgm_pn11_3_s1:1 vs_16_11:A 1.000000e-03
*END

*D_NET pgm_pn11_3_s3 1.252274e-02
*CONN
*I lt_pn11_3_s3:Z O
*I vs_60_11:A I
*CAP
1 pgm_pn11_3_s3:1 1.252274e-02
*RES
1 lt_pn11_3_s3:Z pgm_pn11_3_s3:1 1.421058e+01
2 pgm_pn11_3_s3:1 vs_60_11:A 1.000000e-03
*END

*D_NET pgm_pn11_4_s0 9.943543e-03
*CONN
*I lt_pn11_4_s0:Z O
*I vs_11_11:A I
*CAP
1 pgm_pn11_4_s0:1 9.943543e-03
*RES
1 lt_pn11_4_s0:Z pgm_pn11_4_s0:1 1.071944e+01
2 pgm_pn11_4_s0:1 vs_11_11:A 1.000000e-03
*END

*D_NET pgm_pn11_7_s3 1.430916e-03
*CONN
*I lt_pn11_7_s3:Z O
*I vs_56_11:A I
*CAP
1 pgm_pn11_7_s3:1 1.430916e-03
*RES
1 lt_pn11_7_s3:Z pgm_pn11_7_s3:1 1.623778e+00
2 pgm_pn11_7_s3:1 vs_56_11:A 1.000000e-03
*END

*D_NET pgm_pn11_8_s2 6.689460e-03
*CONN
*I lt_pn11_8_s2:Z O
*I vs_38_11:A I
*CAP
1 pgm_pn11_8_s2:1 6.689460e-03
*RES
1 lt_pn11_8_s2:Z pgm_pn11_8_s2:1 7.591080e+00
2 pgm_pn11_8_s2:1 vs_38_11:A 1.000000e-03
*END

*D_NET pgm_pn11_9_s0 8.706964e-03
*CONN
*I lt_pn11_9_s0:Z O
*I vs_8_11:A I
*CAP
1 pgm_pn11_9_s0:1 8.706964e-03
*RES
1 lt_pn11_9_s0:Z pgm_pn11_9_s0:1 9.880507e+00
2 pgm_pn11_9_s0:1 vs_8_11:A 1.000000e-03
*END

*D_NET pgm_pn11_9_s1 1.617710e-02
*CONN
*I lt_pn11_9_s1:Z O
*I vs_28_11:A I
*I vs_21_11:A I
*I vs_18_11:A I
*CAP
1 pgm_pn11_9_s1:1 1.617710e-02
*RES
1 lt_pn11_9_s1:Z pgm_pn11_9_s1:1 1.296047e+01
2 pgm_pn11_9_s1:1 vs_28_11:A 1.000000e-03
3 pgm_pn11_9_s1:1 vs_21_11:A 1.000000e-03
4 pgm_pn11_9_s1:1 vs_18_11:A 1.000000e-03
*END

*D_NET pgm_pn11_9_s2 2.096900e-02
*CONN
*I lt_pn11_9_s2:Z O
*I vs_46_11:A I
*I vs_44_11:A I
*I vs_34_11:A I
*CAP
1 pgm_pn11_9_s2:1 2.096900e-02
*RES
1 lt_pn11_9_s2:Z pgm_pn11_9_s2:1 2.379525e+01
2 pgm_pn11_9_s2:1 vs_46_11:A 1.000000e-03
3 pgm_pn11_9_s2:1 vs_44_11:A 1.000000e-03
4 pgm_pn11_9_s2:1 vs_34_11:A 1.000000e-03
*END

*D_NET pgm_pn11_9_s3 1.128558e-02
*CONN
*I lt_pn11_9_s3:Z O
*I vs_53_11:A I
*CAP
1 pgm_pn11_9_s3:1 1.128558e-02
*RES
1 lt_pn11_9_s3:Z pgm_pn11_9_s3:1 1.224236e+01
2 pgm_pn11_9_s3:1 vs_53_11:A 1.000000e-03
*END

*D_NET pgm_pn12_0_s2 9.457103e-03
*CONN
*I lt_pn12_0_s2:Z O
*I vs_38_12:A I
*CAP
1 pgm_pn12_0_s2:1 9.457103e-03
*RES
1 lt_pn12_0_s2:Z pgm_pn12_0_s2:1 9.015598e+00
2 pgm_pn12_0_s2:1 vs_38_12:A 1.000000e-03
*END

*D_NET pgm_pn12_0_s3 2.057202e-02
*CONN
*I lt_pn12_0_s3:Z O
*I vs_63_12:A I
*CAP
1 pgm_pn12_0_s3:1 2.057202e-02
*RES
1 lt_pn12_0_s3:Z pgm_pn12_0_s3:1 2.334476e+01
2 pgm_pn12_0_s3:1 vs_63_12:A 1.000000e-03
*END

*D_NET pgm_pn12_10_s0 1.984997e-02
*CONN
*I lt_pn12_10_s0:Z O
*I vs_8_12:A I
*I vs_1_12:A I
*CAP
1 pgm_pn12_10_s0:1 1.984997e-02
*RES
1 lt_pn12_10_s0:Z pgm_pn12_10_s0:1 2.041486e+01
2 pgm_pn12_10_s0:1 vs_8_12:A 1.000000e-03
3 pgm_pn12_10_s0:1 vs_1_12:A 1.000000e-03
*END

*D_NET pgm_pn12_10_s1 1.979971e-02
*CONN
*I lt_pn12_10_s1:Z O
*I vs_17_12:A I
*CAP
1 pgm_pn12_10_s1:1 1.979971e-02
*RES
1 lt_pn12_10_s1:Z pgm_pn12_10_s1:1 1.988832e+01
2 pgm_pn12_10_s1:1 vs_17_12:A 1.000000e-03
*END

*D_NET pgm_pn12_10_s2 4.046857e-03
*CONN
*I lt_pn12_10_s2:Z O
*I vs_47_12:A I
*CAP
1 pgm_pn12_10_s2:1 4.046857e-03
*RES
1 lt_pn12_10_s2:Z pgm_pn12_10_s2:1 4.592301e+00
2 pgm_pn12_10_s2:1 vs_47_12:A 1.000000e-03
*END

*D_NET pgm_pn12_10_s3 1.390864e-02
*CONN
*I lt_pn12_10_s3:Z O
*I vs_52_12:A I
*CAP
1 pgm_pn12_10_s3:1 1.390864e-02
*RES
1 lt_pn12_10_s3:Z pgm_pn12_10_s3:1 1.464304e+01
2 pgm_pn12_10_s3:1 vs_52_12:A 1.000000e-03
*END

*D_NET pgm_pn12_11_s1 1.095749e-02
*CONN
*I lt_pn12_11_s1:Z O
*I vs_23_12:A I
*CAP
1 pgm_pn12_11_s1:1 1.095749e-02
*RES
1 lt_pn12_11_s1:Z pgm_pn12_11_s1:1 1.115014e+01
2 pgm_pn12_11_s1:1 vs_23_12:A 1.000000e-03
*END

*D_NET pgm_pn12_11_s3 6.392453e-03
*CONN
*I lt_pn12_11_s3:Z O
*I vs_59_12:A I
*CAP
1 pgm_pn12_11_s3:1 6.392453e-03
*RES
1 lt_pn12_11_s3:Z pgm_pn12_11_s3:1 4.717831e+00
2 pgm_pn12_11_s3:1 vs_59_12:A 1.000000e-03
*END

*D_NET pgm_pn12_12_s0 1.384939e-02
*CONN
*I lt_pn12_12_s0:Z O
*I vs_15_12:A I
*I vs_9_12:A I
*I vs_7_12:A I
*CAP
1 pgm_pn12_12_s0:1 1.384939e-02
*RES
1 lt_pn12_12_s0:Z pgm_pn12_12_s0:1 1.457580e+01
2 pgm_pn12_12_s0:1 vs_15_12:A 1.000000e-03
3 pgm_pn12_12_s0:1 vs_9_12:A 1.000000e-03
4 pgm_pn12_12_s0:1 vs_7_12:A 1.000000e-03
*END

*D_NET pgm_pn12_12_s1 1.285472e-02
*CONN
*I lt_pn12_12_s1:Z O
*I vs_30_12:A I
*I vs_24_12:A I
*CAP
1 pgm_pn12_12_s1:1 1.285472e-02
*RES
1 lt_pn12_12_s1:Z pgm_pn12_12_s1:1 1.272717e+01
2 pgm_pn12_12_s1:1 vs_30_12:A 1.000000e-03
3 pgm_pn12_12_s1:1 vs_24_12:A 1.000000e-03
*END

*D_NET pgm_pn12_12_s2 2.602656e-02
*CONN
*I lt_pn12_12_s2:Z O
*I vs_42_12:A I
*I vs_32_12:A I
*CAP
1 pgm_pn12_12_s2:1 2.602656e-02
*RES
1 lt_pn12_12_s2:Z pgm_pn12_12_s2:1 2.681047e+01
2 pgm_pn12_12_s2:1 vs_42_12:A 1.000000e-03
3 pgm_pn12_12_s2:1 vs_32_12:A 1.000000e-03
*END

*D_NET pgm_pn12_12_s3 1.119255e-02
*CONN
*I lt_pn12_12_s3:Z O
*I vs_60_12:A I
*I vs_57_12:A I
*CAP
1 pgm_pn12_12_s3:1 1.119255e-02
*RES
1 lt_pn12_12_s3:Z pgm_pn12_12_s3:1 1.270111e+01
2 pgm_pn12_12_s3:1 vs_60_12:A 1.000000e-03
3 pgm_pn12_12_s3:1 vs_57_12:A 1.000000e-03
*END

*D_NET pgm_pn12_2_s0 1.630001e-02
*CONN
*I lt_pn12_2_s0:Z O
*I vs_14_12:A I
*CAP
1 pgm_pn12_2_s0:1 1.630001e-02
*RES
1 lt_pn12_2_s0:Z pgm_pn12_2_s0:1 1.849695e+01
2 pgm_pn12_2_s0:1 vs_14_12:A 1.000000e-03
*END

*D_NET pgm_pn12_3_s1 3.501746e-03
*CONN
*I lt_pn12_3_s1:Z O
*I vs_18_12:A I
*CAP
1 pgm_pn12_3_s1:1 3.501746e-03
*RES
1 lt_pn12_3_s1:Z pgm_pn12_3_s1:1 3.973719e+00
2 pgm_pn12_3_s1:1 vs_18_12:A 1.000000e-03
*END

*D_NET pgm_pn12_3_s2 2.041204e-03
*CONN
*I lt_pn12_3_s2:Z O
*I vs_36_12:A I
*CAP
1 pgm_pn12_3_s2:1 2.041204e-03
*RES
1 lt_pn12_3_s2:Z pgm_pn12_3_s2:1 2.316322e+00
2 pgm_pn12_3_s2:1 vs_36_12:A 1.000000e-03
*END

*D_NET pgm_pn12_5_s0 9.536481e-03
*CONN
*I lt_pn12_5_s0:Z O
*I vs_12_12:A I
*I vs_10_12:A I
*CAP
1 pgm_pn12_5_s0:1 9.536481e-03
*RES
1 lt_pn12_5_s0:Z pgm_pn12_5_s0:1 1.082183e+01
2 pgm_pn12_5_s0:1 vs_12_12:A 1.000000e-03
3 pgm_pn12_5_s0:1 vs_10_12:A 1.000000e-03
*END

*D_NET pgm_pn12_5_s3 9.924576e-04
*CONN
*I lt_pn12_5_s3:Z O
*I vs_54_12:A I
*CAP
1 pgm_pn12_5_s3:1 9.924576e-04
*RES
1 lt_pn12_5_s3:Z pgm_pn12_5_s3:1 1.126223e+00
2 pgm_pn12_5_s3:1 vs_54_12:A 1.000000e-03
*END

*D_NET pgm_pn12_7_s0 1.095258e-02
*CONN
*I lt_pn12_7_s0:Z O
*I vs_2_12:A I
*CAP
1 pgm_pn12_7_s0:1 1.095258e-02
*RES
1 lt_pn12_7_s0:Z pgm_pn12_7_s0:1 1.242880e+01
2 pgm_pn12_7_s0:1 vs_2_12:A 1.000000e-03
*END

*D_NET pgm_pn12_8_s0 4.278616e-03
*CONN
*I lt_pn12_8_s0:Z O
*I vs_13_12:A I
*CAP
1 pgm_pn12_8_s0:1 4.278616e-03
*RES
1 lt_pn12_8_s0:Z pgm_pn12_8_s0:1 3.370763e+00
2 pgm_pn12_8_s0:1 vs_13_12:A 1.000000e-03
*END

*D_NET pgm_pn12_8_s1 8.603274e-03
*CONN
*I lt_pn12_8_s1:Z O
*I vs_20_12:A I
*CAP
1 pgm_pn12_8_s1:1 8.603274e-03
*RES
1 lt_pn12_8_s1:Z pgm_pn12_8_s1:1 9.762841e+00
2 pgm_pn12_8_s1:1 vs_20_12:A 1.000000e-03
*END

*D_NET pgm_pn12_8_s2 1.254348e-02
*CONN
*I lt_pn12_8_s2:Z O
*I vs_43_12:A I
*I vs_35_12:A I
*CAP
1 pgm_pn12_8_s2:1 1.254348e-02
*RES
1 lt_pn12_8_s2:Z pgm_pn12_8_s2:1 1.423412e+01
2 pgm_pn12_8_s2:1 vs_43_12:A 1.000000e-03
3 pgm_pn12_8_s2:1 vs_35_12:A 1.000000e-03
*END

*D_NET pgm_pn12_9_s0 1.811163e-02
*CONN
*I lt_pn12_9_s0:Z O
*I vs_4_12:A I
*I vs_0_12:A I
*CAP
1 pgm_pn12_9_s0:1 1.811163e-02
*RES
1 lt_pn12_9_s0:Z pgm_pn12_9_s0:1 1.912455e+01
2 pgm_pn12_9_s0:1 vs_4_12:A 1.000000e-03
3 pgm_pn12_9_s0:1 vs_0_12:A 1.000000e-03
*END

*D_NET pgm_pn12_9_s1 7.953893e-03
*CONN
*I lt_pn12_9_s1:Z O
*I vs_29_12:A I
*I vs_25_12:A I
*CAP
1 pgm_pn12_9_s1:1 7.953893e-03
*RES
1 lt_pn12_9_s1:Z pgm_pn12_9_s1:1 7.885700e+00
2 pgm_pn12_9_s1:1 vs_29_12:A 1.000000e-03
3 pgm_pn12_9_s1:1 vs_25_12:A 1.000000e-03
*END

*D_NET pgm_pn12_9_s2 1.028485e-02
*CONN
*I lt_pn12_9_s2:Z O
*I vs_40_12:A I
*CAP
1 pgm_pn12_9_s2:1 1.028485e-02
*RES
1 lt_pn12_9_s2:Z pgm_pn12_9_s2:1 9.378991e+00
2 pgm_pn12_9_s2:1 vs_40_12:A 1.000000e-03
*END

*D_NET pgm_pn12_9_s3 1.587932e-02
*CONN
*I lt_pn12_9_s3:Z O
*I vs_53_12:A I
*I vs_49_12:A I
*CAP
1 pgm_pn12_9_s3:1 1.587932e-02
*RES
1 lt_pn12_9_s3:Z pgm_pn12_9_s3:1 1.801957e+01
2 pgm_pn12_9_s3:1 vs_53_12:A 1.000000e-03
3 pgm_pn12_9_s3:1 vs_49_12:A 1.000000e-03
*END

*D_NET pgm_pn13_10_s1 1.950846e-02
*CONN
*I lt_pn13_10_s1:Z O
*I vs_31_13:A I
*I vs_30_13:A I
*I vs_19_13:A I
*CAP
1 pgm_pn13_10_s1:1 1.950846e-02
*RES
1 lt_pn13_10_s1:Z pgm_pn13_10_s1:1 2.213785e+01
2 pgm_pn13_10_s1:1 vs_31_13:A 1.000000e-03
3 pgm_pn13_10_s1:1 vs_30_13:A 1.000000e-03
4 pgm_pn13_10_s1:1 vs_19_13:A 1.000000e-03
*END

*D_NET pgm_pn13_10_s2 1.058523e-02
*CONN
*I lt_pn13_10_s2:Z O
*I vs_38_13:A I
*CAP
1 pgm_pn13_10_s2:1 1.058523e-02
*RES
1 lt_pn13_10_s2:Z pgm_pn13_10_s2:1 1.201193e+01
2 pgm_pn13_10_s2:1 vs_38_13:A 1.000000e-03
*END

*D_NET pgm_pn13_10_s3 1.095851e-02
*CONN
*I lt_pn13_10_s3:Z O
*I vs_58_13:A I
*I vs_54_13:A I
*CAP
1 pgm_pn13_10_s3:1 1.095851e-02
*RES
1 lt_pn13_10_s3:Z pgm_pn13_10_s3:1 1.243552e+01
2 pgm_pn13_10_s3:1 vs_58_13:A 1.000000e-03
3 pgm_pn13_10_s3:1 vs_54_13:A 1.000000e-03
*END

*D_NET pgm_pn13_11_s2 4.935793e-03
*CONN
*I lt_pn13_11_s2:Z O
*I vs_44_13:A I
*CAP
1 pgm_pn13_11_s2:1 4.935793e-03
*RES
1 lt_pn13_11_s2:Z pgm_pn13_11_s2:1 3.740917e+00
2 pgm_pn13_11_s2:1 vs_44_13:A 1.000000e-03
*END

*D_NET pgm_pn13_12_s0 3.383244e-03
*CONN
*I lt_pn13_12_s0:Z O
*I vs_15_13:A I
*I vs_14_13:A I
*CAP
1 pgm_pn13_12_s0:1 3.383244e-03
*RES
1 lt_pn13_12_s0:Z pgm_pn13_12_s0:1 3.839244e+00
2 pgm_pn13_12_s0:1 vs_15_13:A 1.000000e-03
3 pgm_pn13_12_s0:1 vs_14_13:A 1.000000e-03
*END

*D_NET pgm_pn13_12_s1 1.740047e-02
*CONN
*I lt_pn13_12_s1:Z O
*I vs_26_13:A I
*I vs_21_13:A I
*CAP
1 pgm_pn13_12_s1:1 1.740047e-02
*RES
1 lt_pn13_12_s1:Z pgm_pn13_12_s1:1 1.730970e+01
2 pgm_pn13_12_s1:1 vs_26_13:A 1.000000e-03
3 pgm_pn13_12_s1:1 vs_21_13:A 1.000000e-03
*END

*D_NET pgm_pn13_12_s2 2.086531e-02
*CONN
*I lt_pn13_12_s2:Z O
*I vs_45_13:A I
*I vs_36_13:A I
*CAP
1 pgm_pn13_12_s2:1 2.086531e-02
*RES
1 lt_pn13_12_s2:Z pgm_pn13_12_s2:1 2.367758e+01
2 pgm_pn13_12_s2:1 vs_45_13:A 1.000000e-03
3 pgm_pn13_12_s2:1 vs_36_13:A 1.000000e-03
*END

*D_NET pgm_pn13_12_s3 2.509527e-02
*CONN
*I lt_pn13_12_s3:Z O
*I vs_63_13:A I
*I vs_59_13:A I
*I vs_53_13:A I
*I vs_48_13:A I
*CAP
1 pgm_pn13_12_s3:1 2.509527e-02
*RES
1 lt_pn13_12_s3:Z pgm_pn13_12_s3:1 2.733742e+01
2 pgm_pn13_12_s3:1 vs_63_13:A 1.000000e-03
3 pgm_pn13_12_s3:1 vs_59_13:A 1.000000e-03
4 pgm_pn13_12_s3:1 vs_53_13:A 1.000000e-03
5 pgm_pn13_12_s3:1 vs_48_13:A 1.000000e-03
*END

*D_NET pgm_pn13_2_s0 2.213032e-03
*CONN
*I lt_pn13_2_s0:Z O
*I vs_2_13:A I
*CAP
1 pgm_pn13_2_s0:1 2.213032e-03
*RES
1 lt_pn13_2_s0:Z pgm_pn13_2_s0:1 2.511309e+00
2 pgm_pn13_2_s0:1 vs_2_13:A 1.000000e-03
*END

*D_NET pgm_pn13_4_s0 3.904654e-03
*CONN
*I lt_pn13_4_s0:Z O
*I vs_3_13:A I
*CAP
1 pgm_pn13_4_s0:1 3.904654e-03
*RES
1 lt_pn13_4_s0:Z pgm_pn13_4_s0:1 4.430931e+00
2 pgm_pn13_4_s0:1 vs_3_13:A 1.000000e-03
*END

*D_NET pgm_pn13_4_s1 7.169395e-03
*CONN
*I lt_pn13_4_s1:Z O
*I vs_22_13:A I
*I vs_18_13:A I
*CAP
1 pgm_pn13_4_s1:1 7.169395e-03
*RES
1 lt_pn13_4_s1:Z pgm_pn13_4_s1:1 8.135701e+00
2 pgm_pn13_4_s1:1 vs_22_13:A 1.000000e-03
3 pgm_pn13_4_s1:1 vs_18_13:A 1.000000e-03
*END

*D_NET pgm_pn13_4_s2 6.538370e-03
*CONN
*I lt_pn13_4_s2:Z O
*I vs_33_13:A I
*CAP
1 pgm_pn13_4_s2:1 6.538370e-03
*RES
1 lt_pn13_4_s2:Z pgm_pn13_4_s2:1 7.419625e+00
2 pgm_pn13_4_s2:1 vs_33_13:A 1.000000e-03
*END

*D_NET pgm_pn13_5_s1 8.825772e-03
*CONN
*I lt_pn13_5_s1:Z O
*I vs_27_13:A I
*CAP
1 pgm_pn13_5_s1:1 8.825772e-03
*RES
1 lt_pn13_5_s1:Z pgm_pn13_5_s1:1 9.163051e+00
2 pgm_pn13_5_s1:1 vs_27_13:A 1.000000e-03
*END

*D_NET pgm_pn13_5_s2 5.895494e-04
*CONN
*I lt_pn13_5_s2:Z O
*I vs_39_13:A I
*CAP
1 pgm_pn13_5_s2:1 5.895494e-04
*RES
1 lt_pn13_5_s2:Z pgm_pn13_5_s2:1 6.690101e-01
2 pgm_pn13_5_s2:1 vs_39_13:A 1.000000e-03
*END

*D_NET pgm_pn13_6_s0 1.173545e-02
*CONN
*I lt_pn13_6_s0:Z O
*I vs_6_13:A I
*I vs_0_13:A I
*CAP
1 pgm_pn13_6_s0:1 1.173545e-02
*RES
1 lt_pn13_6_s0:Z pgm_pn13_6_s0:1 1.260888e+01
2 pgm_pn13_6_s0:1 vs_6_13:A 1.000000e-03
3 pgm_pn13_6_s0:1 vs_0_13:A 1.000000e-03
*END

*D_NET pgm_pn13_6_s1 1.919739e-03
*CONN
*I lt_pn13_6_s1:Z O
*I vs_25_13:A I
*CAP
1 pgm_pn13_6_s1:1 1.919739e-03
*RES
1 lt_pn13_6_s1:Z pgm_pn13_6_s1:1 2.178485e+00
2 pgm_pn13_6_s1:1 vs_25_13:A 1.000000e-03
*END

*D_NET pgm_pn13_8_s0 7.853747e-03
*CONN
*I lt_pn13_8_s0:Z O
*I vs_5_13:A I
*CAP
1 pgm_pn13_8_s0:1 7.853747e-03
*RES
1 lt_pn13_8_s0:Z pgm_pn13_8_s0:1 8.912291e+00
2 pgm_pn13_8_s0:1 vs_5_13:A 1.000000e-03
*END

*D_NET pgm_pn13_9_s2 5.541927e-03
*CONN
*I lt_pn13_9_s2:Z O
*I vs_46_13:A I
*CAP
1 pgm_pn13_9_s2:1 5.541927e-03
*RES
1 lt_pn13_9_s2:Z pgm_pn13_9_s2:1 5.004664e+00
2 pgm_pn13_9_s2:1 vs_46_13:A 1.000000e-03
*END

*D_NET pgm_pn14_10_s0 2.020329e-03
*CONN
*I lt_pn14_10_s0:Z O
*I vs_12_14:A I
*CAP
1 pgm_pn14_10_s0:1 2.020329e-03
*RES
1 lt_pn14_10_s0:Z pgm_pn14_10_s0:1 1.296377e+00
2 pgm_pn14_10_s0:1 vs_12_14:A 1.000000e-03
*END

*D_NET pgm_pn14_10_s1 2.375489e-02
*CONN
*I lt_pn14_10_s1:Z O
*I vs_24_14:A I
*I vs_22_14:A I
*I vs_16_14:A I
*CAP
1 pgm_pn14_10_s1:1 2.375489e-02
*RES
1 lt_pn14_10_s1:Z pgm_pn14_10_s1:1 2.252806e+01
2 pgm_pn14_10_s1:1 vs_24_14:A 1.000000e-03
3 pgm_pn14_10_s1:1 vs_22_14:A 1.000000e-03
4 pgm_pn14_10_s1:1 vs_16_14:A 1.000000e-03
*END

*D_NET pgm_pn14_11_s0 7.095331e-03
*CONN
*I lt_pn14_11_s0:Z O
*I vs_10_14:A I
*CAP
1 pgm_pn14_11_s0:1 7.095331e-03
*RES
1 lt_pn14_11_s0:Z pgm_pn14_11_s0:1 8.051655e+00
2 pgm_pn14_11_s0:1 vs_10_14:A 1.000000e-03
*END

*D_NET pgm_pn14_11_s1 2.909845e-03
*CONN
*I lt_pn14_11_s1:Z O
*I vs_29_14:A I
*CAP
1 pgm_pn14_11_s1:1 2.909845e-03
*RES
1 lt_pn14_11_s1:Z pgm_pn14_11_s1:1 1.585887e+00
2 pgm_pn14_11_s1:1 vs_29_14:A 1.000000e-03
*END

*D_NET pgm_pn14_11_s3 5.794187e-03
*CONN
*I lt_pn14_11_s3:Z O
*I vs_61_14:A I
*I vs_59_14:A I
*CAP
1 pgm_pn14_11_s3:1 5.794187e-03
*RES
1 lt_pn14_11_s3:Z pgm_pn14_11_s3:1 5.434904e+00
2 pgm_pn14_11_s3:1 vs_61_14:A 1.000000e-03
3 pgm_pn14_11_s3:1 vs_59_14:A 1.000000e-03
*END

*D_NET pgm_pn14_12_s0 3.454513e-03
*CONN
*I lt_pn14_12_s0:Z O
*I vs_14_14:A I
*CAP
1 pgm_pn14_12_s0:1 3.454513e-03
*RES
1 lt_pn14_12_s0:Z pgm_pn14_12_s0:1 2.059987e+00
2 pgm_pn14_12_s0:1 vs_14_14:A 1.000000e-03
*END

*D_NET pgm_pn14_12_s1 1.988423e-02
*CONN
*I lt_pn14_12_s1:Z O
*I vs_18_14:A I
*CAP
1 pgm_pn14_12_s1:1 1.988423e-02
*RES
1 lt_pn14_12_s1:Z pgm_pn14_12_s1:1 2.204376e+01
2 pgm_pn14_12_s1:1 vs_18_14:A 1.000000e-03
*END

*D_NET pgm_pn14_12_s2 1.996469e-02
*CONN
*I lt_pn14_12_s2:Z O
*I vs_34_14:A I
*CAP
1 pgm_pn14_12_s2:1 1.996469e-02
*RES
1 lt_pn14_12_s2:Z pgm_pn14_12_s2:1 2.265557e+01
2 pgm_pn14_12_s2:1 vs_34_14:A 1.000000e-03
*END

*D_NET pgm_pn14_2_s3 1.693992e-02
*CONN
*I lt_pn14_2_s3:Z O
*I vs_63_14:A I
*CAP
1 pgm_pn14_2_s3:1 1.693992e-02
*RES
1 lt_pn14_2_s3:Z pgm_pn14_2_s3:1 1.922312e+01
2 pgm_pn14_2_s3:1 vs_63_14:A 1.000000e-03
*END

*D_NET pgm_pn14_3_s2 2.041204e-03
*CONN
*I lt_pn14_3_s2:Z O
*I vs_36_14:A I
*CAP
1 pgm_pn14_3_s2:1 2.041204e-03
*RES
1 lt_pn14_3_s2:Z pgm_pn14_3_s2:1 2.316322e+00
2 pgm_pn14_3_s2:1 vs_36_14:A 1.000000e-03
*END

*D_NET pgm_pn14_3_s3 1.587932e-03
*CONN
*I lt_pn14_3_s3:Z O
*I vs_52_14:A I
*CAP
1 pgm_pn14_3_s3:1 1.587932e-03
*RES
1 lt_pn14_3_s3:Z pgm_pn14_3_s3:1 1.801957e+00
2 pgm_pn14_3_s3:1 vs_52_14:A 1.000000e-03
*END

*D_NET pgm_pn14_4_s0 3.934280e-03
*CONN
*I lt_pn14_4_s0:Z O
*I vs_8_14:A I
*CAP
1 pgm_pn14_4_s0:1 3.934280e-03
*RES
1 lt_pn14_4_s0:Z pgm_pn14_4_s0:1 4.464550e+00
2 pgm_pn14_4_s0:1 vs_8_14:A 1.000000e-03
*END

*D_NET pgm_pn14_4_s2 5.329645e-03
*CONN
*I lt_pn14_4_s2:Z O
*I vs_41_14:A I
*CAP
1 pgm_pn14_4_s2:1 5.329645e-03
*RES
1 lt_pn14_4_s2:Z pgm_pn14_4_s2:1 6.047986e+00
2 pgm_pn14_4_s2:1 vs_41_14:A 1.000000e-03
*END

*D_NET pgm_pn14_6_s0 1.232721e-02
*CONN
*I lt_pn14_6_s0:Z O
*I vs_15_14:A I
*I vs_7_14:A I
*CAP
1 pgm_pn14_6_s0:1 1.232721e-02
*RES
1 lt_pn14_6_s0:Z pgm_pn14_6_s0:1 1.398870e+01
2 pgm_pn14_6_s0:1 vs_15_14:A 1.000000e-03
3 pgm_pn14_6_s0:1 vs_7_14:A 1.000000e-03
*END

*D_NET pgm_pn14_6_s2 4.846748e-03
*CONN
*I lt_pn14_6_s2:Z O
*I vs_37_14:A I
*CAP
1 pgm_pn14_6_s2:1 4.846748e-03
*RES
1 lt_pn14_6_s2:Z pgm_pn14_6_s2:1 5.500003e+00
2 pgm_pn14_6_s2:1 vs_37_14:A 1.000000e-03
*END

*D_NET pgm_pn14_7_s0 9.284663e-03
*CONN
*I lt_pn14_7_s0:Z O
*I vs_3_14:A I
*CAP
1 pgm_pn14_7_s0:1 9.284663e-03
*RES
1 lt_pn14_7_s0:Z pgm_pn14_7_s0:1 1.053607e+01
2 pgm_pn14_7_s0:1 vs_3_14:A 1.000000e-03
*END

*D_NET pgm_pn14_8_s0 4.766759e-03
*CONN
*I lt_pn14_8_s0:Z O
*I vs_13_14:A I
*CAP
1 pgm_pn14_8_s0:1 4.766759e-03
*RES
1 lt_pn14_8_s0:Z pgm_pn14_8_s0:1 5.409233e+00
2 pgm_pn14_8_s0:1 vs_13_14:A 1.000000e-03
*END

*D_NET pgm_pn14_8_s1 9.515743e-03
*CONN
*I lt_pn14_8_s1:Z O
*I vs_21_14:A I
*CAP
1 pgm_pn14_8_s1:1 9.515743e-03
*RES
1 lt_pn14_8_s1:Z pgm_pn14_8_s1:1 1.079829e+01
2 pgm_pn14_8_s1:1 vs_21_14:A 1.000000e-03
*END

*D_NET pgm_pn14_8_s2 1.859303e-02
*CONN
*I lt_pn14_8_s2:Z O
*I vs_46_14:A I
*I vs_35_14:A I
*CAP
1 pgm_pn14_8_s2:1 1.859303e-02
*RES
1 lt_pn14_8_s2:Z pgm_pn14_8_s2:1 2.109903e+01
2 pgm_pn14_8_s2:1 vs_46_14:A 1.000000e-03
3 pgm_pn14_8_s2:1 vs_35_14:A 1.000000e-03
*END

*D_NET pgm_pn14_8_s3 1.372258e-02
*CONN
*I lt_pn14_8_s3:Z O
*I vs_49_14:A I
*CAP
1 pgm_pn14_8_s3:1 1.372258e-02
*RES
1 lt_pn14_8_s3:Z pgm_pn14_8_s3:1 1.557214e+01
2 pgm_pn14_8_s3:1 vs_49_14:A 1.000000e-03
*END

*D_NET pgm_pn14_9_s2 6.947203e-03
*CONN
*I lt_pn14_9_s2:Z O
*I vs_39_14:A I
*CAP
1 pgm_pn14_9_s2:1 6.947203e-03
*RES
1 lt_pn14_9_s2:Z pgm_pn14_9_s2:1 7.883562e+00
2 pgm_pn14_9_s2:1 vs_39_14:A 1.000000e-03
*END

*D_NET pgm_pn14_9_s3 4.227573e-03
*CONN
*I lt_pn14_9_s3:Z O
*I vs_62_14:A I
*CAP
1 pgm_pn14_9_s3:1 4.227573e-03
*RES
1 lt_pn14_9_s3:Z pgm_pn14_9_s3:1 4.797374e+00
2 pgm_pn14_9_s3:1 vs_62_14:A 1.000000e-03
*END

*D_NET pgm_pn15_10_s2 1.926406e-02
*CONN
*I lt_pn15_10_s2:Z O
*I vs_45_15:A I
*I vs_33_15:A I
*CAP
1 pgm_pn15_10_s2:1 1.926406e-02
*RES
1 lt_pn15_10_s2:Z pgm_pn15_10_s2:1 2.043232e+01
2 pgm_pn15_10_s2:1 vs_45_15:A 1.000000e-03
3 pgm_pn15_10_s2:1 vs_33_15:A 1.000000e-03
*END

*D_NET pgm_pn15_11_s0 8.490697e-03
*CONN
*I lt_pn15_11_s0:Z O
*I vs_13_15:A I
*I vs_11_15:A I
*I vs_9_15:A I
*CAP
1 pgm_pn15_11_s0:1 8.490697e-03
*RES
1 lt_pn15_11_s0:Z pgm_pn15_11_s0:1 9.635091e+00
2 pgm_pn15_11_s0:1 vs_13_15:A 1.000000e-03
3 pgm_pn15_11_s0:1 vs_11_15:A 1.000000e-03
4 pgm_pn15_11_s0:1 vs_9_15:A 1.000000e-03
*END

*D_NET pgm_pn15_11_s1 4.988951e-03
*CONN
*I lt_pn15_11_s1:Z O
*I vs_27_15:A I
*CAP
1 pgm_pn15_11_s1:1 4.988951e-03
*RES
1 lt_pn15_11_s1:Z pgm_pn15_11_s1:1 5.661372e+00
2 pgm_pn15_11_s1:1 vs_27_15:A 1.000000e-03
*END

*D_NET pgm_pn15_11_s2 1.947940e-02
*CONN
*I lt_pn15_11_s2:Z O
*I vs_41_15:A I
*I vs_35_15:A I
*CAP
1 pgm_pn15_11_s2:1 1.947940e-02
*RES
1 lt_pn15_11_s2:Z pgm_pn15_11_s2:1 1.675610e+01
2 pgm_pn15_11_s2:1 vs_41_15:A 1.000000e-03
3 pgm_pn15_11_s2:1 vs_35_15:A 1.000000e-03
*END

*D_NET pgm_pn15_11_s3 1.309261e-02
*CONN
*I lt_pn15_11_s3:Z O
*I vs_54_15:A I
*CAP
1 pgm_pn15_11_s3:1 1.309261e-02
*RES
1 lt_pn15_11_s3:Z pgm_pn15_11_s3:1 1.328508e+01
2 pgm_pn15_11_s3:1 vs_54_15:A 1.000000e-03
*END

*D_NET pgm_pn15_12_s1 1.909962e-02
*CONN
*I lt_pn15_12_s1:Z O
*I vs_31_15:A I
*I vs_26_15:A I
*I vs_23_15:A I
*I vs_19_15:A I
*CAP
1 pgm_pn15_12_s1:1 1.909962e-02
*RES
1 lt_pn15_12_s1:Z pgm_pn15_12_s1:1 2.167391e+01
2 pgm_pn15_12_s1:1 vs_31_15:A 1.000000e-03
3 pgm_pn15_12_s1:1 vs_26_15:A 1.000000e-03
4 pgm_pn15_12_s1:1 vs_23_15:A 1.000000e-03
5 pgm_pn15_12_s1:1 vs_19_15:A 1.000000e-03
*END

*D_NET pgm_pn15_12_s2 9.089642e-03
*CONN
*I lt_pn15_12_s2:Z O
*I vs_42_15:A I
*CAP
1 pgm_pn15_12_s2:1 9.089642e-03
*RES
1 lt_pn15_12_s2:Z pgm_pn15_12_s2:1 7.434254e+00
2 pgm_pn15_12_s2:1 vs_42_15:A 1.000000e-03
*END

*D_NET pgm_pn15_12_s3 1.200238e-02
*CONN
*I lt_pn15_12_s3:Z O
*I vs_60_15:A I
*I vs_56_15:A I
*CAP
1 pgm_pn15_12_s3:1 1.200238e-02
*RES
1 lt_pn15_12_s3:Z pgm_pn15_12_s3:1 1.204792e+01
2 pgm_pn15_12_s3:1 vs_60_15:A 1.000000e-03
3 pgm_pn15_12_s3:1 vs_56_15:A 1.000000e-03
*END

*D_NET pgm_pn15_2_s3 1.438619e-02
*CONN
*I lt_pn15_2_s3:Z O
*I vs_61_15:A I
*CAP
1 pgm_pn15_2_s3:1 1.438619e-02
*RES
1 lt_pn15_2_s3:Z pgm_pn15_2_s3:1 1.632519e+01
2 pgm_pn15_2_s3:1 vs_61_15:A 1.000000e-03
*END

*D_NET pgm_pn15_3_s0 2.706757e-03
*CONN
*I lt_pn15_3_s0:Z O
*I vs_5_15:A I
*CAP
1 pgm_pn15_3_s0:1 2.706757e-03
*RES
1 lt_pn15_3_s0:Z pgm_pn15_3_s0:1 1.787364e+00
2 pgm_pn15_3_s0:1 vs_5_15:A 1.000000e-03
*END

*D_NET pgm_pn15_5_s2 5.895494e-04
*CONN
*I lt_pn15_5_s2:Z O
*I vs_39_15:A I
*CAP
1 pgm_pn15_5_s2:1 5.895494e-04
*RES
1 lt_pn15_5_s2:Z pgm_pn15_5_s2:1 6.690101e-01
2 pgm_pn15_5_s2:1 vs_39_15:A 1.000000e-03
*END

*D_NET pgm_pn15_6_s1 9.773485e-03
*CONN
*I lt_pn15_6_s1:Z O
*I vs_18_15:A I
*CAP
1 pgm_pn15_6_s1:1 9.773485e-03
*RES
1 lt_pn15_6_s1:Z pgm_pn15_6_s1:1 1.109078e+01
2 pgm_pn15_6_s1:1 vs_18_15:A 1.000000e-03
*END

*D_NET pgm_pn15_7_s1 7.717469e-03
*CONN
*I lt_pn15_7_s1:Z O
*I vs_30_15:A I
*I vs_25_15:A I
*CAP
1 pgm_pn15_7_s1:1 7.717469e-03
*RES
1 lt_pn15_7_s1:Z pgm_pn15_7_s1:1 8.757645e+00
2 pgm_pn15_7_s1:1 vs_30_15:A 1.000000e-03
3 pgm_pn15_7_s1:1 vs_25_15:A 1.000000e-03
*END

*D_NET pgm_pn15_7_s2 8.161853e-03
*CONN
*I lt_pn15_7_s2:Z O
*I vs_36_15:A I
*CAP
1 pgm_pn15_7_s2:1 8.161853e-03
*RES
1 lt_pn15_7_s2:Z pgm_pn15_7_s2:1 9.261924e+00
2 pgm_pn15_7_s2:1 vs_36_15:A 1.000000e-03
*END

*D_NET pgm_pn15_9_s0 1.572425e-02
*CONN
*I lt_pn15_9_s0:Z O
*I vs_6_15:A I
*I vs_2_15:A I
*CAP
1 pgm_pn15_9_s0:1 1.572425e-02
*RES
1 lt_pn15_9_s0:Z pgm_pn15_9_s0:1 1.655938e+01
2 pgm_pn15_9_s0:1 vs_6_15:A 1.000000e-03
3 pgm_pn15_9_s0:1 vs_2_15:A 1.000000e-03
*END

*D_NET pgm_pn15_9_s1 1.013478e-02
*CONN
*I lt_pn15_9_s1:Z O
*I vs_21_15:A I
*CAP
1 pgm_pn15_9_s1:1 1.013478e-02
*RES
1 lt_pn15_9_s1:Z pgm_pn15_9_s1:1 1.050451e+01
2 pgm_pn15_9_s1:1 vs_21_15:A 1.000000e-03
*END

*D_NET pgm_pn15_9_s2 6.616893e-03
*CONN
*I lt_pn15_9_s2:Z O
*I vs_47_15:A I
*CAP
1 pgm_pn15_9_s2:1 6.616893e-03
*RES
1 lt_pn15_9_s2:Z pgm_pn15_9_s2:1 6.080538e+00
2 pgm_pn15_9_s2:1 vs_47_15:A 1.000000e-03
*END

*D_NET pgm_pn16_10_s0 1.377059e-02
*CONN
*I lt_pn16_10_s0:Z O
*I vs_5_16:A I
*CAP
1 pgm_pn16_10_s0:1 1.377059e-02
*RES
1 lt_pn16_10_s0:Z pgm_pn16_10_s0:1 1.391047e+01
2 pgm_pn16_10_s0:1 vs_5_16:A 1.000000e-03
*END

*D_NET pgm_pn16_10_s3 4.852673e-03
*CONN
*I lt_pn16_10_s3:Z O
*I vs_59_16:A I
*I vs_58_16:A I
*CAP
1 pgm_pn16_10_s3:1 4.852673e-03
*RES
1 lt_pn16_10_s3:Z pgm_pn16_10_s3:1 5.506727e+00
2 pgm_pn16_10_s3:1 vs_59_16:A 1.000000e-03
3 pgm_pn16_10_s3:1 vs_58_16:A 1.000000e-03
*END

*D_NET pgm_pn16_11_s0 2.657416e-03
*CONN
*I lt_pn16_11_s0:Z O
*I vs_14_16:A I
*I vs_13_16:A I
*CAP
1 pgm_pn16_11_s0:1 2.657416e-03
*RES
1 lt_pn16_11_s0:Z pgm_pn16_11_s0:1 3.015588e+00
2 pgm_pn16_11_s0:1 vs_14_16:A 1.000000e-03
3 pgm_pn16_11_s0:1 vs_13_16:A 1.000000e-03
*END

*D_NET pgm_pn16_11_s1 1.901789e-02
*CONN
*I lt_pn16_11_s1:Z O
*I vs_27_16:A I
*I vs_21_16:A I
*I vs_20_16:A I
*CAP
1 pgm_pn16_11_s1:1 1.901789e-02
*RES
1 lt_pn16_11_s1:Z pgm_pn16_11_s1:1 1.814886e+01
2 pgm_pn16_11_s1:1 vs_27_16:A 1.000000e-03
3 pgm_pn16_11_s1:1 vs_21_16:A 1.000000e-03
4 pgm_pn16_11_s1:1 vs_20_16:A 1.000000e-03
*END

*D_NET pgm_pn16_11_s2 1.986396e-02
*CONN
*I lt_pn16_11_s2:Z O
*I vs_44_16:A I
*I vs_40_16:A I
*I vs_33_16:A I
*CAP
1 pgm_pn16_11_s2:1 1.986396e-02
*RES
1 lt_pn16_11_s2:Z pgm_pn16_11_s2:1 2.254127e+01
2 pgm_pn16_11_s2:1 vs_44_16:A 1.000000e-03
3 pgm_pn16_11_s2:1 vs_40_16:A 1.000000e-03
4 pgm_pn16_11_s2:1 vs_33_16:A 1.000000e-03
*END

*D_NET pgm_pn16_11_s3 2.544297e-02
*CONN
*I lt_pn16_11_s3:Z O
*I vs_48_16:A I
*CAP
1 pgm_pn16_11_s3:1 2.544297e-02
*RES
1 lt_pn16_11_s3:Z pgm_pn16_11_s3:1 2.328023e+01
2 pgm_pn16_11_s3:1 vs_48_16:A 1.000000e-03
*END

*D_NET pgm_pn16_12_s1 1.865541e-02
*CONN
*I lt_pn16_12_s1:Z O
*I vs_26_16:A I
*I vs_19_16:A I
*CAP
1 pgm_pn16_12_s1:1 1.865541e-02
*RES
1 lt_pn16_12_s1:Z pgm_pn16_12_s1:1 1.931549e+01
2 pgm_pn16_12_s1:1 vs_26_16:A 1.000000e-03
3 pgm_pn16_12_s1:1 vs_19_16:A 1.000000e-03
*END

*D_NET pgm_pn16_12_s2 8.028706e-03
*CONN
*I lt_pn16_12_s2:Z O
*I vs_43_16:A I
*CAP
1 pgm_pn16_12_s2:1 8.028706e-03
*RES
1 lt_pn16_12_s2:Z pgm_pn16_12_s2:1 7.250699e+00
2 pgm_pn16_12_s2:1 vs_43_16:A 1.000000e-03
*END

*D_NET pgm_pn16_12_s3 1.637878e-02
*CONN
*I lt_pn16_12_s3:Z O
*I vs_53_16:A I
*CAP
1 pgm_pn16_12_s3:1 1.637878e-02
*RES
1 lt_pn16_12_s3:Z pgm_pn16_12_s3:1 1.652903e+01
2 pgm_pn16_12_s3:1 vs_53_16:A 1.000000e-03
*END

*D_NET pgm_pn16_2_s2 1.779476e-03
*CONN
*I lt_pn16_2_s2:Z O
*I vs_35_16:A I
*CAP
1 pgm_pn16_2_s2:1 1.779476e-03
*RES
1 lt_pn16_2_s2:Z pgm_pn16_2_s2:1 7.351022e-01
2 pgm_pn16_2_s2:1 vs_35_16:A 1.000000e-03
*END

*D_NET pgm_pn16_4_s0 6.840551e-03
*CONN
*I lt_pn16_4_s0:Z O
*I vs_9_16:A I
*CAP
1 pgm_pn16_4_s0:1 6.840551e-03
*RES
1 lt_pn16_4_s0:Z pgm_pn16_4_s0:1 7.762535e+00
2 pgm_pn16_4_s0:1 vs_9_16:A 1.000000e-03
*END

*D_NET pgm_pn16_5_s2 5.895494e-04
*CONN
*I lt_pn16_5_s2:Z O
*I vs_39_16:A I
*CAP
1 pgm_pn16_5_s2:1 5.895494e-04
*RES
1 lt_pn16_5_s2:Z pgm_pn16_5_s2:1 6.690101e-01
2 pgm_pn16_5_s2:1 vs_39_16:A 1.000000e-03
*END

*D_NET pgm_pn16_5_s3 8.869905e-03
*CONN
*I lt_pn16_5_s3:Z O
*I vs_61_16:A I
*CAP
1 pgm_pn16_5_s3:1 8.869905e-03
*RES
1 lt_pn16_5_s3:Z pgm_pn16_5_s3:1 1.006541e+01
2 pgm_pn16_5_s3:1 vs_61_16:A 1.000000e-03
*END

*D_NET pgm_pn16_6_s2 4.382680e-03
*CONN
*I lt_pn16_6_s2:Z O
*I vs_37_16:A I
*CAP
1 pgm_pn16_6_s2:1 4.382680e-03
*RES
1 lt_pn16_6_s2:Z pgm_pn16_6_s2:1 2.856595e+00
2 pgm_pn16_6_s2:1 vs_37_16:A 1.000000e-03
*END

*D_NET pgm_pn16_8_s3 7.864574e-03
*CONN
*I lt_pn16_8_s3:Z O
*I vs_63_16:A I
*CAP
1 pgm_pn16_8_s3:1 7.864574e-03
*RES
1 lt_pn16_8_s3:Z pgm_pn16_8_s3:1 7.640363e+00
2 pgm_pn16_8_s3:1 vs_63_16:A 1.000000e-03
*END

*D_NET pgm_pn16_9_s0 1.349446e-02
*CONN
*I lt_pn16_9_s0:Z O
*I vs_2_16:A I
*CAP
1 pgm_pn16_9_s0:1 1.349446e-02
*RES
1 lt_pn16_9_s0:Z pgm_pn16_9_s0:1 1.531327e+01
2 pgm_pn16_9_s0:1 vs_2_16:A 1.000000e-03
*END

*D_NET pgm_pn16_9_s1 2.171233e-02
*CONN
*I lt_pn16_9_s1:Z O
*I vs_31_16:A I
*I vs_18_16:A I
*CAP
1 pgm_pn16_9_s1:1 2.171233e-02
*RES
1 lt_pn16_9_s1:Z pgm_pn16_9_s1:1 2.263465e+01
2 pgm_pn16_9_s1:1 vs_31_16:A 1.000000e-03
3 pgm_pn16_9_s1:1 vs_18_16:A 1.000000e-03
*END

*D_NET pgm_pn16_9_s3 1.628815e-02
*CONN
*I lt_pn16_9_s3:Z O
*I vs_54_16:A I
*I vs_49_16:A I
*CAP
1 pgm_pn16_9_s3:1 1.628815e-02
*RES
1 lt_pn16_9_s3:Z pgm_pn16_9_s3:1 1.848351e+01
2 pgm_pn16_9_s3:1 vs_54_16:A 1.000000e-03
3 pgm_pn16_9_s3:1 vs_49_16:A 1.000000e-03
*END

*D_NET pgm_pn17_10_s0 8.393238e-03
*CONN
*I lt_pn17_10_s0:Z O
*I vs_8_17:A I
*CAP
1 pgm_pn17_10_s0:1 8.393238e-03
*RES
1 lt_pn17_10_s0:Z pgm_pn17_10_s0:1 8.672220e+00
2 pgm_pn17_10_s0:1 vs_8_17:A 1.000000e-03
*END

*D_NET pgm_pn17_10_s1 1.964712e-02
*CONN
*I lt_pn17_10_s1:Z O
*I vs_23_17:A I
*I vs_16_17:A I
*CAP
1 pgm_pn17_10_s1:1 1.964712e-02
*RES
1 lt_pn17_10_s1:Z pgm_pn17_10_s1:1 2.115496e+01
2 pgm_pn17_10_s1:1 vs_23_17:A 1.000000e-03
3 pgm_pn17_10_s1:1 vs_16_17:A 1.000000e-03
*END

*D_NET pgm_pn17_10_s3 1.821678e-02
*CONN
*I lt_pn17_10_s3:Z O
*I vs_62_17:A I
*I vs_50_17:A I
*CAP
1 pgm_pn17_10_s3:1 1.821678e-02
*RES
1 lt_pn17_10_s3:Z pgm_pn17_10_s3:1 2.067208e+01
2 pgm_pn17_10_s3:1 vs_62_17:A 1.000000e-03
3 pgm_pn17_10_s3:1 vs_50_17:A 1.000000e-03
*END

*D_NET pgm_pn17_11_s1 5.741609e-03
*CONN
*I lt_pn17_11_s1:Z O
*I vs_27_17:A I
*CAP
1 pgm_pn17_11_s1:1 5.741609e-03
*RES
1 lt_pn17_11_s1:Z pgm_pn17_11_s1:1 4.655343e+00
2 pgm_pn17_11_s1:1 vs_27_17:A 1.000000e-03
*END

*D_NET pgm_pn17_11_s2 9.879115e-03
*CONN
*I lt_pn17_11_s2:Z O
*I vs_40_17:A I
*CAP
1 pgm_pn17_11_s2:1 9.879115e-03
*RES
1 lt_pn17_11_s2:Z pgm_pn17_11_s2:1 9.926427e+00
2 pgm_pn17_11_s2:1 vs_40_17:A 1.000000e-03
*END

*D_NET pgm_pn17_12_s0 1.461182e-02
*CONN
*I lt_pn17_12_s0:Z O
*I vs_14_17:A I
*I vs_7_17:A I
*CAP
1 pgm_pn17_12_s0:1 1.461182e-02
*RES
1 lt_pn17_12_s0:Z pgm_pn17_12_s0:1 1.386882e+01
2 pgm_pn17_12_s0:1 vs_14_17:A 1.000000e-03
3 pgm_pn17_12_s0:1 vs_7_17:A 1.000000e-03
*END

*D_NET pgm_pn17_12_s1 6.209526e-03
*CONN
*I lt_pn17_12_s1:Z O
*I vs_28_17:A I
*CAP
1 pgm_pn17_12_s1:1 6.209526e-03
*RES
1 lt_pn17_12_s1:Z pgm_pn17_12_s1:1 7.046459e+00
2 pgm_pn17_12_s1:1 vs_28_17:A 1.000000e-03
*END

*D_NET pgm_pn17_12_s2 1.949085e-02
*CONN
*I lt_pn17_12_s2:Z O
*I vs_34_17:A I
*CAP
1 pgm_pn17_12_s2:1 1.949085e-02
*RES
1 lt_pn17_12_s2:Z pgm_pn17_12_s2:1 2.025774e+01
2 pgm_pn17_12_s2:1 vs_34_17:A 1.000000e-03
*END

*D_NET pgm_pn17_1_s2 3.780227e-03
*CONN
*I lt_pn17_1_s2:Z O
*I vs_32_17:A I
*CAP
1 pgm_pn17_1_s2:1 3.780227e-03
*RES
1 lt_pn17_1_s2:Z pgm_pn17_1_s2:1 4.289733e+00
2 pgm_pn17_1_s2:1 vs_32_17:A 1.000000e-03
*END

*D_NET pgm_pn17_3_s0 3.235116e-03
*CONN
*I lt_pn17_3_s0:Z O
*I vs_6_17:A I
*CAP
1 pgm_pn17_3_s0:1 3.235116e-03
*RES
1 lt_pn17_3_s0:Z pgm_pn17_3_s0:1 3.671151e+00
2 pgm_pn17_3_s0:1 vs_6_17:A 1.000000e-03
*END

*D_NET pgm_pn17_3_s2 1.038660e-02
*CONN
*I lt_pn17_3_s2:Z O
*I vs_42_17:A I
*CAP
1 pgm_pn17_3_s2:1 1.038660e-02
*RES
1 lt_pn17_3_s2:Z pgm_pn17_3_s2:1 1.079027e+01
2 pgm_pn17_3_s2:1 vs_42_17:A 1.000000e-03
*END

*D_NET pgm_pn17_4_s0 3.904654e-03
*CONN
*I lt_pn17_4_s0:Z O
*I vs_5_17:A I
*I vs_3_17:A I
*CAP
1 pgm_pn17_4_s0:1 3.904654e-03
*RES
1 lt_pn17_4_s0:Z pgm_pn17_4_s0:1 4.430931e+00
2 pgm_pn17_4_s0:1 vs_5_17:A 1.000000e-03
3 pgm_pn17_4_s0:1 vs_3_17:A 1.000000e-03
*END

*D_NET pgm_pn17_4_s1 6.594659e-03
*CONN
*I lt_pn17_4_s1:Z O
*I vs_17_17:A I
*CAP
1 pgm_pn17_4_s1:1 6.594659e-03
*RES
1 lt_pn17_4_s1:Z pgm_pn17_4_s1:1 7.483500e+00
2 pgm_pn17_4_s1:1 vs_17_17:A 1.000000e-03
*END

*D_NET pgm_pn17_5_s3 8.342569e-03
*CONN
*I lt_pn17_5_s3:Z O
*I vs_54_17:A I
*I vs_49_17:A I
*CAP
1 pgm_pn17_5_s3:1 8.342569e-03
*RES
1 lt_pn17_5_s3:Z pgm_pn17_5_s3:1 9.466998e+00
2 pgm_pn17_5_s3:1 vs_54_17:A 1.000000e-03
3 pgm_pn17_5_s3:1 vs_49_17:A 1.000000e-03
*END

*D_NET pgm_pn17_6_s3 3.525446e-04
*CONN
*I lt_pn17_6_s3:Z O
*I vs_56_17:A I
*CAP
1 pgm_pn17_6_s3:1 3.525446e-04
*RES
1 lt_pn17_6_s3:Z pgm_pn17_6_s3:1 4.000613e-01
2 pgm_pn17_6_s3:1 vs_56_17:A 1.000000e-03
*END

*D_NET pgm_pn17_7_s1 2.796657e-03
*CONN
*I lt_pn17_7_s1:Z O
*I vs_24_17:A I
*CAP
1 pgm_pn17_7_s1:1 2.796657e-03
*RES
1 lt_pn17_7_s1:Z pgm_pn17_7_s1:1 3.173596e+00
2 pgm_pn17_7_s1:1 vs_24_17:A 1.000000e-03
*END

*D_NET pgm_pn17_7_s2 1.246349e-02
*CONN
*I lt_pn17_7_s2:Z O
*I vs_33_17:A I
*CAP
1 pgm_pn17_7_s2:1 1.246349e-02
*RES
1 lt_pn17_7_s2:Z pgm_pn17_7_s2:1 1.414335e+01
2 pgm_pn17_7_s2:1 vs_33_17:A 1.000000e-03
*END

*D_NET pgm_pn17_9_s0 2.369455e-02
*CONN
*I lt_pn17_9_s0:Z O
*I vs_15_17:A I
*I vs_13_17:A I
*I vs_0_17:A I
*CAP
1 pgm_pn17_9_s0:1 2.369455e-02
*RES
1 lt_pn17_9_s0:Z pgm_pn17_9_s0:1 2.688816e+01
2 pgm_pn17_9_s0:1 vs_15_17:A 1.000000e-03
3 pgm_pn17_9_s0:1 vs_13_17:A 1.000000e-03
4 pgm_pn17_9_s0:1 vs_0_17:A 1.000000e-03
*END

*D_NET pgm_pn17_9_s1 1.375973e-02
*CONN
*I lt_pn17_9_s1:Z O
*I vs_29_17:A I
*I vs_22_17:A I
*I vs_20_17:A I
*CAP
1 pgm_pn17_9_s1:1 1.375973e-02
*RES
1 lt_pn17_9_s1:Z pgm_pn17_9_s1:1 1.480584e+01
2 pgm_pn17_9_s1:1 vs_29_17:A 1.000000e-03
3 pgm_pn17_9_s1:1 vs_22_17:A 1.000000e-03
4 pgm_pn17_9_s1:1 vs_20_17:A 1.000000e-03
*END

*D_NET pgm_pn17_9_s3 1.453507e-02
*CONN
*I lt_pn17_9_s3:Z O
*I vs_60_17:A I
*I vs_57_17:A I
*I vs_55_17:A I
*I vs_52_17:A I
*CAP
1 pgm_pn17_9_s3:1 1.453507e-02
*RES
1 lt_pn17_9_s3:Z pgm_pn17_9_s3:1 1.578584e+01
2 pgm_pn17_9_s3:1 vs_60_17:A 1.000000e-03
3 pgm_pn17_9_s3:1 vs_57_17:A 1.000000e-03
4 pgm_pn17_9_s3:1 vs_55_17:A 1.000000e-03
5 pgm_pn17_9_s3:1 vs_52_17:A 1.000000e-03
*END

*D_NET pgm_pn18_10_s0 1.570453e-02
*CONN
*I lt_pn18_10_s0:Z O
*I vs_11_18:A I
*I vs_4_18:A I
*I vs_3_18:A I
*CAP
1 pgm_pn18_10_s0:1 1.570453e-02
*RES
1 lt_pn18_10_s0:Z pgm_pn18_10_s0:1 1.782122e+01
2 pgm_pn18_10_s0:1 vs_11_18:A 1.000000e-03
3 pgm_pn18_10_s0:1 vs_4_18:A 1.000000e-03
4 pgm_pn18_10_s0:1 vs_3_18:A 1.000000e-03
*END

*D_NET pgm_pn18_10_s1 8.478847e-03
*CONN
*I lt_pn18_10_s1:Z O
*I vs_24_18:A I
*I vs_23_18:A I
*CAP
1 pgm_pn18_10_s1:1 8.478847e-03
*RES
1 lt_pn18_10_s1:Z pgm_pn18_10_s1:1 9.621643e+00
2 pgm_pn18_10_s1:1 vs_24_18:A 1.000000e-03
3 pgm_pn18_10_s1:1 vs_23_18:A 1.000000e-03
*END

*D_NET pgm_pn18_10_s2 2.155415e-02
*CONN
*I lt_pn18_10_s2:Z O
*I vs_36_18:A I
*I vs_32_18:A I
*CAP
1 pgm_pn18_10_s2:1 2.155415e-02
*RES
1 lt_pn18_10_s2:Z pgm_pn18_10_s2:1 1.961846e+01
2 pgm_pn18_10_s2:1 vs_36_18:A 1.000000e-03
3 pgm_pn18_10_s2:1 vs_32_18:A 1.000000e-03
*END

*D_NET pgm_pn18_11_s0 9.763437e-03
*CONN
*I lt_pn18_11_s0:Z O
*I vs_9_18:A I
*CAP
1 pgm_pn18_11_s0:1 9.763437e-03
*RES
1 lt_pn18_11_s0:Z pgm_pn18_11_s0:1 8.787303e+00
2 pgm_pn18_11_s0:1 vs_9_18:A 1.000000e-03
*END

*D_NET pgm_pn18_11_s1 2.423884e-02
*CONN
*I lt_pn18_11_s1:Z O
*I vs_17_18:A I
*CAP
1 pgm_pn18_11_s1:1 2.423884e-02
*RES
1 lt_pn18_11_s1:Z pgm_pn18_11_s1:1 2.148187e+01
2 pgm_pn18_11_s1:1 vs_17_18:A 1.000000e-03
*END

*D_NET pgm_pn18_11_s3 1.673022e-02
*CONN
*I lt_pn18_11_s3:Z O
*I vs_60_18:A I
*I vs_58_18:A I
*I vs_54_18:A I
*CAP
1 pgm_pn18_11_s3:1 1.673022e-02
*RES
1 lt_pn18_11_s3:Z pgm_pn18_11_s3:1 1.386219e+01
2 pgm_pn18_11_s3:1 vs_60_18:A 1.000000e-03
3 pgm_pn18_11_s3:1 vs_58_18:A 1.000000e-03
4 pgm_pn18_11_s3:1 vs_54_18:A 1.000000e-03
*END

*D_NET pgm_pn18_12_s1 2.404652e-02
*CONN
*I lt_pn18_12_s1:Z O
*I vs_29_18:A I
*I vs_16_18:A I
*CAP
1 pgm_pn18_12_s1:1 2.404652e-02
*RES
1 lt_pn18_12_s1:Z pgm_pn18_12_s1:1 2.614732e+01
2 pgm_pn18_12_s1:1 vs_29_18:A 1.000000e-03
3 pgm_pn18_12_s1:1 vs_16_18:A 1.000000e-03
*END

*D_NET pgm_pn18_3_s0 1.365549e-02
*CONN
*I lt_pn18_3_s0:Z O
*I vs_14_18:A I
*CAP
1 pgm_pn18_3_s0:1 1.365549e-02
*RES
1 lt_pn18_3_s0:Z pgm_pn18_3_s0:1 1.337922e+01
2 pgm_pn18_3_s0:1 vs_14_18:A 1.000000e-03
*END

*D_NET pgm_pn18_3_s2 1.487205e-03
*CONN
*I lt_pn18_3_s2:Z O
*I vs_37_18:A I
*CAP
1 pgm_pn18_3_s2:1 1.487205e-03
*RES
1 lt_pn18_3_s2:Z pgm_pn18_3_s2:1 1.687654e+00
2 pgm_pn18_3_s2:1 vs_37_18:A 1.000000e-03
*END

*D_NET pgm_pn18_3_s3 2.343385e-03
*CONN
*I lt_pn18_3_s3:Z O
*I vs_51_18:A I
*CAP
1 pgm_pn18_3_s3:1 2.343385e-03
*RES
1 lt_pn18_3_s3:Z pgm_pn18_3_s3:1 2.659231e+00
2 pgm_pn18_3_s3:1 vs_51_18:A 1.000000e-03
*END

*D_NET pgm_pn18_4_s0 6.674648e-03
*CONN
*I lt_pn18_4_s0:Z O
*I vs_5_18:A I
*I vs_1_18:A I
*CAP
1 pgm_pn18_4_s0:1 6.674648e-03
*RES
1 lt_pn18_4_s0:Z pgm_pn18_4_s0:1 7.574271e+00
2 pgm_pn18_4_s0:1 vs_5_18:A 1.000000e-03
3 pgm_pn18_4_s0:1 vs_1_18:A 1.000000e-03
*END

*D_NET pgm_pn18_5_s1 9.924576e-04
*CONN
*I lt_pn18_5_s1:Z O
*I vs_22_18:A I
*CAP
1 pgm_pn18_5_s1:1 9.924576e-04
*RES
1 lt_pn18_5_s1:Z pgm_pn18_5_s1:1 1.126223e+00
2 pgm_pn18_5_s1:1 vs_22_18:A 1.000000e-03
*END

*D_NET pgm_pn18_5_s3 1.390626e-02
*CONN
*I lt_pn18_5_s3:Z O
*I vs_63_18:A I
*CAP
1 pgm_pn18_5_s3:1 1.390626e-02
*RES
1 lt_pn18_5_s3:Z pgm_pn18_5_s3:1 1.578057e+01
2 pgm_pn18_5_s3:1 vs_63_18:A 1.000000e-03
*END

*D_NET pgm_pn18_6_s2 4.574193e-03
*CONN
*I lt_pn18_6_s2:Z O
*I vs_43_18:A I
*CAP
1 pgm_pn18_6_s2:1 4.574193e-03
*RES
1 lt_pn18_6_s2:Z pgm_pn18_6_s2:1 5.190712e+00
2 pgm_pn18_6_s2:1 vs_43_18:A 1.000000e-03
*END

*D_NET pgm_pn18_7_s3 1.426769e-02
*CONN
*I lt_pn18_7_s3:Z O
*I vs_48_18:A I
*CAP
1 pgm_pn18_7_s3:1 1.426769e-02
*RES
1 lt_pn18_7_s3:Z pgm_pn18_7_s3:1 1.619072e+01
2 pgm_pn18_7_s3:1 vs_48_18:A 1.000000e-03
*END

*D_NET pgm_pn18_8_s1 1.753836e-03
*CONN
*I lt_pn18_8_s1:Z O
*I vs_27_18:A I
*CAP
1 pgm_pn18_8_s1:1 1.753836e-03
*RES
1 lt_pn18_8_s1:Z pgm_pn18_8_s1:1 1.990221e+00
2 pgm_pn18_8_s1:1 vs_27_18:A 1.000000e-03
*END

*D_NET pgm_pn18_8_s3 2.343003e-02
*CONN
*I lt_pn18_8_s3:Z O
*I vs_61_18:A I
*I vs_55_18:A I
*I vs_49_18:A I
*CAP
1 pgm_pn18_8_s3:1 2.343003e-02
*RES
1 lt_pn18_8_s3:Z pgm_pn18_8_s3:1 2.288742e+01
2 pgm_pn18_8_s3:1 vs_61_18:A 1.000000e-03
3 pgm_pn18_8_s3:1 vs_55_18:A 1.000000e-03
4 pgm_pn18_8_s3:1 vs_49_18:A 1.000000e-03
*END

*D_NET pgm_pn18_9_s0 7.021095e-03
*CONN
*I lt_pn18_9_s0:Z O
*I vs_15_18:A I
*CAP
1 pgm_pn18_9_s0:1 7.021095e-03
*RES
1 lt_pn18_9_s0:Z pgm_pn18_9_s0:1 6.583039e+00
2 pgm_pn18_9_s0:1 vs_15_18:A 1.000000e-03
*END

*D_NET pgm_pn18_9_s1 1.571226e-02
*CONN
*I lt_pn18_9_s1:Z O
*I vs_21_18:A I
*I vs_19_18:A I
*I vs_18_18:A I
*CAP
1 pgm_pn18_9_s1:1 1.571226e-02
*RES
1 lt_pn18_9_s1:Z pgm_pn18_9_s1:1 1.554952e+01
2 pgm_pn18_9_s1:1 vs_21_18:A 1.000000e-03
3 pgm_pn18_9_s1:1 vs_19_18:A 1.000000e-03
4 pgm_pn18_9_s1:1 vs_18_18:A 1.000000e-03
*END

*D_NET pgm_pn18_9_s2 1.965212e-02
*CONN
*I lt_pn18_9_s2:Z O
*I vs_47_18:A I
*I vs_35_18:A I
*CAP
1 pgm_pn18_9_s2:1 1.965212e-02
*RES
1 lt_pn18_9_s2:Z pgm_pn18_9_s2:1 2.048456e+01
2 pgm_pn18_9_s2:1 vs_47_18:A 1.000000e-03
3 pgm_pn18_9_s2:1 vs_35_18:A 1.000000e-03
*END

*D_NET pgm_pn18_9_s3 5.821430e-03
*CONN
*I lt_pn18_9_s3:Z O
*I vs_59_18:A I
*I vs_57_18:A I
*CAP
1 pgm_pn18_9_s3:1 5.821430e-03
*RES
1 lt_pn18_9_s3:Z pgm_pn18_9_s3:1 6.606055e+00
2 pgm_pn18_9_s3:1 vs_59_18:A 1.000000e-03
3 pgm_pn18_9_s3:1 vs_57_18:A 1.000000e-03
*END

*D_NET pgm_pn19_10_s0 8.829483e-03
*CONN
*I lt_pn19_10_s0:Z O
*I vs_8_19:A I
*CAP
1 pgm_pn19_10_s0:1 8.829483e-03
*RES
1 lt_pn19_10_s0:Z pgm_pn19_10_s0:1 8.447365e+00
2 pgm_pn19_10_s0:1 vs_8_19:A 1.000000e-03
*END

*D_NET pgm_pn19_10_s1 1.420728e-02
*CONN
*I lt_pn19_10_s1:Z O
*I vs_31_19:A I
*I vs_23_19:A I
*CAP
1 pgm_pn19_10_s1:1 1.420728e-02
*RES
1 lt_pn19_10_s1:Z pgm_pn19_10_s1:1 1.384169e+01
2 pgm_pn19_10_s1:1 vs_31_19:A 1.000000e-03
3 pgm_pn19_10_s1:1 vs_23_19:A 1.000000e-03
*END

*D_NET pgm_pn19_10_s2 2.920490e-02
*CONN
*I lt_pn19_10_s2:Z O
*I vs_32_19:A I
*CAP
1 pgm_pn19_10_s2:1 2.920490e-02
*RES
1 lt_pn19_10_s2:Z pgm_pn19_10_s2:1 2.063819e+01
2 pgm_pn19_10_s2:1 vs_32_19:A 1.000000e-03
*END

*D_NET pgm_pn19_10_s3 7.270122e-03
*CONN
*I lt_pn19_10_s3:Z O
*I vs_56_19:A I
*CAP
1 pgm_pn19_10_s3:1 7.270122e-03
*RES
1 lt_pn19_10_s3:Z pgm_pn19_10_s3:1 8.250004e+00
2 pgm_pn19_10_s3:1 vs_56_19:A 1.000000e-03
*END

*D_NET pgm_pn19_11_s1 2.121254e-02
*CONN
*I lt_pn19_11_s1:Z O
*I vs_25_19:A I
*I vs_17_19:A I
*CAP
1 pgm_pn19_11_s1:1 2.121254e-02
*RES
1 lt_pn19_11_s1:Z pgm_pn19_11_s1:1 2.235546e+01
2 pgm_pn19_11_s1:1 vs_25_19:A 1.000000e-03
3 pgm_pn19_11_s1:1 vs_17_19:A 1.000000e-03
*END

*D_NET pgm_pn19_11_s2 1.646205e-02
*CONN
*I lt_pn19_11_s2:Z O
*I vs_36_19:A I
*I vs_35_19:A I
*CAP
1 pgm_pn19_11_s2:1 1.646205e-02
*RES
1 lt_pn19_11_s2:Z pgm_pn19_11_s2:1 1.024681e+01
2 pgm_pn19_11_s2:1 vs_36_19:A 1.000000e-03
3 pgm_pn19_11_s2:1 vs_35_19:A 1.000000e-03
*END

*D_NET pgm_pn19_12_s0 8.919994e-03
*CONN
*I lt_pn19_12_s0:Z O
*I vs_10_19:A I
*CAP
1 pgm_pn19_12_s0:1 8.919994e-03
*RES
1 lt_pn19_12_s0:Z pgm_pn19_12_s0:1 8.118137e+00
2 pgm_pn19_12_s0:1 vs_10_19:A 1.000000e-03
*END

*D_NET pgm_pn19_12_s1 2.693192e-02
*CONN
*I lt_pn19_12_s1:Z O
*I vs_29_19:A I
*I vs_28_19:A I
*I vs_22_19:A I
*I vs_16_19:A I
*CAP
1 pgm_pn19_12_s1:1 2.693192e-02
*RES
1 lt_pn19_12_s1:Z pgm_pn19_12_s1:1 2.841376e+01
2 pgm_pn19_12_s1:1 vs_29_19:A 1.000000e-03
3 pgm_pn19_12_s1:1 vs_28_19:A 1.000000e-03
4 pgm_pn19_12_s1:1 vs_22_19:A 1.000000e-03
5 pgm_pn19_12_s1:1 vs_16_19:A 1.000000e-03
*END

*D_NET pgm_pn19_12_s2 1.393826e-02
*CONN
*I lt_pn19_12_s2:Z O
*I vs_46_19:A I
*I vs_40_19:A I
*CAP
1 pgm_pn19_12_s2:1 1.393826e-02
*RES
1 lt_pn19_12_s2:Z pgm_pn19_12_s2:1 1.467666e+01
2 pgm_pn19_12_s2:1 vs_46_19:A 1.000000e-03
3 pgm_pn19_12_s2:1 vs_40_19:A 1.000000e-03
*END

*D_NET pgm_pn19_12_s3 2.400787e-02
*CONN
*I lt_pn19_12_s3:Z O
*I vs_61_19:A I
*I vs_52_19:A I
*I vs_49_19:A I
*CAP
1 pgm_pn19_12_s3:1 2.400787e-02
*RES
1 lt_pn19_12_s3:Z pgm_pn19_12_s3:1 2.510721e+01
2 pgm_pn19_12_s3:1 vs_61_19:A 1.000000e-03
3 pgm_pn19_12_s3:1 vs_52_19:A 1.000000e-03
4 pgm_pn19_12_s3:1 vs_49_19:A 1.000000e-03
*END

*D_NET pgm_pn19_2_s0 2.523964e-03
*CONN
*I lt_pn19_2_s0:Z O
*I vs_2_19:A I
*CAP
1 pgm_pn19_2_s0:1 2.523964e-03
*RES
1 lt_pn19_2_s0:Z pgm_pn19_2_s0:1 1.867893e+00
2 pgm_pn19_2_s0:1 vs_2_19:A 1.000000e-03
*END

*D_NET pgm_pn19_4_s0 1.094104e-02
*CONN
*I lt_pn19_4_s0:Z O
*I vs_12_19:A I
*CAP
1 pgm_pn19_4_s0:1 1.094104e-02
*RES
1 lt_pn19_4_s0:Z pgm_pn19_4_s0:1 1.156342e+01
2 pgm_pn19_4_s0:1 vs_12_19:A 1.000000e-03
*END

*D_NET pgm_pn19_4_s2 1.157176e-02
*CONN
*I lt_pn19_4_s2:Z O
*I vs_45_19:A I
*CAP
1 pgm_pn19_4_s2:1 1.157176e-02
*RES
1 lt_pn19_4_s2:Z pgm_pn19_4_s2:1 1.313143e+01
2 pgm_pn19_4_s2:1 vs_45_19:A 1.000000e-03
*END

*D_NET pgm_pn19_5_s1 4.598946e-03
*CONN
*I lt_pn19_5_s1:Z O
*I vs_19_19:A I
*CAP
1 pgm_pn19_5_s1:1 4.598946e-03
*RES
1 lt_pn19_5_s1:Z pgm_pn19_5_s1:1 3.102011e+00
2 pgm_pn19_5_s1:1 vs_19_19:A 1.000000e-03
*END

*D_NET pgm_pn19_5_s3 5.566650e-03
*CONN
*I lt_pn19_5_s3:Z O
*I vs_51_19:A I
*CAP
1 pgm_pn19_5_s3:1 5.566650e-03
*RES
1 lt_pn19_5_s3:Z pgm_pn19_5_s3:1 6.316935e+00
2 pgm_pn19_5_s3:1 vs_51_19:A 1.000000e-03
*END

*D_NET pgm_pn19_6_s2 8.523285e-03
*CONN
*I lt_pn19_6_s2:Z O
*I vs_34_19:A I
*CAP
1 pgm_pn19_6_s2:1 8.523285e-03
*RES
1 lt_pn19_6_s2:Z pgm_pn19_6_s2:1 9.672071e+00
2 pgm_pn19_6_s2:1 vs_34_19:A 1.000000e-03
*END

*D_NET pgm_pn19_7_s0 1.142956e-02
*CONN
*I lt_pn19_7_s0:Z O
*I vs_1_19:A I
*CAP
1 pgm_pn19_7_s0:1 1.142956e-02
*RES
1 lt_pn19_7_s0:Z pgm_pn19_7_s0:1 1.297006e+01
2 pgm_pn19_7_s0:1 vs_1_19:A 1.000000e-03
*END

*D_NET pgm_pn19_8_s3 1.326103e-02
*CONN
*I lt_pn19_8_s3:Z O
*I vs_50_19:A I
*CAP
1 pgm_pn19_8_s3:1 1.326103e-02
*RES
1 lt_pn19_8_s3:Z pgm_pn19_8_s3:1 1.334383e+01
2 pgm_pn19_8_s3:1 vs_50_19:A 1.000000e-03
*END

*D_NET pgm_pn19_9_s1 5.658490e-03
*CONN
*I lt_pn19_9_s1:Z O
*I vs_24_19:A I
*CAP
1 pgm_pn19_9_s1:1 5.658490e-03
*RES
1 lt_pn19_9_s1:Z pgm_pn19_9_s1:1 6.421153e+00
2 pgm_pn19_9_s1:1 vs_24_19:A 1.000000e-03
*END

*D_NET pgm_pn19_9_s2 1.160138e-02
*CONN
*I lt_pn19_9_s2:Z O
*I vs_38_19:A I
*I vs_37_19:A I
*CAP
1 pgm_pn19_9_s2:1 1.160138e-02
*RES
1 lt_pn19_9_s2:Z pgm_pn19_9_s2:1 1.316504e+01
2 pgm_pn19_9_s2:1 vs_38_19:A 1.000000e-03
3 pgm_pn19_9_s2:1 vs_37_19:A 1.000000e-03
*END

*D_NET pgm_pn19_9_s3 2.005316e-02
*CONN
*I lt_pn19_9_s3:Z O
*I vs_53_19:A I
*I vs_48_19:A I
*CAP
1 pgm_pn19_9_s3:1 2.005316e-02
*RES
1 lt_pn19_9_s3:Z pgm_pn19_9_s3:1 1.975560e+01
2 pgm_pn19_9_s3:1 vs_53_19:A 1.000000e-03
3 pgm_pn19_9_s3:1 vs_48_19:A 1.000000e-03
*END

*D_NET pgm_pn1_0_s2 8.046924e-03
*CONN
*I lt_pn1_0_s2:Z O
*I vs_37_1:A I
*CAP
1 pgm_pn1_0_s2:1 8.046924e-03
*RES
1 lt_pn1_0_s2:Z pgm_pn1_0_s2:1 7.415352e+00
2 pgm_pn1_0_s2:1 vs_37_1:A 1.000000e-03
*END

*D_NET pgm_pn1_10_s0 1.087852e-02
*CONN
*I lt_pn1_10_s0:Z O
*I vs_13_1:A I
*I vs_8_1:A I
*CAP
1 pgm_pn1_10_s0:1 1.087852e-02
*RES
1 lt_pn1_10_s0:Z pgm_pn1_10_s0:1 1.234475e+01
2 pgm_pn1_10_s0:1 vs_13_1:A 1.000000e-03
3 pgm_pn1_10_s0:1 vs_8_1:A 1.000000e-03
*END

*D_NET pgm_pn1_10_s1 1.629408e-03
*CONN
*I lt_pn1_10_s1:Z O
*I vs_29_1:A I
*CAP
1 pgm_pn1_10_s1:1 1.629408e-03
*RES
1 lt_pn1_10_s1:Z pgm_pn1_10_s1:1 1.849023e+00
2 pgm_pn1_10_s1:1 vs_29_1:A 1.000000e-03
*END

*D_NET pgm_pn1_10_s3 2.340109e-02
*CONN
*I lt_pn1_10_s3:Z O
*I vs_62_1:A I
*I vs_59_1:A I
*I vs_48_1:A I
*CAP
1 pgm_pn1_10_s3:1 2.340109e-02
*RES
1 lt_pn1_10_s3:Z pgm_pn1_10_s3:1 2.517076e+01
2 pgm_pn1_10_s3:1 vs_62_1:A 1.000000e-03
3 pgm_pn1_10_s3:1 vs_59_1:A 1.000000e-03
4 pgm_pn1_10_s3:1 vs_48_1:A 1.000000e-03
*END

*D_NET pgm_pn1_11_s0 8.814670e-03
*CONN
*I lt_pn1_11_s0:Z O
*I vs_14_1:A I
*I vs_10_1:A I
*CAP
1 pgm_pn1_11_s0:1 8.814670e-03
*RES
1 lt_pn1_11_s0:Z pgm_pn1_11_s0:1 8.430556e+00
2 pgm_pn1_11_s0:1 vs_14_1:A 1.000000e-03
3 pgm_pn1_11_s0:1 vs_10_1:A 1.000000e-03
*END

*D_NET pgm_pn1_11_s1 9.343914e-03
*CONN
*I lt_pn1_11_s1:Z O
*I vs_31_1:A I
*I vs_26_1:A I
*CAP
1 pgm_pn1_11_s1:1 9.343914e-03
*RES
1 lt_pn1_11_s1:Z pgm_pn1_11_s1:1 1.060331e+01
2 pgm_pn1_11_s1:1 vs_31_1:A 1.000000e-03
3 pgm_pn1_11_s1:1 vs_26_1:A 1.000000e-03
*END

*D_NET pgm_pn1_11_s2 9.440381e-03
*CONN
*I lt_pn1_11_s2:Z O
*I vs_46_1:A I
*I vs_43_1:A I
*CAP
1 pgm_pn1_11_s2:1 9.440381e-03
*RES
1 lt_pn1_11_s2:Z pgm_pn1_11_s2:1 7.424449e+00
2 pgm_pn1_11_s2:1 vs_46_1:A 1.000000e-03
3 pgm_pn1_11_s2:1 vs_43_1:A 1.000000e-03
*END

*D_NET pgm_pn1_11_s3 1.098279e-02
*CONN
*I lt_pn1_11_s3:Z O
*I vs_55_1:A I
*CAP
1 pgm_pn1_11_s3:1 1.098279e-02
*RES
1 lt_pn1_11_s3:Z pgm_pn1_11_s3:1 1.035880e+01
2 pgm_pn1_11_s3:1 vs_55_1:A 1.000000e-03
*END

*D_NET pgm_pn1_12_s1 7.024841e-03
*CONN
*I lt_pn1_12_s1:Z O
*I vs_27_1:A I
*CAP
1 pgm_pn1_12_s1:1 7.024841e-03
*RES
1 lt_pn1_12_s1:Z pgm_pn1_12_s1:1 6.255510e+00
2 pgm_pn1_12_s1:1 vs_27_1:A 1.000000e-03
*END

*D_NET pgm_pn1_2_s3 1.089912e-02
*CONN
*I lt_pn1_2_s3:Z O
*I vs_58_1:A I
*CAP
1 pgm_pn1_2_s3:1 1.089912e-02
*RES
1 lt_pn1_2_s3:Z pgm_pn1_2_s3:1 1.137187e+01
2 pgm_pn1_2_s3:1 vs_58_1:A 1.000000e-03
*END

*D_NET pgm_pn1_3_s0 5.119304e-03
*CONN
*I lt_pn1_3_s0:Z O
*I vs_4_1:A I
*I vs_1_1:A I
*CAP
1 pgm_pn1_3_s0:1 5.119304e-03
*RES
1 lt_pn1_3_s0:Z pgm_pn1_3_s0:1 5.809294e+00
2 pgm_pn1_3_s0:1 vs_4_1:A 1.000000e-03
3 pgm_pn1_3_s0:1 vs_1_1:A 1.000000e-03
*END

*D_NET pgm_pn1_5_s2 7.406400e-03
*CONN
*I lt_pn1_5_s2:Z O
*I vs_34_1:A I
*CAP
1 pgm_pn1_5_s2:1 7.406400e-03
*RES
1 lt_pn1_5_s2:Z pgm_pn1_5_s2:1 8.404650e+00
2 pgm_pn1_5_s2:1 vs_34_1:A 1.000000e-03
*END

*D_NET pgm_pn1_6_s2 3.507671e-03
*CONN
*I lt_pn1_6_s2:Z O
*I vs_38_1:A I
*CAP
1 pgm_pn1_6_s2:1 3.507671e-03
*RES
1 lt_pn1_6_s2:Z pgm_pn1_6_s2:1 3.980442e+00
2 pgm_pn1_6_s2:1 vs_38_1:A 1.000000e-03
*END

*D_NET pgm_pn1_7_s0 1.032190e-02
*CONN
*I lt_pn1_7_s0:Z O
*I vs_5_1:A I
*CAP
1 pgm_pn1_7_s0:1 1.032190e-02
*RES
1 lt_pn1_7_s0:Z pgm_pn1_7_s0:1 7.992837e+00
2 pgm_pn1_7_s0:1 vs_5_1:A 1.000000e-03
*END

*D_NET pgm_pn1_8_s0 9.494420e-03
*CONN
*I lt_pn1_8_s0:Z O
*I vs_12_1:A I
*I vs_6_1:A I
*CAP
1 pgm_pn1_8_s0:1 9.494420e-03
*RES
1 lt_pn1_8_s0:Z pgm_pn1_8_s0:1 5.276920e+00
2 pgm_pn1_8_s0:1 vs_12_1:A 1.000000e-03
3 pgm_pn1_8_s0:1 vs_6_1:A 1.000000e-03
*END

*D_NET pgm_pn1_8_s1 4.574193e-03
*CONN
*I lt_pn1_8_s1:Z O
*I vs_23_1:A I
*CAP
1 pgm_pn1_8_s1:1 4.574193e-03
*RES
1 lt_pn1_8_s1:Z pgm_pn1_8_s1:1 5.190712e+00
2 pgm_pn1_8_s1:1 vs_23_1:A 1.000000e-03
*END

*D_NET pgm_pn1_9_s0 1.874412e-02
*CONN
*I lt_pn1_9_s0:Z O
*I vs_0_1:A I
*CAP
1 pgm_pn1_9_s0:1 1.874412e-02
*RES
1 lt_pn1_9_s0:Z pgm_pn1_9_s0:1 2.127049e+01
2 pgm_pn1_9_s0:1 vs_0_1:A 1.000000e-03
*END

*D_NET pgm_pn1_9_s1 1.849216e-02
*CONN
*I lt_pn1_9_s1:Z O
*I vs_25_1:A I
*I vs_16_1:A I
*CAP
1 pgm_pn1_9_s1:1 1.849216e-02
*RES
1 lt_pn1_9_s1:Z pgm_pn1_9_s1:1 1.998832e+01
2 pgm_pn1_9_s1:1 vs_25_1:A 1.000000e-03
3 pgm_pn1_9_s1:1 vs_16_1:A 1.000000e-03
*END

*D_NET pgm_pn1_9_s2 1.508536e-02
*CONN
*I lt_pn1_9_s2:Z O
*I vs_45_1:A I
*I vs_44_1:A I
*I vs_40_1:A I
*I vs_36_1:A I
*CAP
1 pgm_pn1_9_s2:1 1.508536e-02
*RES
1 lt_pn1_9_s2:Z pgm_pn1_9_s2:1 1.711859e+01
2 pgm_pn1_9_s2:1 vs_45_1:A 1.000000e-03
3 pgm_pn1_9_s2:1 vs_44_1:A 1.000000e-03
4 pgm_pn1_9_s2:1 vs_40_1:A 1.000000e-03
5 pgm_pn1_9_s2:1 vs_36_1:A 1.000000e-03
*END

*D_NET pgm_pn1_9_s3 1.516017e-02
*CONN
*I lt_pn1_9_s3:Z O
*I vs_57_1:A I
*I vs_50_1:A I
*CAP
1 pgm_pn1_9_s3:1 1.516017e-02
*RES
1 lt_pn1_9_s3:Z pgm_pn1_9_s3:1 1.649519e+01
2 pgm_pn1_9_s3:1 vs_57_1:A 1.000000e-03
3 pgm_pn1_9_s3:1 vs_50_1:A 1.000000e-03
*END

*D_NET pgm_pn20_0_s0 2.022720e-02
*CONN
*I lt_pn20_0_s0:Z O
*I vs_11_20:A I
*CAP
1 pgm_pn20_0_s0:1 2.022720e-02
*RES
1 lt_pn20_0_s0:Z pgm_pn20_0_s0:1 1.740528e+01
2 pgm_pn20_0_s0:1 vs_11_20:A 1.000000e-03
*END

*D_NET pgm_pn20_10_s1 7.613779e-03
*CONN
*I lt_pn20_10_s1:Z O
*I vs_31_20:A I
*I vs_27_20:A I
*CAP
1 pgm_pn20_10_s1:1 7.613779e-03
*RES
1 lt_pn20_10_s1:Z pgm_pn20_10_s1:1 8.639980e+00
2 pgm_pn20_10_s1:1 vs_31_20:A 1.000000e-03
3 pgm_pn20_10_s1:1 vs_27_20:A 1.000000e-03
*END

*D_NET pgm_pn20_11_s0 2.229047e-02
*CONN
*I lt_pn20_11_s0:Z O
*I vs_8_20:A I
*I vs_0_20:A I
*CAP
1 pgm_pn20_11_s0:1 2.229047e-02
*RES
1 lt_pn20_11_s0:Z pgm_pn20_11_s0:1 2.343469e+01
2 pgm_pn20_11_s0:1 vs_8_20:A 1.000000e-03
3 pgm_pn20_11_s0:1 vs_0_20:A 1.000000e-03
*END

*D_NET pgm_pn20_11_s1 2.141696e-02
*CONN
*I lt_pn20_11_s1:Z O
*I vs_25_20:A I
*I vs_18_20:A I
*I vs_16_20:A I
*CAP
1 pgm_pn20_11_s1:1 2.141696e-02
*RES
1 lt_pn20_11_s1:Z pgm_pn20_11_s1:1 2.259903e+01
2 pgm_pn20_11_s1:1 vs_25_20:A 1.000000e-03
3 pgm_pn20_11_s1:1 vs_18_20:A 1.000000e-03
4 pgm_pn20_11_s1:1 vs_16_20:A 1.000000e-03
*END

*D_NET pgm_pn20_11_s2 2.347682e-02
*CONN
*I lt_pn20_11_s2:Z O
*I vs_47_20:A I
*I vs_35_20:A I
*I vs_32_20:A I
*CAP
1 pgm_pn20_11_s2:1 2.347682e-02
*RES
1 lt_pn20_11_s2:Z pgm_pn20_11_s2:1 2.521288e+01
2 pgm_pn20_11_s2:1 vs_47_20:A 1.000000e-03
3 pgm_pn20_11_s2:1 vs_35_20:A 1.000000e-03
4 pgm_pn20_11_s2:1 vs_32_20:A 1.000000e-03
*END

*D_NET pgm_pn20_12_s2 1.893300e-02
*CONN
*I lt_pn20_12_s2:Z O
*I vs_43_20:A I
*I vs_40_20:A I
*I vs_36_20:A I
*CAP
1 pgm_pn20_12_s2:1 1.893300e-02
*RES
1 lt_pn20_12_s2:Z pgm_pn20_12_s2:1 1.933674e+01
2 pgm_pn20_12_s2:1 vs_43_20:A 1.000000e-03
3 pgm_pn20_12_s2:1 vs_40_20:A 1.000000e-03
4 pgm_pn20_12_s2:1 vs_36_20:A 1.000000e-03
*END

*D_NET pgm_pn20_3_s1 4.983026e-03
*CONN
*I lt_pn20_3_s1:Z O
*I vs_23_20:A I
*CAP
1 pgm_pn20_3_s1:1 4.983026e-03
*RES
1 lt_pn20_3_s1:Z pgm_pn20_3_s1:1 5.654649e+00
2 pgm_pn20_3_s1:1 vs_23_20:A 1.000000e-03
*END

*D_NET pgm_pn20_3_s3 3.910579e-03
*CONN
*I lt_pn20_3_s3:Z O
*I vs_50_20:A I
*CAP
1 pgm_pn20_3_s3:1 3.910579e-03
*RES
1 lt_pn20_3_s3:Z pgm_pn20_3_s3:1 4.437655e+00
2 pgm_pn20_3_s3:1 vs_50_20:A 1.000000e-03
*END

*D_NET pgm_pn20_4_s2 6.055473e-03
*CONN
*I lt_pn20_4_s2:Z O
*I vs_38_20:A I
*I vs_34_20:A I
*CAP
1 pgm_pn20_4_s2:1 6.055473e-03
*RES
1 lt_pn20_4_s2:Z pgm_pn20_4_s2:1 6.871642e+00
2 pgm_pn20_4_s2:1 vs_38_20:A 1.000000e-03
3 pgm_pn20_4_s2:1 vs_34_20:A 1.000000e-03
*END

*D_NET pgm_pn20_4_s3 9.346908e-03
*CONN
*I lt_pn20_4_s3:Z O
*I vs_58_20:A I
*I vs_55_20:A I
*CAP
1 pgm_pn20_4_s3:1 9.346908e-03
*RES
1 lt_pn20_4_s3:Z pgm_pn20_4_s3:1 7.750315e+00
2 pgm_pn20_4_s3:1 vs_58_20:A 1.000000e-03
3 pgm_pn20_4_s3:1 vs_55_20:A 1.000000e-03
*END

*D_NET pgm_pn20_5_s0 2.150819e-03
*CONN
*I lt_pn20_5_s0:Z O
*I vs_5_20:A I
*CAP
1 pgm_pn20_5_s0:1 2.150819e-03
*RES
1 lt_pn20_5_s0:Z pgm_pn20_5_s0:1 2.440710e+00
2 pgm_pn20_5_s0:1 vs_5_20:A 1.000000e-03
*END

*D_NET pgm_pn20_5_s3 3.762451e-03
*CONN
*I lt_pn20_5_s3:Z O
*I vs_52_20:A I
*CAP
1 pgm_pn20_5_s3:1 3.762451e-03
*RES
1 lt_pn20_5_s3:Z pgm_pn20_5_s3:1 4.269562e+00
2 pgm_pn20_5_s3:1 vs_52_20:A 1.000000e-03
*END

*D_NET pgm_pn20_6_s0 2.553727e-03
*CONN
*I lt_pn20_6_s0:Z O
*I vs_6_20:A I
*CAP
1 pgm_pn20_6_s0:1 2.553727e-03
*RES
1 lt_pn20_6_s0:Z pgm_pn20_6_s0:1 2.897923e+00
2 pgm_pn20_6_s0:1 vs_6_20:A 1.000000e-03
*END

*D_NET pgm_pn20_7_s2 5.969558e-03
*CONN
*I lt_pn20_7_s2:Z O
*I vs_45_20:A I
*CAP
1 pgm_pn20_7_s2:1 5.969558e-03
*RES
1 lt_pn20_7_s2:Z pgm_pn20_7_s2:1 6.774148e+00
2 pgm_pn20_7_s2:1 vs_45_20:A 1.000000e-03
*END

*D_NET pgm_pn20_8_s2 1.421140e-02
*CONN
*I lt_pn20_8_s2:Z O
*I vs_33_20:A I
*CAP
1 pgm_pn20_8_s2:1 1.421140e-02
*RES
1 lt_pn20_8_s2:Z pgm_pn20_8_s2:1 1.612684e+01
2 pgm_pn20_8_s2:1 vs_33_20:A 1.000000e-03
*END

*D_NET pgm_pn20_8_s3 1.497574e-02
*CONN
*I lt_pn20_8_s3:Z O
*I vs_48_20:A I
*CAP
1 pgm_pn20_8_s3:1 1.497574e-02
*RES
1 lt_pn20_8_s3:Z pgm_pn20_8_s3:1 1.699420e+01
2 pgm_pn20_8_s3:1 vs_48_20:A 1.000000e-03
*END

*D_NET pgm_pn20_9_s0 1.217391e-02
*CONN
*I lt_pn20_9_s0:Z O
*I vs_4_20:A I
*CAP
1 pgm_pn20_9_s0:1 1.217391e-02
*RES
1 lt_pn20_9_s0:Z pgm_pn20_9_s0:1 1.310643e+01
2 pgm_pn20_9_s0:1 vs_4_20:A 1.000000e-03
*END

*D_NET pgm_pn20_9_s1 2.968485e-03
*CONN
*I lt_pn20_9_s1:Z O
*I vs_29_20:A I
*CAP
1 pgm_pn20_9_s1:1 2.968485e-03
*RES
1 lt_pn20_9_s1:Z pgm_pn20_9_s1:1 3.368584e+00
2 pgm_pn20_9_s1:1 vs_29_20:A 1.000000e-03
*END

*D_NET pgm_pn21_0_s0 1.798866e-02
*CONN
*I lt_pn21_0_s0:Z O
*I vs_14_21:A I
*I vs_12_21:A I
*I vs_11_21:A I
*I vs_8_21:A I
*I vs_7_21:A I
*I vs_4_21:A I
*I vs_3_21:A I
*I vs_2_21:A I
*CAP
1 pgm_pn21_0_s0:1 1.798866e-02
*RES
1 lt_pn21_0_s0:Z pgm_pn21_0_s0:1 2.041321e+01
2 pgm_pn21_0_s0:1 vs_14_21:A 1.000000e-03
3 pgm_pn21_0_s0:1 vs_12_21:A 1.000000e-03
4 pgm_pn21_0_s0:1 vs_11_21:A 1.000000e-03
5 pgm_pn21_0_s0:1 vs_8_21:A 1.000000e-03
6 pgm_pn21_0_s0:1 vs_7_21:A 1.000000e-03
7 pgm_pn21_0_s0:1 vs_4_21:A 1.000000e-03
8 pgm_pn21_0_s0:1 vs_3_21:A 1.000000e-03
9 pgm_pn21_0_s0:1 vs_2_21:A 1.000000e-03
*END

*D_NET pgm_pn21_0_s1 1.447803e-02
*CONN
*I lt_pn21_0_s1:Z O
*I vs_29_21:A I
*I vs_25_21:A I
*I vs_19_21:A I
*CAP
1 pgm_pn21_0_s1:1 1.447803e-02
*RES
1 lt_pn21_0_s1:Z pgm_pn21_0_s1:1 1.642941e+01
2 pgm_pn21_0_s1:1 vs_29_21:A 1.000000e-03
3 pgm_pn21_0_s1:1 vs_25_21:A 1.000000e-03
4 pgm_pn21_0_s1:1 vs_19_21:A 1.000000e-03
*END

*D_NET pgm_pn21_0_s2 1.834788e-02
*CONN
*I lt_pn21_0_s2:Z O
*I vs_46_21:A I
*I vs_45_21:A I
*I vs_44_21:A I
*I vs_43_21:A I
*I vs_42_21:A I
*I vs_41_21:A I
*I vs_40_21:A I
*I vs_37_21:A I
*I vs_35_21:A I
*CAP
1 pgm_pn21_0_s2:1 1.834788e-02
*RES
1 lt_pn21_0_s2:Z pgm_pn21_0_s2:1 2.011255e+01
2 pgm_pn21_0_s2:1 vs_46_21:A 1.000000e-03
3 pgm_pn21_0_s2:1 vs_45_21:A 1.000000e-03
4 pgm_pn21_0_s2:1 vs_44_21:A 1.000000e-03
5 pgm_pn21_0_s2:1 vs_43_21:A 1.000000e-03
6 pgm_pn21_0_s2:1 vs_42_21:A 1.000000e-03
7 pgm_pn21_0_s2:1 vs_41_21:A 1.000000e-03
8 pgm_pn21_0_s2:1 vs_40_21:A 1.000000e-03
9 pgm_pn21_0_s2:1 vs_37_21:A 1.000000e-03
10 pgm_pn21_0_s2:1 vs_35_21:A 1.000000e-03
*END

*D_NET pgm_pn21_0_s3 2.366789e-02
*CONN
*I lt_pn21_0_s3:Z O
*I vs_63_21:A I
*I vs_60_21:A I
*I vs_59_21:A I
*I vs_58_21:A I
*I vs_57_21:A I
*I vs_55_21:A I
*I vs_54_21:A I
*I vs_52_21:A I
*I vs_51_21:A I
*I vs_49_21:A I
*CAP
1 pgm_pn21_0_s3:1 2.366789e-02
*RES
1 lt_pn21_0_s3:Z pgm_pn21_0_s3:1 2.685790e+01
2 pgm_pn21_0_s3:1 vs_63_21:A 1.000000e-03
3 pgm_pn21_0_s3:1 vs_60_21:A 1.000000e-03
4 pgm_pn21_0_s3:1 vs_59_21:A 1.000000e-03
5 pgm_pn21_0_s3:1 vs_58_21:A 1.000000e-03
6 pgm_pn21_0_s3:1 vs_57_21:A 1.000000e-03
7 pgm_pn21_0_s3:1 vs_55_21:A 1.000000e-03
8 pgm_pn21_0_s3:1 vs_54_21:A 1.000000e-03
9 pgm_pn21_0_s3:1 vs_52_21:A 1.000000e-03
10 pgm_pn21_0_s3:1 vs_51_21:A 1.000000e-03
11 pgm_pn21_0_s3:1 vs_49_21:A 1.000000e-03
*END

*D_NET pgm_pn2_10_s0 1.769537e-02
*CONN
*I lt_pn2_10_s0:Z O
*I vs_0_2:A I
*CAP
1 pgm_pn2_10_s0:1 1.769537e-02
*RES
1 lt_pn2_10_s0:Z pgm_pn2_10_s0:1 2.008039e+01
2 pgm_pn2_10_s0:1 vs_0_2:A 1.000000e-03
*END

*D_NET pgm_pn2_10_s1 1.462023e-02
*CONN
*I lt_pn2_10_s1:Z O
*I vs_27_2:A I
*I vs_19_2:A I
*CAP
1 pgm_pn2_10_s1:1 1.462023e-02
*RES
1 lt_pn2_10_s1:Z pgm_pn2_10_s1:1 1.659078e+01
2 pgm_pn2_10_s1:1 vs_27_2:A 1.000000e-03
3 pgm_pn2_10_s1:1 vs_19_2:A 1.000000e-03
*END

*D_NET pgm_pn2_10_s2 1.285397e-02
*CONN
*I lt_pn2_10_s2:Z O
*I vs_36_2:A I
*CAP
1 pgm_pn2_10_s2:1 1.285397e-02
*RES
1 lt_pn2_10_s2:Z pgm_pn2_10_s2:1 1.344622e+01
2 pgm_pn2_10_s2:1 vs_36_2:A 1.000000e-03
*END

*D_NET pgm_pn2_10_s3 2.333579e-02
*CONN
*I lt_pn2_10_s3:Z O
*I vs_62_2:A I
*I vs_60_2:A I
*I vs_48_2:A I
*CAP
1 pgm_pn2_10_s3:1 2.333579e-02
*RES
1 lt_pn2_10_s3:Z pgm_pn2_10_s3:1 1.965361e+01
2 pgm_pn2_10_s3:1 vs_62_2:A 1.000000e-03
3 pgm_pn2_10_s3:1 vs_60_2:A 1.000000e-03
4 pgm_pn2_10_s3:1 vs_48_2:A 1.000000e-03
*END

*D_NET pgm_pn2_11_s1 1.842120e-02
*CONN
*I lt_pn2_11_s1:Z O
*I vs_17_2:A I
*CAP
1 pgm_pn2_11_s1:1 1.842120e-02
*RES
1 lt_pn2_11_s1:Z pgm_pn2_11_s1:1 2.090405e+01
2 pgm_pn2_11_s1:1 vs_17_2:A 1.000000e-03
*END

*D_NET pgm_pn2_11_s3 1.499709e-02
*CONN
*I lt_pn2_11_s3:Z O
*I vs_52_2:A I
*CAP
1 pgm_pn2_11_s3:1 1.499709e-02
*RES
1 lt_pn2_11_s3:Z pgm_pn2_11_s3:1 1.530228e+01
2 pgm_pn2_11_s3:1 vs_52_2:A 1.000000e-03
*END

*D_NET pgm_pn2_12_s0 1.836804e-02
*CONN
*I lt_pn2_12_s0:Z O
*I vs_5_2:A I
*I vs_3_2:A I
*CAP
1 pgm_pn2_12_s0:1 1.836804e-02
*RES
1 lt_pn2_12_s0:Z pgm_pn2_12_s0:1 1.898359e+01
2 pgm_pn2_12_s0:1 vs_5_2:A 1.000000e-03
3 pgm_pn2_12_s0:1 vs_3_2:A 1.000000e-03
*END

*D_NET pgm_pn2_12_s1 2.929972e-03
*CONN
*I lt_pn2_12_s1:Z O
*I vs_31_2:A I
*I vs_30_2:A I
*CAP
1 pgm_pn2_12_s1:1 2.929972e-03
*RES
1 lt_pn2_12_s1:Z pgm_pn2_12_s1:1 3.324880e+00
2 pgm_pn2_12_s1:1 vs_31_2:A 1.000000e-03
3 pgm_pn2_12_s1:1 vs_30_2:A 1.000000e-03
*END

*D_NET pgm_pn2_12_s2 2.402418e-02
*CONN
*I lt_pn2_12_s2:Z O
*I vs_37_2:A I
*I vs_35_2:A I
*I vs_33_2:A I
*CAP
1 pgm_pn2_12_s2:1 2.402418e-02
*RES
1 lt_pn2_12_s2:Z pgm_pn2_12_s2:1 2.368592e+01
2 pgm_pn2_12_s2:1 vs_37_2:A 1.000000e-03
3 pgm_pn2_12_s2:1 vs_35_2:A 1.000000e-03
4 pgm_pn2_12_s2:1 vs_33_2:A 1.000000e-03
*END

*D_NET pgm_pn2_2_s1 1.066212e-02
*CONN
*I lt_pn2_2_s1:Z O
*I vs_26_2:A I
*CAP
1 pgm_pn2_2_s1:1 1.066212e-02
*RES
1 lt_pn2_2_s1:Z pgm_pn2_2_s1:1 1.110292e+01
2 pgm_pn2_2_s1:1 vs_26_2:A 1.000000e-03
*END

*D_NET pgm_pn2_3_s2 1.409528e-02
*CONN
*I lt_pn2_3_s2:Z O
*I vs_45_2:A I
*CAP
1 pgm_pn2_3_s2:1 1.409528e-02
*RES
1 lt_pn2_3_s2:Z pgm_pn2_3_s2:1 1.485484e+01
2 pgm_pn2_3_s2:1 vs_45_2:A 1.000000e-03
*END

*D_NET pgm_pn2_3_s3 3.501746e-03
*CONN
*I lt_pn2_3_s3:Z O
*I vs_50_2:A I
*CAP
1 pgm_pn2_3_s3:1 3.501746e-03
*RES
1 lt_pn2_3_s3:Z pgm_pn2_3_s3:1 3.973719e+00
2 pgm_pn2_3_s3:1 vs_50_2:A 1.000000e-03
*END

*D_NET pgm_pn2_4_s0 6.049548e-03
*CONN
*I lt_pn2_4_s0:Z O
*I vs_1_2:A I
*CAP
1 pgm_pn2_4_s0:1 6.049548e-03
*RES
1 lt_pn2_4_s0:Z pgm_pn2_4_s0:1 6.864918e+00
2 pgm_pn2_4_s0:1 vs_1_2:A 1.000000e-03
*END

*D_NET pgm_pn2_5_s1 9.924576e-04
*CONN
*I lt_pn2_5_s1:Z O
*I vs_22_2:A I
*CAP
1 pgm_pn2_5_s1:1 9.924576e-04
*RES
1 lt_pn2_5_s1:Z pgm_pn2_5_s1:1 1.126223e+00
2 pgm_pn2_5_s1:1 vs_22_2:A 1.000000e-03
*END

*D_NET pgm_pn2_6_s3 3.012924e-03
*CONN
*I lt_pn2_6_s3:Z O
*I vs_55_2:A I
*I vs_54_2:A I
*CAP
1 pgm_pn2_6_s3:1 3.012924e-03
*RES
1 lt_pn2_6_s3:Z pgm_pn2_6_s3:1 3.419012e+00
2 pgm_pn2_6_s3:1 vs_55_2:A 1.000000e-03
3 pgm_pn2_6_s3:1 vs_54_2:A 1.000000e-03
*END

*D_NET pgm_pn2_7_s2 4.035007e-03
*CONN
*I lt_pn2_7_s2:Z O
*I vs_44_2:A I
*I vs_43_2:A I
*I vs_41_2:A I
*CAP
1 pgm_pn2_7_s2:1 4.035007e-03
*RES
1 lt_pn2_7_s2:Z pgm_pn2_7_s2:1 4.578853e+00
2 pgm_pn2_7_s2:1 vs_44_2:A 1.000000e-03
3 pgm_pn2_7_s2:1 vs_43_2:A 1.000000e-03
4 pgm_pn2_7_s2:1 vs_41_2:A 1.000000e-03
*END

*D_NET pgm_pn2_8_s0 7.684881e-03
*CONN
*I lt_pn2_8_s0:Z O
*I vs_13_2:A I
*I vs_9_2:A I
*CAP
1 pgm_pn2_8_s0:1 7.684881e-03
*RES
1 lt_pn2_8_s0:Z pgm_pn2_8_s0:1 8.720665e+00
2 pgm_pn2_8_s0:1 vs_13_2:A 1.000000e-03
3 pgm_pn2_8_s0:1 vs_9_2:A 1.000000e-03
*END

*D_NET pgm_pn2_9_s0 1.610635e-02
*CONN
*I lt_pn2_9_s0:Z O
*I vs_14_2:A I
*I vs_10_2:A I
*I vs_4_2:A I
*CAP
1 pgm_pn2_9_s0:1 1.610635e-02
*RES
1 lt_pn2_9_s0:Z pgm_pn2_9_s0:1 1.621674e+01
2 pgm_pn2_9_s0:1 vs_14_2:A 1.000000e-03
3 pgm_pn2_9_s0:1 vs_10_2:A 1.000000e-03
4 pgm_pn2_9_s0:1 vs_4_2:A 1.000000e-03
*END

*D_NET pgm_pn2_9_s1 1.091407e-02
*CONN
*I lt_pn2_9_s1:Z O
*I vs_25_2:A I
*I vs_24_2:A I
*I vs_21_2:A I
*CAP
1 pgm_pn2_9_s1:1 1.091407e-02
*RES
1 lt_pn2_9_s1:Z pgm_pn2_9_s1:1 1.238509e+01
2 pgm_pn2_9_s1:1 vs_25_2:A 1.000000e-03
3 pgm_pn2_9_s1:1 vs_24_2:A 1.000000e-03
4 pgm_pn2_9_s1:1 vs_21_2:A 1.000000e-03
*END

*D_NET pgm_pn2_9_s2 8.668279e-03
*CONN
*I lt_pn2_9_s2:Z O
*I vs_39_2:A I
*I vs_38_2:A I
*CAP
1 pgm_pn2_9_s2:1 8.668279e-03
*RES
1 lt_pn2_9_s2:Z pgm_pn2_9_s2:1 8.452233e+00
2 pgm_pn2_9_s2:1 vs_39_2:A 1.000000e-03
3 pgm_pn2_9_s2:1 vs_38_2:A 1.000000e-03
*END

*D_NET pgm_pn2_9_s3 6.748712e-03
*CONN
*I lt_pn2_9_s3:Z O
*I vs_63_2:A I
*I vs_61_2:A I
*CAP
1 pgm_pn2_9_s3:1 6.748712e-03
*RES
1 lt_pn2_9_s3:Z pgm_pn2_9_s3:1 7.658317e+00
2 pgm_pn2_9_s3:1 vs_63_2:A 1.000000e-03
3 pgm_pn2_9_s3:1 vs_61_2:A 1.000000e-03
*END

*D_NET pgm_pn3_0_s3 6.133110e-03
*CONN
*I lt_pn3_0_s3:Z O
*I vs_52_3:A I
*CAP
1 pgm_pn3_0_s3:1 6.133110e-03
*RES
1 lt_pn3_0_s3:Z pgm_pn3_0_s3:1 5.243591e+00
2 pgm_pn3_0_s3:1 vs_52_3:A 1.000000e-03
*END

*D_NET pgm_pn3_10_s0 2.002915e-02
*CONN
*I lt_pn3_10_s0:Z O
*I vs_14_3:A I
*I vs_4_3:A I
*I vs_2_3:A I
*CAP
1 pgm_pn3_10_s0:1 2.002915e-02
*RES
1 lt_pn3_10_s0:Z pgm_pn3_10_s0:1 2.058643e+01
2 pgm_pn3_10_s0:1 vs_14_3:A 1.000000e-03
3 pgm_pn3_10_s0:1 vs_4_3:A 1.000000e-03
4 pgm_pn3_10_s0:1 vs_2_3:A 1.000000e-03
*END

*D_NET pgm_pn3_10_s1 1.059977e-02
*CONN
*I lt_pn3_10_s1:Z O
*I vs_23_3:A I
*CAP
1 pgm_pn3_10_s1:1 1.059977e-02
*RES
1 lt_pn3_10_s1:Z pgm_pn3_10_s1:1 1.002431e+01
2 pgm_pn3_10_s1:1 vs_23_3:A 1.000000e-03
*END

*D_NET pgm_pn3_10_s3 1.719174e-02
*CONN
*I lt_pn3_10_s3:Z O
*I vs_51_3:A I
*CAP
1 pgm_pn3_10_s3:1 1.719174e-02
*RES
1 lt_pn3_10_s3:Z pgm_pn3_10_s3:1 1.950887e+01
2 pgm_pn3_10_s3:1 vs_51_3:A 1.000000e-03
*END

*D_NET pgm_pn3_11_s1 1.842120e-02
*CONN
*I lt_pn3_11_s1:Z O
*I vs_17_3:A I
*CAP
1 pgm_pn3_11_s1:1 1.842120e-02
*RES
1 lt_pn3_11_s1:Z pgm_pn3_11_s1:1 2.090405e+01
2 pgm_pn3_11_s1:1 vs_17_3:A 1.000000e-03
*END

*D_NET pgm_pn3_11_s3 5.357362e-03
*CONN
*I lt_pn3_11_s3:Z O
*I vs_62_3:A I
*I vs_60_3:A I
*CAP
1 pgm_pn3_11_s3:1 5.357362e-03
*RES
1 lt_pn3_11_s3:Z pgm_pn3_11_s3:1 4.507265e+00
2 pgm_pn3_11_s3:1 vs_62_3:A 1.000000e-03
3 pgm_pn3_11_s3:1 vs_60_3:A 1.000000e-03
*END

*D_NET pgm_pn3_12_s0 7.059780e-03
*CONN
*I lt_pn3_12_s0:Z O
*I vs_11_3:A I
*CAP
1 pgm_pn3_12_s0:1 7.059780e-03
*RES
1 lt_pn3_12_s0:Z pgm_pn3_12_s0:1 8.011312e+00
2 pgm_pn3_12_s0:1 vs_11_3:A 1.000000e-03
*END

*D_NET pgm_pn3_12_s1 2.281178e-02
*CONN
*I lt_pn3_12_s1:Z O
*I vs_31_3:A I
*I vs_27_3:A I
*I vs_22_3:A I
*I vs_18_3:A I
*CAP
1 pgm_pn3_12_s1:1 2.281178e-02
*RES
1 lt_pn3_12_s1:Z pgm_pn3_12_s1:1 2.504038e+01
2 pgm_pn3_12_s1:1 vs_31_3:A 1.000000e-03
3 pgm_pn3_12_s1:1 vs_27_3:A 1.000000e-03
4 pgm_pn3_12_s1:1 vs_22_3:A 1.000000e-03
5 pgm_pn3_12_s1:1 vs_18_3:A 1.000000e-03
*END

*D_NET pgm_pn3_12_s2 2.454899e-02
*CONN
*I lt_pn3_12_s2:Z O
*I vs_46_3:A I
*I vs_33_3:A I
*CAP
1 pgm_pn3_12_s2:1 2.454899e-02
*RES
1 lt_pn3_12_s2:Z pgm_pn3_12_s2:1 2.441965e+01
2 pgm_pn3_12_s2:1 vs_46_3:A 1.000000e-03
3 pgm_pn3_12_s2:1 vs_33_3:A 1.000000e-03
*END

*D_NET pgm_pn3_12_s3 9.617829e-03
*CONN
*I lt_pn3_12_s3:Z O
*I vs_58_3:A I
*CAP
1 pgm_pn3_12_s3:1 9.617829e-03
*RES
1 lt_pn3_12_s3:Z pgm_pn3_12_s3:1 8.478090e+00
2 pgm_pn3_12_s3:1 vs_58_3:A 1.000000e-03
*END

*D_NET pgm_pn3_1_s1 1.277946e-02
*CONN
*I lt_pn3_1_s1:Z O
*I vs_26_3:A I
*CAP
1 pgm_pn3_1_s1:1 1.277946e-02
*RES
1 lt_pn3_1_s1:Z pgm_pn3_1_s1:1 1.321769e+01
2 pgm_pn3_1_s1:1 vs_26_3:A 1.000000e-03
*END

*D_NET pgm_pn3_2_s3 4.932662e-03
*CONN
*I lt_pn3_2_s3:Z O
*I vs_54_3:A I
*CAP
1 pgm_pn3_2_s3:1 4.932662e-03
*RES
1 lt_pn3_2_s3:Z pgm_pn3_2_s3:1 5.597497e+00
2 pgm_pn3_2_s3:1 vs_54_3:A 1.000000e-03
*END

*D_NET pgm_pn3_3_s1 7.605807e-03
*CONN
*I lt_pn3_3_s1:Z O
*I vs_25_3:A I
*CAP
1 pgm_pn3_3_s1:1 7.605807e-03
*RES
1 lt_pn3_3_s1:Z pgm_pn3_3_s1:1 5.506287e+00
2 pgm_pn3_3_s1:1 vs_25_3:A 1.000000e-03
*END

*D_NET pgm_pn3_3_s3 7.077556e-03
*CONN
*I lt_pn3_3_s3:Z O
*I vs_57_3:A I
*CAP
1 pgm_pn3_3_s3:1 7.077556e-03
*RES
1 lt_pn3_3_s3:Z pgm_pn3_3_s3:1 8.031484e+00
2 pgm_pn3_3_s3:1 vs_57_3:A 1.000000e-03
*END

*D_NET pgm_pn3_6_s2 1.199837e-02
*CONN
*I lt_pn3_6_s2:Z O
*I vs_32_3:A I
*CAP
1 pgm_pn3_6_s2:1 1.199837e-02
*RES
1 lt_pn3_6_s2:Z pgm_pn3_6_s2:1 1.361553e+01
2 pgm_pn3_6_s2:1 vs_32_3:A 1.000000e-03
*END

*D_NET pgm_pn3_7_s2 9.385642e-03
*CONN
*I lt_pn3_7_s2:Z O
*I vs_37_3:A I
*CAP
1 pgm_pn3_7_s2:1 9.385642e-03
*RES
1 lt_pn3_7_s2:Z pgm_pn3_7_s2:1 7.866260e+00
2 pgm_pn3_7_s2:1 vs_37_3:A 1.000000e-03
*END

*D_NET pgm_pn3_8_s0 4.695658e-03
*CONN
*I lt_pn3_8_s0:Z O
*I vs_8_3:A I
*CAP
1 pgm_pn3_8_s0:1 4.695658e-03
*RES
1 lt_pn3_8_s0:Z pgm_pn3_8_s0:1 5.328548e+00
2 pgm_pn3_8_s0:1 vs_8_3:A 1.000000e-03
*END

*D_NET pgm_pn3_9_s0 9.356103e-03
*CONN
*I lt_pn3_9_s0:Z O
*I vs_6_3:A I
*CAP
1 pgm_pn3_9_s0:1 9.356103e-03
*RES
1 lt_pn3_9_s0:Z pgm_pn3_9_s0:1 9.063745e+00
2 pgm_pn3_9_s0:1 vs_6_3:A 1.000000e-03
*END

*D_NET pgm_pn3_9_s1 4.289787e-03
*CONN
*I lt_pn3_9_s1:Z O
*I vs_29_3:A I
*CAP
1 pgm_pn3_9_s1:1 4.289787e-03
*RES
1 lt_pn3_9_s1:Z pgm_pn3_9_s1:1 4.867973e+00
2 pgm_pn3_9_s1:1 vs_29_3:A 1.000000e-03
*END

*D_NET pgm_pn3_9_s2 8.262580e-03
*CONN
*I lt_pn3_9_s2:Z O
*I vs_47_3:A I
*I vs_42_3:A I
*CAP
1 pgm_pn3_9_s2:1 8.262580e-03
*RES
1 lt_pn3_9_s2:Z pgm_pn3_9_s2:1 9.376228e+00
2 pgm_pn3_9_s2:1 vs_47_3:A 1.000000e-03
3 pgm_pn3_9_s2:1 vs_42_3:A 1.000000e-03
*END

*D_NET pgm_pn3_9_s3 2.239290e-02
*CONN
*I lt_pn3_9_s3:Z O
*I vs_61_3:A I
*I vs_49_3:A I
*I vs_48_3:A I
*CAP
1 pgm_pn3_9_s3:1 2.239290e-02
*RES
1 lt_pn3_9_s3:Z pgm_pn3_9_s3:1 2.335061e+01
2 pgm_pn3_9_s3:1 vs_61_3:A 1.000000e-03
3 pgm_pn3_9_s3:1 vs_49_3:A 1.000000e-03
4 pgm_pn3_9_s3:1 vs_48_3:A 1.000000e-03
*END

*D_NET pgm_pn4_10_s1 4.896974e-03
*CONN
*I lt_pn4_10_s1:Z O
*I vs_26_4:A I
*CAP
1 pgm_pn4_10_s1:1 4.896974e-03
*RES
1 lt_pn4_10_s1:Z pgm_pn4_10_s1:1 4.560743e+00
2 pgm_pn4_10_s1:1 vs_26_4:A 1.000000e-03
*END

*D_NET pgm_pn4_10_s3 3.759489e-03
*CONN
*I lt_pn4_10_s3:Z O
*I vs_59_4:A I
*CAP
1 pgm_pn4_10_s3:1 3.759489e-03
*RES
1 lt_pn4_10_s3:Z pgm_pn4_10_s3:1 4.266200e+00
2 pgm_pn4_10_s3:1 vs_59_4:A 1.000000e-03
*END

*D_NET pgm_pn4_11_s0 7.989750e-03
*CONN
*I lt_pn4_11_s0:Z O
*I vs_10_4:A I
*CAP
1 pgm_pn4_11_s0:1 7.989750e-03
*RES
1 lt_pn4_11_s0:Z pgm_pn4_11_s0:1 7.062513e+00
2 pgm_pn4_11_s0:1 vs_10_4:A 1.000000e-03
*END

*D_NET pgm_pn4_11_s2 5.528137e-03
*CONN
*I lt_pn4_11_s2:Z O
*I vs_47_4:A I
*I vs_44_4:A I
*CAP
1 pgm_pn4_11_s2:1 5.528137e-03
*RES
1 lt_pn4_11_s2:Z pgm_pn4_11_s2:1 6.273231e+00
2 pgm_pn4_11_s2:1 vs_47_4:A 1.000000e-03
3 pgm_pn4_11_s2:1 vs_44_4:A 1.000000e-03
*END

*D_NET pgm_pn4_11_s3 1.206371e-02
*CONN
*I lt_pn4_11_s3:Z O
*I vs_55_4:A I
*CAP
1 pgm_pn4_11_s3:1 1.206371e-02
*RES
1 lt_pn4_11_s3:Z pgm_pn4_11_s3:1 1.182955e+01
2 pgm_pn4_11_s3:1 vs_55_4:A 1.000000e-03
*END

*D_NET pgm_pn4_12_s0 2.292360e-02
*CONN
*I lt_pn4_12_s0:Z O
*I vs_9_4:A I
*I vs_5_4:A I
*I vs_3_4:A I
*CAP
1 pgm_pn4_12_s0:1 2.292360e-02
*RES
1 lt_pn4_12_s0:Z pgm_pn4_12_s0:1 2.100301e+01
2 pgm_pn4_12_s0:1 vs_9_4:A 1.000000e-03
3 pgm_pn4_12_s0:1 vs_5_4:A 1.000000e-03
4 pgm_pn4_12_s0:1 vs_3_4:A 1.000000e-03
*END

*D_NET pgm_pn4_12_s1 2.025502e-02
*CONN
*I lt_pn4_12_s1:Z O
*I vs_17_4:A I
*CAP
1 pgm_pn4_12_s1:1 2.025502e-02
*RES
1 lt_pn4_12_s1:Z pgm_pn4_12_s1:1 2.298504e+01
2 pgm_pn4_12_s1:1 vs_17_4:A 1.000000e-03
*END

*D_NET pgm_pn4_12_s3 2.025502e-02
*CONN
*I lt_pn4_12_s3:Z O
*I vs_49_4:A I
*CAP
1 pgm_pn4_12_s3:1 2.025502e-02
*RES
1 lt_pn4_12_s3:Z pgm_pn4_12_s3:1 2.298504e+01
2 pgm_pn4_12_s3:1 vs_49_4:A 1.000000e-03
*END

*D_NET pgm_pn4_1_s2 5.295591e-03
*CONN
*I lt_pn4_1_s2:Z O
*I vs_36_4:A I
*CAP
1 pgm_pn4_1_s2:1 5.295591e-03
*RES
1 lt_pn4_1_s2:Z pgm_pn4_1_s2:1 4.581148e+00
2 pgm_pn4_1_s2:1 vs_36_4:A 1.000000e-03
*END

*D_NET pgm_pn4_1_s3 1.098667e-02
*CONN
*I lt_pn4_1_s3:Z O
*I vs_57_4:A I
*CAP
1 pgm_pn4_1_s3:1 1.098667e-02
*RES
1 lt_pn4_1_s3:Z pgm_pn4_1_s3:1 1.103928e+01
2 pgm_pn4_1_s3:1 vs_57_4:A 1.000000e-03
*END

*D_NET pgm_pn4_2_s1 7.983519e-03
*CONN
*I lt_pn4_2_s1:Z O
*I vs_24_4:A I
*CAP
1 pgm_pn4_2_s1:1 7.983519e-03
*RES
1 lt_pn4_2_s1:Z pgm_pn4_2_s1:1 7.919319e+00
2 pgm_pn4_2_s1:1 vs_24_4:A 1.000000e-03
*END

*D_NET pgm_pn4_3_s3 1.124292e-02
*CONN
*I lt_pn4_3_s3:Z O
*I vs_60_4:A I
*CAP
1 pgm_pn4_3_s3:1 1.124292e-02
*RES
1 lt_pn4_3_s3:Z pgm_pn4_3_s3:1 1.275826e+01
2 pgm_pn4_3_s3:1 vs_60_4:A 1.000000e-03
*END

*D_NET pgm_pn4_5_s0 8.478847e-03
*CONN
*I lt_pn4_5_s0:Z O
*I vs_12_4:A I
*CAP
1 pgm_pn4_5_s0:1 8.478847e-03
*RES
1 lt_pn4_5_s0:Z pgm_pn4_5_s0:1 9.621643e+00
2 pgm_pn4_5_s0:1 vs_12_4:A 1.000000e-03
*END

*D_NET pgm_pn4_5_s1 3.990568e-03
*CONN
*I lt_pn4_5_s1:Z O
*I vs_25_4:A I
*CAP
1 pgm_pn4_5_s1:1 3.990568e-03
*RES
1 lt_pn4_5_s1:Z pgm_pn4_5_s1:1 4.528425e+00
2 pgm_pn4_5_s1:1 vs_25_4:A 1.000000e-03
*END

*D_NET pgm_pn4_6_s0 2.475453e-02
*CONN
*I lt_pn4_6_s0:Z O
*I vs_15_4:A I
*I vs_8_4:A I
*I vs_0_4:A I
*CAP
1 pgm_pn4_6_s0:1 2.475453e-02
*RES
1 lt_pn4_6_s0:Z pgm_pn4_6_s0:1 2.275612e+01
2 pgm_pn4_6_s0:1 vs_15_4:A 1.000000e-03
3 pgm_pn4_6_s0:1 vs_8_4:A 1.000000e-03
4 pgm_pn4_6_s0:1 vs_0_4:A 1.000000e-03
*END

*D_NET pgm_pn4_6_s2 7.400475e-03
*CONN
*I lt_pn4_6_s2:Z O
*I vs_35_4:A I
*CAP
1 pgm_pn4_6_s2:1 7.400475e-03
*RES
1 lt_pn4_6_s2:Z pgm_pn4_6_s2:1 8.397926e+00
2 pgm_pn4_6_s2:1 vs_35_4:A 1.000000e-03
*END

*D_NET pgm_pn4_7_s1 1.462616e-02
*CONN
*I lt_pn4_7_s1:Z O
*I vs_19_4:A I
*I vs_16_4:A I
*CAP
1 pgm_pn4_7_s1:1 1.462616e-02
*RES
1 lt_pn4_7_s1:Z pgm_pn4_7_s1:1 1.659750e+01
2 pgm_pn4_7_s1:1 vs_19_4:A 1.000000e-03
3 pgm_pn4_7_s1:1 vs_16_4:A 1.000000e-03
*END

*D_NET pgm_pn4_7_s2 1.531644e-03
*CONN
*I lt_pn4_7_s2:Z O
*I vs_42_4:A I
*CAP
1 pgm_pn4_7_s2:1 1.531644e-03
*RES
1 lt_pn4_7_s2:Z pgm_pn4_7_s2:1 1.738082e+00
2 pgm_pn4_7_s2:1 vs_42_4:A 1.000000e-03
*END

*D_NET pgm_pn4_7_s3 1.399513e-02
*CONN
*I lt_pn4_7_s3:Z O
*I vs_53_4:A I
*I vs_48_4:A I
*CAP
1 pgm_pn4_7_s3:1 1.399513e-02
*RES
1 lt_pn4_7_s3:Z pgm_pn4_7_s3:1 1.588143e+01
2 pgm_pn4_7_s3:1 vs_53_4:A 1.000000e-03
3 pgm_pn4_7_s3:1 vs_48_4:A 1.000000e-03
*END

*D_NET pgm_pn4_8_s1 1.753836e-03
*CONN
*I lt_pn4_8_s1:Z O
*I vs_27_4:A I
*CAP
1 pgm_pn4_8_s1:1 1.753836e-03
*RES
1 lt_pn4_8_s1:Z pgm_pn4_8_s1:1 1.990221e+00
2 pgm_pn4_8_s1:1 vs_27_4:A 1.000000e-03
*END

*D_NET pgm_pn4_9_s0 1.057947e-02
*CONN
*I lt_pn4_9_s0:Z O
*I vs_4_4:A I
*CAP
1 pgm_pn4_9_s0:1 1.057947e-02
*RES
1 lt_pn4_9_s0:Z pgm_pn4_9_s0:1 9.600642e+00
2 pgm_pn4_9_s0:1 vs_4_4:A 1.000000e-03
*END

*D_NET pgm_pn4_9_s2 1.649111e-02
*CONN
*I lt_pn4_9_s2:Z O
*I vs_40_4:A I
*I vs_34_4:A I
*CAP
1 pgm_pn4_9_s2:1 1.649111e-02
*RES
1 lt_pn4_9_s2:Z pgm_pn4_9_s2:1 1.728562e+01
2 pgm_pn4_9_s2:1 vs_40_4:A 1.000000e-03
3 pgm_pn4_9_s2:1 vs_34_4:A 1.000000e-03
*END

*D_NET pgm_pn4_9_s3 1.465728e-02
*CONN
*I lt_pn4_9_s3:Z O
*I vs_56_4:A I
*I vs_51_4:A I
*CAP
1 pgm_pn4_9_s3:1 1.465728e-02
*RES
1 lt_pn4_9_s3:Z pgm_pn4_9_s3:1 1.520463e+01
2 pgm_pn4_9_s3:1 vs_56_4:A 1.000000e-03
3 pgm_pn4_9_s3:1 vs_51_4:A 1.000000e-03
*END

*D_NET pgm_pn5_0_s0 4.858598e-03
*CONN
*I lt_pn5_0_s0:Z O
*I vs_3_5:A I
*CAP
1 pgm_pn5_0_s0:1 4.858598e-03
*RES
1 lt_pn5_0_s0:Z pgm_pn5_0_s0:1 5.513450e+00
2 pgm_pn5_0_s0:1 vs_3_5:A 1.000000e-03
*END

*D_NET pgm_pn5_10_s1 1.608690e-02
*CONN
*I lt_pn5_10_s1:Z O
*I vs_18_5:A I
*CAP
1 pgm_pn5_10_s1:1 1.608690e-02
*RES
1 lt_pn5_10_s1:Z pgm_pn5_10_s1:1 1.623850e+01
2 pgm_pn5_10_s1:1 vs_18_5:A 1.000000e-03
*END

*D_NET pgm_pn5_10_s2 1.172258e-02
*CONN
*I lt_pn5_10_s2:Z O
*I vs_39_5:A I
*CAP
1 pgm_pn5_10_s2:1 1.172258e-02
*RES
1 lt_pn5_10_s2:Z pgm_pn5_10_s2:1 1.129846e+01
2 pgm_pn5_10_s2:1 vs_39_5:A 1.000000e-03
*END

*D_NET pgm_pn5_10_s3 3.910579e-03
*CONN
*I lt_pn5_10_s3:Z O
*I vs_63_5:A I
*CAP
1 pgm_pn5_10_s3:1 3.910579e-03
*RES
1 lt_pn5_10_s3:Z pgm_pn5_10_s3:1 4.437655e+00
2 pgm_pn5_10_s3:1 vs_63_5:A 1.000000e-03
*END

*D_NET pgm_pn5_11_s0 7.580916e-03
*CONN
*I lt_pn5_11_s0:Z O
*I vs_10_5:A I
*CAP
1 pgm_pn5_11_s0:1 7.580916e-03
*RES
1 lt_pn5_11_s0:Z pgm_pn5_11_s0:1 6.598576e+00
2 pgm_pn5_11_s0:1 vs_10_5:A 1.000000e-03
*END

*D_NET pgm_pn5_11_s1 1.857913e-02
*CONN
*I lt_pn5_11_s1:Z O
*I vs_25_5:A I
*I vs_20_5:A I
*CAP
1 pgm_pn5_11_s1:1 1.857913e-02
*RES
1 lt_pn5_11_s1:Z pgm_pn5_11_s1:1 1.851483e+01
2 pgm_pn5_11_s1:1 vs_25_5:A 1.000000e-03
3 pgm_pn5_11_s1:1 vs_20_5:A 1.000000e-03
*END

*D_NET pgm_pn5_11_s2 2.352378e-02
*CONN
*I lt_pn5_11_s2:Z O
*I vs_46_5:A I
*I vs_35_5:A I
*I vs_32_5:A I
*CAP
1 pgm_pn5_11_s2:1 2.352378e-02
*RES
1 lt_pn5_11_s2:Z pgm_pn5_11_s2:1 2.512219e+01
2 pgm_pn5_11_s2:1 vs_46_5:A 1.000000e-03
3 pgm_pn5_11_s2:1 vs_35_5:A 1.000000e-03
4 pgm_pn5_11_s2:1 vs_32_5:A 1.000000e-03
*END

*D_NET pgm_pn5_11_s3 2.168298e-02
*CONN
*I lt_pn5_11_s3:Z O
*I vs_58_5:A I
*I vs_49_5:A I
*CAP
1 pgm_pn5_11_s3:1 2.168298e-02
*RES
1 lt_pn5_11_s3:Z pgm_pn5_11_s3:1 2.460545e+01
2 pgm_pn5_11_s3:1 vs_58_5:A 1.000000e-03
3 pgm_pn5_11_s3:1 vs_49_5:A 1.000000e-03
*END

*D_NET pgm_pn5_12_s1 4.541604e-03
*CONN
*I lt_pn5_12_s1:Z O
*I vs_29_5:A I
*CAP
1 pgm_pn5_12_s1:1 4.541604e-03
*RES
1 lt_pn5_12_s1:Z pgm_pn5_12_s1:1 5.153731e+00
2 pgm_pn5_12_s1:1 vs_29_5:A 1.000000e-03
*END

*D_NET pgm_pn5_12_s2 1.795032e-02
*CONN
*I lt_pn5_12_s2:Z O
*I vs_36_5:A I
*CAP
1 pgm_pn5_12_s2:1 1.795032e-02
*RES
1 lt_pn5_12_s2:Z pgm_pn5_12_s2:1 1.850957e+01
2 pgm_pn5_12_s2:1 vs_36_5:A 1.000000e-03
*END

*D_NET pgm_pn5_3_s0 4.766759e-03
*CONN
*I lt_pn5_3_s0:Z O
*I vs_7_5:A I
*CAP
1 pgm_pn5_3_s0:1 4.766759e-03
*RES
1 lt_pn5_3_s0:Z pgm_pn5_3_s0:1 5.409233e+00
2 pgm_pn5_3_s0:1 vs_7_5:A 1.000000e-03
*END

*D_NET pgm_pn5_3_s2 1.380257e-02
*CONN
*I lt_pn5_3_s2:Z O
*I vs_45_5:A I
*CAP
1 pgm_pn5_3_s2:1 1.380257e-02
*RES
1 lt_pn5_3_s2:Z pgm_pn5_3_s2:1 1.566291e+01
2 pgm_pn5_3_s2:1 vs_45_5:A 1.000000e-03
*END

*D_NET pgm_pn5_3_s3 1.732184e-02
*CONN
*I lt_pn5_3_s3:Z O
*I vs_61_5:A I
*I vs_55_5:A I
*CAP
1 pgm_pn5_3_s3:1 1.732184e-02
*RES
1 lt_pn5_3_s3:Z pgm_pn5_3_s3:1 1.478442e+01
2 pgm_pn5_3_s3:1 vs_61_5:A 1.000000e-03
3 pgm_pn5_3_s3:1 vs_55_5:A 1.000000e-03
*END

*D_NET pgm_pn5_4_s1 3.315105e-03
*CONN
*I lt_pn5_4_s1:Z O
*I vs_19_5:A I
*CAP
1 pgm_pn5_4_s1:1 3.315105e-03
*RES
1 lt_pn5_4_s1:Z pgm_pn5_4_s1:1 3.761921e+00
2 pgm_pn5_4_s1:1 vs_19_5:A 1.000000e-03
*END

*D_NET pgm_pn5_5_s3 9.924576e-04
*CONN
*I lt_pn5_5_s3:Z O
*I vs_54_5:A I
*CAP
1 pgm_pn5_5_s3:1 9.924576e-04
*RES
1 lt_pn5_5_s3:Z pgm_pn5_5_s3:1 1.126223e+00
2 pgm_pn5_5_s3:1 vs_54_5:A 1.000000e-03
*END

*D_NET pgm_pn5_6_s0 8.908108e-03
*CONN
*I lt_pn5_6_s0:Z O
*I vs_2_5:A I
*CAP
1 pgm_pn5_6_s0:1 8.908108e-03
*RES
1 lt_pn5_6_s0:Z pgm_pn5_6_s0:1 7.171913e+00
2 pgm_pn5_6_s0:1 vs_2_5:A 1.000000e-03
*END

*D_NET pgm_pn5_6_s1 3.525446e-04
*CONN
*I lt_pn5_6_s1:Z O
*I vs_24_5:A I
*CAP
1 pgm_pn5_6_s1:1 3.525446e-04
*RES
1 lt_pn5_6_s1:Z pgm_pn5_6_s1:1 4.000613e-01
2 pgm_pn5_6_s1:1 vs_24_5:A 1.000000e-03
*END

*D_NET pgm_pn5_6_s2 3.643949e-03
*CONN
*I lt_pn5_6_s2:Z O
*I vs_38_5:A I
*CAP
1 pgm_pn5_6_s2:1 3.643949e-03
*RES
1 lt_pn5_6_s2:Z pgm_pn5_6_s2:1 4.135088e+00
2 pgm_pn5_6_s2:1 vs_38_5:A 1.000000e-03
*END

*D_NET pgm_pn5_8_s0 1.483473e-02
*CONN
*I lt_pn5_8_s0:Z O
*I vs_6_5:A I
*I vs_1_5:A I
*CAP
1 pgm_pn5_8_s0:1 1.483473e-02
*RES
1 lt_pn5_8_s0:Z pgm_pn5_8_s0:1 1.626987e+01
2 pgm_pn5_8_s0:1 vs_6_5:A 1.000000e-03
3 pgm_pn5_8_s0:1 vs_1_5:A 1.000000e-03
*END

*D_NET pgm_pn5_9_s0 2.021845e-02
*CONN
*I lt_pn5_9_s0:Z O
*I vs_15_5:A I
*I vs_12_5:A I
*I vs_4_5:A I
*CAP
1 pgm_pn5_9_s0:1 2.021845e-02
*RES
1 lt_pn5_9_s0:Z pgm_pn5_9_s0:1 2.165932e+01
2 pgm_pn5_9_s0:1 vs_15_5:A 1.000000e-03
3 pgm_pn5_9_s0:1 vs_12_5:A 1.000000e-03
4 pgm_pn5_9_s0:1 vs_4_5:A 1.000000e-03
*END

*D_NET pgm_pn5_9_s1 8.680301e-03
*CONN
*I lt_pn5_9_s1:Z O
*I vs_23_5:A I
*I vs_22_5:A I
*CAP
1 pgm_pn5_9_s1:1 8.680301e-03
*RES
1 lt_pn5_9_s1:Z pgm_pn5_9_s1:1 9.850250e+00
2 pgm_pn5_9_s1:1 vs_23_5:A 1.000000e-03
3 pgm_pn5_9_s1:1 vs_22_5:A 1.000000e-03
*END

*D_NET pgm_pn5_9_s2 2.059572e-02
*CONN
*I lt_pn5_9_s2:Z O
*I vs_47_5:A I
*I vs_37_5:A I
*I vs_34_5:A I
*CAP
1 pgm_pn5_9_s2:1 2.059572e-02
*RES
1 lt_pn5_9_s2:Z pgm_pn5_9_s2:1 2.337165e+01
2 pgm_pn5_9_s2:1 vs_47_5:A 1.000000e-03
3 pgm_pn5_9_s2:1 vs_37_5:A 1.000000e-03
4 pgm_pn5_9_s2:1 vs_34_5:A 1.000000e-03
*END

*D_NET pgm_pn5_9_s3 1.573119e-03
*CONN
*I lt_pn5_9_s3:Z O
*I vs_59_5:A I
*CAP
1 pgm_pn5_9_s3:1 1.573119e-03
*RES
1 lt_pn5_9_s3:Z pgm_pn5_9_s3:1 1.785148e+00
2 pgm_pn5_9_s3:1 vs_59_5:A 1.000000e-03
*END

*D_NET pgm_pn6_10_s0 2.031293e-03
*CONN
*I lt_pn6_10_s0:Z O
*I vs_12_6:A I
*CAP
1 pgm_pn6_10_s0:1 2.031293e-03
*RES
1 lt_pn6_10_s0:Z pgm_pn6_10_s0:1 1.020860e+00
2 pgm_pn6_10_s0:1 vs_12_6:A 1.000000e-03
*END

*D_NET pgm_pn6_10_s1 1.527026e-02
*CONN
*I lt_pn6_10_s1:Z O
*I vs_31_6:A I
*I vs_23_6:A I
*CAP
1 pgm_pn6_10_s1:1 1.527026e-02
*RES
1 lt_pn6_10_s1:Z pgm_pn6_10_s1:1 1.389611e+01
2 pgm_pn6_10_s1:1 vs_31_6:A 1.000000e-03
3 pgm_pn6_10_s1:1 vs_23_6:A 1.000000e-03
*END

*D_NET pgm_pn6_11_s0 2.181040e-02
*CONN
*I lt_pn6_11_s0:Z O
*I vs_2_6:A I
*CAP
1 pgm_pn6_11_s0:1 2.181040e-02
*RES
1 lt_pn6_11_s0:Z pgm_pn6_11_s0:1 2.188206e+01
2 pgm_pn6_11_s0:1 vs_2_6:A 1.000000e-03
*END

*D_NET pgm_pn6_11_s1 1.957956e-02
*CONN
*I lt_pn6_11_s1:Z O
*I vs_16_6:A I
*CAP
1 pgm_pn6_11_s1:1 1.957956e-02
*RES
1 lt_pn6_11_s1:Z pgm_pn6_11_s1:1 2.221853e+01
2 pgm_pn6_11_s1:1 vs_16_6:A 1.000000e-03
*END

*D_NET pgm_pn6_11_s2 2.195553e-02
*CONN
*I lt_pn6_11_s2:Z O
*I vs_37_6:A I
*I vs_32_6:A I
*CAP
1 pgm_pn6_11_s2:1 2.195553e-02
*RES
1 lt_pn6_11_s2:Z pgm_pn6_11_s2:1 2.491474e+01
2 pgm_pn6_11_s2:1 vs_37_6:A 1.000000e-03
3 pgm_pn6_11_s2:1 vs_32_6:A 1.000000e-03
*END

*D_NET pgm_pn6_11_s3 2.626325e-03
*CONN
*I lt_pn6_11_s3:Z O
*I vs_61_6:A I
*CAP
1 pgm_pn6_11_s3:1 2.626325e-03
*RES
1 lt_pn6_11_s3:Z pgm_pn6_11_s3:1 1.552112e+00
2 pgm_pn6_11_s3:1 vs_61_6:A 1.000000e-03
*END

*D_NET pgm_pn6_12_s0 1.238663e-02
*CONN
*I lt_pn6_12_s0:Z O
*I vs_8_6:A I
*CAP
1 pgm_pn6_12_s0:1 1.238663e-02
*RES
1 lt_pn6_12_s0:Z pgm_pn6_12_s0:1 1.219600e+01
2 pgm_pn6_12_s0:1 vs_8_6:A 1.000000e-03
*END

*D_NET pgm_pn6_12_s1 2.078579e-02
*CONN
*I lt_pn6_12_s1:Z O
*I vs_19_6:A I
*I vs_18_6:A I
*CAP
1 pgm_pn6_12_s1:1 2.078579e-02
*RES
1 lt_pn6_12_s1:Z pgm_pn6_12_s1:1 2.086334e+01
2 pgm_pn6_12_s1:1 vs_19_6:A 1.000000e-03
3 pgm_pn6_12_s1:1 vs_18_6:A 1.000000e-03
*END

*D_NET pgm_pn6_12_s2 7.684881e-03
*CONN
*I lt_pn6_12_s2:Z O
*I vs_45_6:A I
*I vs_43_6:A I
*CAP
1 pgm_pn6_12_s2:1 7.684881e-03
*RES
1 lt_pn6_12_s2:Z pgm_pn6_12_s2:1 8.720665e+00
2 pgm_pn6_12_s2:1 vs_45_6:A 1.000000e-03
3 pgm_pn6_12_s2:1 vs_43_6:A 1.000000e-03
*END

*D_NET pgm_pn6_3_s2 3.688387e-03
*CONN
*I lt_pn6_3_s2:Z O
*I vs_34_6:A I
*CAP
1 pgm_pn6_3_s2:1 3.688387e-03
*RES
1 lt_pn6_3_s2:Z pgm_pn6_3_s2:1 4.185516e+00
2 pgm_pn6_3_s2:1 vs_34_6:A 1.000000e-03
*END

*D_NET pgm_pn6_4_s3 8.256655e-03
*CONN
*I lt_pn6_4_s3:Z O
*I vs_48_6:A I
*CAP
1 pgm_pn6_4_s3:1 8.256655e-03
*RES
1 lt_pn6_4_s3:Z pgm_pn6_4_s3:1 9.369504e+00
2 pgm_pn6_4_s3:1 vs_48_6:A 1.000000e-03
*END

*D_NET pgm_pn6_7_s1 5.919195e-03
*CONN
*I lt_pn6_7_s1:Z O
*I vs_29_6:A I
*CAP
1 pgm_pn6_7_s1:1 5.919195e-03
*RES
1 lt_pn6_7_s1:Z pgm_pn6_7_s1:1 6.716996e+00
2 pgm_pn6_7_s1:1 vs_29_6:A 1.000000e-03
*END

*D_NET pgm_pn6_7_s2 9.284663e-03
*CONN
*I lt_pn6_7_s2:Z O
*I vs_35_6:A I
*CAP
1 pgm_pn6_7_s2:1 9.284663e-03
*RES
1 lt_pn6_7_s2:Z pgm_pn6_7_s2:1 1.053607e+01
2 pgm_pn6_7_s2:1 vs_35_6:A 1.000000e-03
*END

*D_NET pgm_pn6_8_s0 1.076002e-02
*CONN
*I lt_pn6_8_s0:Z O
*I vs_3_6:A I
*CAP
1 pgm_pn6_8_s0:1 1.076002e-02
*RES
1 lt_pn6_8_s0:Z pgm_pn6_8_s0:1 1.221028e+01
2 pgm_pn6_8_s0:1 vs_3_6:A 1.000000e-03
*END

*D_NET pgm_pn6_9_s0 9.966052e-03
*CONN
*I lt_pn6_9_s0:Z O
*I vs_15_6:A I
*I vs_9_6:A I
*CAP
1 pgm_pn6_9_s0:1 9.966052e-03
*RES
1 lt_pn6_9_s0:Z pgm_pn6_9_s0:1 1.130930e+01
2 pgm_pn6_9_s0:1 vs_15_6:A 1.000000e-03
3 pgm_pn6_9_s0:1 vs_9_6:A 1.000000e-03
*END

*D_NET pgm_pn6_9_s1 6.609334e-03
*CONN
*I lt_pn6_9_s1:Z O
*I vs_25_6:A I
*I vs_24_6:A I
*CAP
1 pgm_pn6_9_s1:1 6.609334e-03
*RES
1 lt_pn6_9_s1:Z pgm_pn6_9_s1:1 6.503898e+00
2 pgm_pn6_9_s1:1 vs_25_6:A 1.000000e-03
3 pgm_pn6_9_s1:1 vs_24_6:A 1.000000e-03
*END

*D_NET pgm_pn6_9_s3 7.720431e-03
*CONN
*I lt_pn6_9_s3:Z O
*I vs_63_6:A I
*I vs_59_6:A I
*CAP
1 pgm_pn6_9_s3:1 7.720431e-03
*RES
1 lt_pn6_9_s3:Z pgm_pn6_9_s3:1 8.761007e+00
2 pgm_pn6_9_s3:1 vs_63_6:A 1.000000e-03
3 pgm_pn6_9_s3:1 vs_59_6:A 1.000000e-03
*END

*D_NET pgm_pn7_0_s0 8.241636e-03
*CONN
*I lt_pn7_0_s0:Z O
*I vs_5_7:A I
*CAP
1 pgm_pn7_0_s0:1 8.241636e-03
*RES
1 lt_pn7_0_s0:Z pgm_pn7_0_s0:1 7.579968e+00
2 pgm_pn7_0_s0:1 vs_5_7:A 1.000000e-03
*END

*D_NET pgm_pn7_10_s0 1.395662e-02
*CONN
*I lt_pn7_10_s0:Z O
*I vs_8_7:A I
*I vs_4_7:A I
*CAP
1 pgm_pn7_10_s0:1 1.395662e-02
*RES
1 lt_pn7_10_s0:Z pgm_pn7_10_s0:1 1.583772e+01
2 pgm_pn7_10_s0:1 vs_8_7:A 1.000000e-03
3 pgm_pn7_10_s0:1 vs_4_7:A 1.000000e-03
*END

*D_NET pgm_pn7_10_s2 1.266791e-02
*CONN
*I lt_pn7_10_s2:Z O
*I vs_45_7:A I
*I vs_43_7:A I
*I vs_38_7:A I
*CAP
1 pgm_pn7_10_s2:1 1.266791e-02
*RES
1 lt_pn7_10_s2:Z pgm_pn7_10_s2:1 1.437531e+01
2 pgm_pn7_10_s2:1 vs_45_7:A 1.000000e-03
3 pgm_pn7_10_s2:1 vs_43_7:A 1.000000e-03
4 pgm_pn7_10_s2:1 vs_38_7:A 1.000000e-03
*END

*D_NET pgm_pn7_11_s0 1.753539e-02
*CONN
*I lt_pn7_11_s0:Z O
*I vs_2_7:A I
*CAP
1 pgm_pn7_11_s0:1 1.753539e-02
*RES
1 lt_pn7_11_s0:Z pgm_pn7_11_s0:1 1.989885e+01
2 pgm_pn7_11_s0:1 vs_2_7:A 1.000000e-03
*END

*D_NET pgm_pn7_11_s1 2.040908e-02
*CONN
*I lt_pn7_11_s1:Z O
*I vs_31_7:A I
*I vs_18_7:A I
*CAP
1 pgm_pn7_11_s1:1 2.040908e-02
*RES
1 lt_pn7_11_s1:Z pgm_pn7_11_s1:1 2.315985e+01
2 pgm_pn7_11_s1:1 vs_31_7:A 1.000000e-03
3 pgm_pn7_11_s1:1 vs_18_7:A 1.000000e-03
*END

*D_NET pgm_pn7_11_s2 2.042777e-02
*CONN
*I lt_pn7_11_s2:Z O
*I vs_35_7:A I
*CAP
1 pgm_pn7_11_s2:1 2.042777e-02
*RES
1 lt_pn7_11_s2:Z pgm_pn7_11_s2:1 2.060104e+01
2 pgm_pn7_11_s2:1 vs_35_7:A 1.000000e-03
*END

*D_NET pgm_pn7_11_s3 2.420421e-02
*CONN
*I lt_pn7_11_s3:Z O
*I vs_51_7:A I
*CAP
1 pgm_pn7_11_s3:1 2.420421e-02
*RES
1 lt_pn7_11_s3:Z pgm_pn7_11_s3:1 1.885094e+01
2 pgm_pn7_11_s3:1 vs_51_7:A 1.000000e-03
*END

*D_NET pgm_pn7_12_s0 1.392464e-02
*CONN
*I lt_pn7_12_s0:Z O
*I vs_6_7:A I
*CAP
1 pgm_pn7_12_s0:1 1.392464e-02
*RES
1 lt_pn7_12_s0:Z pgm_pn7_12_s0:1 1.408528e+01
2 pgm_pn7_12_s0:1 vs_6_7:A 1.000000e-03
*END

*D_NET pgm_pn7_12_s1 1.653278e-02
*CONN
*I lt_pn7_12_s1:Z O
*I vs_26_7:A I
*I vs_22_7:A I
*CAP
1 pgm_pn7_12_s1:1 1.653278e-02
*RES
1 lt_pn7_12_s1:Z pgm_pn7_12_s1:1 1.149815e+01
2 pgm_pn7_12_s1:1 vs_26_7:A 1.000000e-03
3 pgm_pn7_12_s1:1 vs_22_7:A 1.000000e-03
*END

*D_NET pgm_pn7_12_s2 1.563155e-02
*CONN
*I lt_pn7_12_s2:Z O
*I vs_40_7:A I
*I vs_39_7:A I
*CAP
1 pgm_pn7_12_s2:1 1.563155e-02
*RES
1 lt_pn7_12_s2:Z pgm_pn7_12_s2:1 1.329824e+01
2 pgm_pn7_12_s2:1 vs_40_7:A 1.000000e-03
3 pgm_pn7_12_s2:1 vs_39_7:A 1.000000e-03
*END

*D_NET pgm_pn7_12_s3 1.593534e-02
*CONN
*I lt_pn7_12_s3:Z O
*I vs_53_7:A I
*CAP
1 pgm_pn7_12_s3:1 1.593534e-02
*RES
1 lt_pn7_12_s3:Z pgm_pn7_12_s3:1 1.607902e+01
2 pgm_pn7_12_s3:1 vs_53_7:A 1.000000e-03
*END

*D_NET pgm_pn7_1_s0 1.383546e-02
*CONN
*I lt_pn7_1_s0:Z O
*I vs_11_7:A I
*CAP
1 pgm_pn7_1_s0:1 1.383546e-02
*RES
1 lt_pn7_1_s0:Z pgm_pn7_1_s0:1 1.484796e+01
2 pgm_pn7_1_s0:1 vs_11_7:A 1.000000e-03
*END

*D_NET pgm_pn7_1_s3 1.221012e-02
*CONN
*I lt_pn7_1_s3:Z O
*I vs_58_7:A I
*CAP
1 pgm_pn7_1_s3:1 1.221012e-02
*RES
1 lt_pn7_1_s3:Z pgm_pn7_1_s3:1 1.336350e+01
2 pgm_pn7_1_s3:1 vs_58_7:A 1.000000e-03
*END

*D_NET pgm_pn7_4_s0 8.484772e-03
*CONN
*I lt_pn7_4_s0:Z O
*I vs_0_7:A I
*CAP
1 pgm_pn7_4_s0:1 8.484772e-03
*RES
1 lt_pn7_4_s0:Z pgm_pn7_4_s0:1 9.628367e+00
2 pgm_pn7_4_s0:1 vs_0_7:A 1.000000e-03
*END

*D_NET pgm_pn7_4_s2 1.214650e-03
*CONN
*I lt_pn7_4_s2:Z O
*I vs_37_7:A I
*CAP
1 pgm_pn7_4_s2:1 1.214650e-03
*RES
1 lt_pn7_4_s2:Z pgm_pn7_4_s2:1 1.378363e+00
2 pgm_pn7_4_s2:1 vs_37_7:A 1.000000e-03
*END

*D_NET pgm_pn7_6_s3 1.919739e-03
*CONN
*I lt_pn7_6_s3:Z O
*I vs_57_7:A I
*CAP
1 pgm_pn7_6_s3:1 1.919739e-03
*RES
1 lt_pn7_6_s3:Z pgm_pn7_6_s3:1 2.178485e+00
2 pgm_pn7_6_s3:1 vs_57_7:A 1.000000e-03
*END

*D_NET pgm_pn7_7_s1 4.796385e-03
*CONN
*I lt_pn7_7_s1:Z O
*I vs_28_7:A I
*CAP
1 pgm_pn7_7_s1:1 4.796385e-03
*RES
1 lt_pn7_7_s1:Z pgm_pn7_7_s1:1 5.442851e+00
2 pgm_pn7_7_s1:1 vs_28_7:A 1.000000e-03
*END

*D_NET pgm_pn7_8_s1 1.413141e-02
*CONN
*I lt_pn7_8_s1:Z O
*I vs_17_7:A I
*CAP
1 pgm_pn7_8_s1:1 1.413141e-02
*RES
1 lt_pn7_8_s1:Z pgm_pn7_8_s1:1 1.603607e+01
2 pgm_pn7_8_s1:1 vs_17_7:A 1.000000e-03
*END

*D_NET pgm_pn7_9_s0 4.313487e-03
*CONN
*I lt_pn7_9_s0:Z O
*I vs_10_7:A I
*I vs_9_7:A I
*CAP
1 pgm_pn7_9_s0:1 4.313487e-03
*RES
1 lt_pn7_9_s0:Z pgm_pn7_9_s0:1 4.894868e+00
2 pgm_pn7_9_s0:1 vs_10_7:A 1.000000e-03
3 pgm_pn7_9_s0:1 vs_9_7:A 1.000000e-03
*END

*D_NET pgm_pn7_9_s1 9.982056e-03
*CONN
*I lt_pn7_9_s1:Z O
*I vs_24_7:A I
*I vs_21_7:A I
*CAP
1 pgm_pn7_9_s1:1 9.982056e-03
*RES
1 lt_pn7_9_s1:Z pgm_pn7_9_s1:1 1.076314e+01
2 pgm_pn7_9_s1:1 vs_24_7:A 1.000000e-03
3 pgm_pn7_9_s1:1 vs_21_7:A 1.000000e-03
*END

*D_NET pgm_pn7_9_s3 1.879805e-02
*CONN
*I lt_pn7_9_s3:Z O
*I vs_60_7:A I
*I vs_49_7:A I
*CAP
1 pgm_pn7_9_s3:1 1.879805e-02
*RES
1 lt_pn7_9_s3:Z pgm_pn7_9_s3:1 1.961554e+01
2 pgm_pn7_9_s3:1 vs_60_7:A 1.000000e-03
3 pgm_pn7_9_s3:1 vs_49_7:A 1.000000e-03
*END

*D_NET pgm_pn8_10_s1 2.277218e-02
*CONN
*I lt_pn8_10_s1:Z O
*I vs_31_8:A I
*I vs_29_8:A I
*I vs_22_8:A I
*I vs_19_8:A I
*I vs_17_8:A I
*CAP
1 pgm_pn8_10_s1:1 2.277218e-02
*RES
1 lt_pn8_10_s1:Z pgm_pn8_10_s1:1 2.455724e+01
2 pgm_pn8_10_s1:1 vs_31_8:A 1.000000e-03
3 pgm_pn8_10_s1:1 vs_29_8:A 1.000000e-03
4 pgm_pn8_10_s1:1 vs_22_8:A 1.000000e-03
5 pgm_pn8_10_s1:1 vs_19_8:A 1.000000e-03
6 pgm_pn8_10_s1:1 vs_17_8:A 1.000000e-03
*END

*D_NET pgm_pn8_11_s0 2.071527e-02
*CONN
*I lt_pn8_11_s0:Z O
*I vs_5_8:A I
*I vs_1_8:A I
*CAP
1 pgm_pn8_11_s0:1 2.071527e-02
*RES
1 lt_pn8_11_s0:Z pgm_pn8_11_s0:1 2.193515e+01
2 pgm_pn8_11_s0:1 vs_5_8:A 1.000000e-03
3 pgm_pn8_11_s0:1 vs_1_8:A 1.000000e-03
*END

*D_NET pgm_pn8_11_s1 2.313167e-02
*CONN
*I lt_pn8_11_s1:Z O
*I vs_21_8:A I
*I vs_20_8:A I
*I vs_16_8:A I
*CAP
1 pgm_pn8_11_s1:1 2.313167e-02
*RES
1 lt_pn8_11_s1:Z pgm_pn8_11_s1:1 2.624940e+01
2 pgm_pn8_11_s1:1 vs_21_8:A 1.000000e-03
3 pgm_pn8_11_s1:1 vs_20_8:A 1.000000e-03
4 pgm_pn8_11_s1:1 vs_16_8:A 1.000000e-03
*END

*D_NET pgm_pn8_11_s2 1.181441e-02
*CONN
*I lt_pn8_11_s2:Z O
*I vs_43_8:A I
*I vs_39_8:A I
*CAP
1 pgm_pn8_11_s2:1 1.181441e-02
*RES
1 lt_pn8_11_s2:Z pgm_pn8_11_s2:1 1.140267e+01
2 pgm_pn8_11_s2:1 vs_43_8:A 1.000000e-03
3 pgm_pn8_11_s2:1 vs_39_8:A 1.000000e-03
*END

*D_NET pgm_pn8_12_s0 9.192549e-03
*CONN
*I lt_pn8_12_s0:Z O
*I vs_10_8:A I
*CAP
1 pgm_pn8_12_s0:1 9.192549e-03
*RES
1 lt_pn8_12_s0:Z pgm_pn8_12_s0:1 8.427428e+00
2 pgm_pn8_12_s0:1 vs_10_8:A 1.000000e-03
*END

*D_NET pgm_pn8_12_s2 9.737660e-03
*CONN
*I lt_pn8_12_s2:Z O
*I vs_45_8:A I
*I vs_42_8:A I
*CAP
1 pgm_pn8_12_s2:1 9.737660e-03
*RES
1 lt_pn8_12_s2:Z pgm_pn8_12_s2:1 9.046010e+00
2 pgm_pn8_12_s2:1 vs_45_8:A 1.000000e-03
3 pgm_pn8_12_s2:1 vs_42_8:A 1.000000e-03
*END

*D_NET pgm_pn8_12_s3 2.326221e-03
*CONN
*I lt_pn8_12_s3:Z O
*I vs_63_8:A I
*CAP
1 pgm_pn8_12_s3:1 2.326221e-03
*RES
1 lt_pn8_12_s3:Z pgm_pn8_12_s3:1 9.236005e-01
2 pgm_pn8_12_s3:1 vs_63_8:A 1.000000e-03
*END

*D_NET pgm_pn8_3_s2 2.293021e-03
*CONN
*I lt_pn8_3_s2:Z O
*I vs_35_8:A I
*CAP
1 pgm_pn8_3_s2:1 2.293021e-03
*RES
1 lt_pn8_3_s2:Z pgm_pn8_3_s2:1 2.602080e+00
2 pgm_pn8_3_s2:1 vs_35_8:A 1.000000e-03
*END

*D_NET pgm_pn8_6_s0 7.853747e-03
*CONN
*I lt_pn8_6_s0:Z O
*I vs_13_8:A I
*CAP
1 pgm_pn8_6_s0:1 7.853747e-03
*RES
1 lt_pn8_6_s0:Z pgm_pn8_6_s0:1 8.912291e+00
2 pgm_pn8_6_s0:1 vs_13_8:A 1.000000e-03
*END

*D_NET pgm_pn8_6_s2 9.284663e-03
*CONN
*I lt_pn8_6_s2:Z O
*I vs_46_8:A I
*CAP
1 pgm_pn8_6_s2:1 9.284663e-03
*RES
1 lt_pn8_6_s2:Z pgm_pn8_6_s2:1 1.053607e+01
2 pgm_pn8_6_s2:1 vs_46_8:A 1.000000e-03
*END

*D_NET pgm_pn8_7_s0 4.983026e-03
*CONN
*I lt_pn8_7_s0:Z O
*I vs_6_8:A I
*CAP
1 pgm_pn8_7_s0:1 4.983026e-03
*RES
1 lt_pn8_7_s0:Z pgm_pn8_7_s0:1 5.654649e+00
2 pgm_pn8_7_s0:1 vs_6_8:A 1.000000e-03
*END

*D_NET pgm_pn8_9_s0 1.627038e-02
*CONN
*I lt_pn8_9_s0:Z O
*I vs_2_8:A I
*I vs_0_8:A I
*CAP
1 pgm_pn8_9_s0:1 1.627038e-02
*RES
1 lt_pn8_9_s0:Z pgm_pn8_9_s0:1 1.846334e+01
2 pgm_pn8_9_s0:1 vs_2_8:A 1.000000e-03
3 pgm_pn8_9_s0:1 vs_0_8:A 1.000000e-03
*END

*D_NET pgm_pn8_9_s2 9.856300e-03
*CONN
*I lt_pn8_9_s2:Z O
*I vs_37_8:A I
*CAP
1 pgm_pn8_9_s2:1 9.856300e-03
*RES
1 lt_pn8_9_s2:Z pgm_pn8_9_s2:1 1.018850e+01
2 pgm_pn8_9_s2:1 vs_37_8:A 1.000000e-03
*END

*D_NET pgm_pn8_9_s3 1.011656e-02
*CONN
*I lt_pn8_9_s3:Z O
*I vs_60_8:A I
*I vs_56_8:A I
*I vs_55_8:A I
*CAP
1 pgm_pn8_9_s3:1 1.011656e-02
*RES
1 lt_pn8_9_s3:Z pgm_pn8_9_s3:1 1.033986e+01
2 pgm_pn8_9_s3:1 vs_60_8:A 1.000000e-03
3 pgm_pn8_9_s3:1 vs_56_8:A 1.000000e-03
4 pgm_pn8_9_s3:1 vs_55_8:A 1.000000e-03
*END

*D_NET pgm_pn9_0_s2 3.490644e-03
*CONN
*I lt_pn9_0_s2:Z O
*I vs_34_9:A I
*CAP
1 pgm_pn9_0_s2:1 3.490644e-03
*RES
1 lt_pn9_0_s2:Z pgm_pn9_0_s2:1 3.252823e+00
2 pgm_pn9_0_s2:1 vs_34_9:A 1.000000e-03
*END

*D_NET pgm_pn9_10_s1 1.364201e-02
*CONN
*I lt_pn9_10_s1:Z O
*I vs_24_9:A I
*I vs_22_9:A I
*I vs_20_9:A I
*CAP
1 pgm_pn9_10_s1:1 1.364201e-02
*RES
1 lt_pn9_10_s1:Z pgm_pn9_10_s1:1 1.434047e+01
2 pgm_pn9_10_s1:1 vs_24_9:A 1.000000e-03
3 pgm_pn9_10_s1:1 vs_22_9:A 1.000000e-03
4 pgm_pn9_10_s1:1 vs_20_9:A 1.000000e-03
*END

*D_NET pgm_pn9_10_s2 6.049548e-03
*CONN
*I lt_pn9_10_s2:Z O
*I vs_42_9:A I
*CAP
1 pgm_pn9_10_s2:1 6.049548e-03
*RES
1 lt_pn9_10_s2:Z pgm_pn9_10_s2:1 6.864918e+00
2 pgm_pn9_10_s2:1 vs_42_9:A 1.000000e-03
*END

*D_NET pgm_pn9_10_s3 9.748762e-03
*CONN
*I lt_pn9_10_s3:Z O
*I vs_55_9:A I
*CAP
1 pgm_pn9_10_s3:1 9.748762e-03
*RES
1 lt_pn9_10_s3:Z pgm_pn9_10_s3:1 9.778506e+00
2 pgm_pn9_10_s3:1 vs_55_9:A 1.000000e-03
*END

*D_NET pgm_pn9_11_s0 2.362822e-02
*CONN
*I lt_pn9_11_s0:Z O
*I vs_13_9:A I
*I vs_11_9:A I
*I vs_0_9:A I
*CAP
1 pgm_pn9_11_s0:1 2.362822e-02
*RES
1 lt_pn9_11_s0:Z pgm_pn9_11_s0:1 2.453241e+01
2 pgm_pn9_11_s0:1 vs_13_9:A 1.000000e-03
3 pgm_pn9_11_s0:1 vs_11_9:A 1.000000e-03
4 pgm_pn9_11_s0:1 vs_0_9:A 1.000000e-03
*END

*D_NET pgm_pn9_11_s1 1.930465e-02
*CONN
*I lt_pn9_11_s1:Z O
*I vs_18_9:A I
*I vs_17_9:A I
*CAP
1 pgm_pn9_11_s1:1 1.930465e-02
*RES
1 lt_pn9_11_s1:Z pgm_pn9_11_s1:1 2.019042e+01
2 pgm_pn9_11_s1:1 vs_18_9:A 1.000000e-03
3 pgm_pn9_11_s1:1 vs_17_9:A 1.000000e-03
*END

*D_NET pgm_pn9_11_s2 2.180298e-02
*CONN
*I lt_pn9_11_s2:Z O
*I vs_40_9:A I
*I vs_32_9:A I
*CAP
1 pgm_pn9_11_s2:1 2.180298e-02
*RES
1 lt_pn9_11_s2:Z pgm_pn9_11_s2:1 2.331343e+01
2 pgm_pn9_11_s2:1 vs_40_9:A 1.000000e-03
3 pgm_pn9_11_s2:1 vs_32_9:A 1.000000e-03
*END

*D_NET pgm_pn9_11_s3 2.369397e-02
*CONN
*I lt_pn9_11_s3:Z O
*I vs_62_9:A I
*I vs_56_9:A I
*I vs_48_9:A I
*CAP
1 pgm_pn9_11_s3:1 2.369397e-02
*RES
1 lt_pn9_11_s3:Z pgm_pn9_11_s3:1 2.574726e+01
2 pgm_pn9_11_s3:1 vs_62_9:A 1.000000e-03
3 pgm_pn9_11_s3:1 vs_56_9:A 1.000000e-03
4 pgm_pn9_11_s3:1 vs_48_9:A 1.000000e-03
*END

*D_NET pgm_pn9_12_s1 1.187394e-02
*CONN
*I lt_pn9_12_s1:Z O
*I vs_31_9:A I
*I vs_28_9:A I
*I vs_25_9:A I
*CAP
1 pgm_pn9_12_s1:1 1.187394e-02
*RES
1 lt_pn9_12_s1:Z pgm_pn9_12_s1:1 1.347433e+01
2 pgm_pn9_12_s1:1 vs_31_9:A 1.000000e-03
3 pgm_pn9_12_s1:1 vs_28_9:A 1.000000e-03
4 pgm_pn9_12_s1:1 vs_25_9:A 1.000000e-03
*END

*D_NET pgm_pn9_12_s2 3.519521e-03
*CONN
*I lt_pn9_12_s2:Z O
*I vs_47_9:A I
*I vs_46_9:A I
*CAP
1 pgm_pn9_12_s2:1 3.519521e-03
*RES
1 lt_pn9_12_s2:Z pgm_pn9_12_s2:1 3.993890e+00
2 pgm_pn9_12_s2:1 vs_47_9:A 1.000000e-03
3 pgm_pn9_12_s2:1 vs_46_9:A 1.000000e-03
*END

*D_NET pgm_pn9_12_s3 9.740897e-03
*CONN
*I lt_pn9_12_s3:Z O
*I vs_63_9:A I
*I vs_58_9:A I
*CAP
1 pgm_pn9_12_s3:1 9.740897e-03
*RES
1 lt_pn9_12_s3:Z pgm_pn9_12_s3:1 1.105380e+01
2 pgm_pn9_12_s3:1 vs_63_9:A 1.000000e-03
3 pgm_pn9_12_s3:1 vs_58_9:A 1.000000e-03
*END

*D_NET pgm_pn9_3_s0 1.839750e-03
*CONN
*I lt_pn9_3_s0:Z O
*I vs_5_9:A I
*CAP
1 pgm_pn9_3_s0:1 1.839750e-03
*RES
1 lt_pn9_3_s0:Z pgm_pn9_3_s0:1 2.087715e+00
2 pgm_pn9_3_s0:1 vs_5_9:A 1.000000e-03
*END

*D_NET pgm_pn9_4_s2 2.509288e-03
*CONN
*I lt_pn9_4_s2:Z O
*I vs_36_9:A I
*CAP
1 pgm_pn9_4_s2:1 2.509288e-03
*RES
1 lt_pn9_4_s2:Z pgm_pn9_4_s2:1 2.847495e+00
2 pgm_pn9_4_s2:1 vs_36_9:A 1.000000e-03
*END

*D_NET pgm_pn9_5_s0 1.341433e-02
*CONN
*I lt_pn9_5_s0:Z O
*I vs_15_9:A I
*CAP
1 pgm_pn9_5_s0:1 1.341433e-02
*RES
1 lt_pn9_5_s0:Z pgm_pn9_5_s0:1 1.422609e+01
2 pgm_pn9_5_s0:1 vs_15_9:A 1.000000e-03
*END

*D_NET pgm_pn9_8_s0 2.335211e-03
*CONN
*I lt_pn9_8_s0:Z O
*I vs_9_9:A I
*CAP
1 pgm_pn9_8_s0:1 2.335211e-03
*RES
1 lt_pn9_8_s0:Z pgm_pn9_8_s0:1 1.553540e+00
2 pgm_pn9_8_s0:1 vs_9_9:A 1.000000e-03
*END

*D_NET pgm_pn9_8_s2 7.933736e-03
*CONN
*I lt_pn9_8_s2:Z O
*I vs_37_9:A I
*CAP
1 pgm_pn9_8_s2:1 7.933736e-03
*RES
1 lt_pn9_8_s2:Z pgm_pn9_8_s2:1 9.003061e+00
2 pgm_pn9_8_s2:1 vs_37_9:A 1.000000e-03
*END

*D_NET pgm_pn9_9_s0 8.173703e-03
*CONN
*I lt_pn9_9_s0:Z O
*I vs_7_9:A I
*CAP
1 pgm_pn9_9_s0:1 8.173703e-03
*RES
1 lt_pn9_9_s0:Z pgm_pn9_9_s0:1 9.275372e+00
2 pgm_pn9_9_s0:1 vs_7_9:A 1.000000e-03
*END

*D_NET pgm_pn9_9_s1 1.556825e-02
*CONN
*I lt_pn9_9_s1:Z O
*I vs_29_9:A I
*I vs_19_9:A I
*CAP
1 pgm_pn9_9_s1:1 1.556825e-02
*RES
1 lt_pn9_9_s1:Z pgm_pn9_9_s1:1 1.766657e+01
2 pgm_pn9_9_s1:1 vs_29_9:A 1.000000e-03
3 pgm_pn9_9_s1:1 vs_19_9:A 1.000000e-03
*END

*D_NET pgm_pn9_9_s2 9.397240e-03
*CONN
*I lt_pn9_9_s2:Z O
*I vs_38_9:A I
*CAP
1 pgm_pn9_9_s2:1 9.397240e-03
*RES
1 lt_pn9_9_s2:Z pgm_pn9_9_s2:1 1.066382e+01
2 pgm_pn9_9_s2:1 vs_38_9:A 1.000000e-03
*END

*D_NET pgm_pn9_9_s3 2.968485e-03
*CONN
*I lt_pn9_9_s3:Z O
*I vs_61_9:A I
*CAP
1 pgm_pn9_9_s3:1 2.968485e-03
*RES
1 lt_pn9_9_s3:Z pgm_pn9_9_s3:1 3.368584e+00
2 pgm_pn9_9_s3:1 vs_61_9:A 1.000000e-03
*END

*D_NET pgm_pp0_10_s0 1.287232e-02
*CONN
*I lt_pp0_10_s0:Z O
*I vs_15_0:A I
*I vs_7_0:A I
*CAP
1 pgm_pp0_10_s0:1 1.287232e-02
*RES
1 lt_pp0_10_s0:Z pgm_pp0_10_s0:1 1.460728e+01
2 pgm_pp0_10_s0:1 vs_15_0:A 1.000000e-03
3 pgm_pp0_10_s0:1 vs_7_0:A 1.000000e-03
*END

*D_NET pgm_pp0_10_s3 2.267278e-02
*CONN
*I lt_pp0_10_s3:Z O
*I vs_61_0:A I
*I vs_57_0:A I
*I vs_48_0:A I
*CAP
1 pgm_pp0_10_s3:1 2.267278e-02
*RES
1 lt_pp0_10_s3:Z pgm_pp0_10_s3:1 2.487638e+01
2 pgm_pp0_10_s3:1 vs_61_0:A 1.000000e-03
3 pgm_pp0_10_s3:1 vs_57_0:A 1.000000e-03
4 pgm_pp0_10_s3:1 vs_48_0:A 1.000000e-03
*END

*D_NET pgm_pp0_11_s0 1.987091e-02
*CONN
*I lt_pp0_11_s0:Z O
*I vs_9_0:A I
*I vs_8_0:A I
*I vs_1_0:A I
*CAP
1 pgm_pp0_11_s0:1 1.987091e-02
*RES
1 lt_pp0_11_s0:Z pgm_pp0_11_s0:1 2.058886e+01
2 pgm_pp0_11_s0:1 vs_9_0:A 1.000000e-03
3 pgm_pp0_11_s0:1 vs_8_0:A 1.000000e-03
4 pgm_pp0_11_s0:1 vs_1_0:A 1.000000e-03
*END

*D_NET pgm_pp0_11_s1 1.818317e-02
*CONN
*I lt_pp0_11_s1:Z O
*I vs_31_0:A I
*I vs_22_0:A I
*I vs_20_0:A I
*CAP
1 pgm_pp0_11_s1:1 1.818317e-02
*RES
1 lt_pp0_11_s1:Z pgm_pp0_11_s1:1 1.934972e+01
2 pgm_pp0_11_s1:1 vs_31_0:A 1.000000e-03
3 pgm_pp0_11_s1:1 vs_22_0:A 1.000000e-03
4 pgm_pp0_11_s1:1 vs_20_0:A 1.000000e-03
*END

*D_NET pgm_pp0_11_s2 1.047472e-02
*CONN
*I lt_pp0_11_s2:Z O
*I vs_39_0:A I
*CAP
1 pgm_pp0_11_s2:1 1.047472e-02
*RES
1 lt_pp0_11_s2:Z pgm_pp0_11_s2:1 7.797844e+00
2 pgm_pp0_11_s2:1 vs_39_0:A 1.000000e-03
*END

*D_NET pgm_pp0_11_s3 3.377318e-03
*CONN
*I lt_pp0_11_s3:Z O
*I vs_63_0:A I
*CAP
1 pgm_pp0_11_s3:1 3.377318e-03
*RES
1 lt_pp0_11_s3:Z pgm_pp0_11_s3:1 3.832520e+00
2 pgm_pp0_11_s3:1 vs_63_0:A 1.000000e-03
*END

*D_NET pgm_pp0_12_s0 7.969676e-03
*CONN
*I lt_pp0_12_s0:Z O
*I vs_10_0:A I
*CAP
1 pgm_pp0_12_s0:1 7.969676e-03
*RES
1 lt_pp0_12_s0:Z pgm_pp0_12_s0:1 7.255703e+00
2 pgm_pp0_12_s0:1 vs_10_0:A 1.000000e-03
*END

*D_NET pgm_pp0_12_s1 2.255230e-02
*CONN
*I lt_pp0_12_s1:Z O
*I vs_25_0:A I
*I vs_17_0:A I
*I vs_16_0:A I
*CAP
1 pgm_pp0_12_s1:1 2.255230e-02
*RES
1 lt_pp0_12_s1:Z pgm_pp0_12_s1:1 2.239126e+01
2 pgm_pp0_12_s1:1 vs_25_0:A 1.000000e-03
3 pgm_pp0_12_s1:1 vs_17_0:A 1.000000e-03
4 pgm_pp0_12_s1:1 vs_16_0:A 1.000000e-03
*END

*D_NET pgm_pp0_12_s2 1.240720e-02
*CONN
*I lt_pp0_12_s2:Z O
*I vs_46_0:A I
*I vs_44_0:A I
*I vs_40_0:A I
*CAP
1 pgm_pp0_12_s2:1 1.240720e-02
*RES
1 lt_pp0_12_s2:Z pgm_pp0_12_s2:1 1.407947e+01
2 pgm_pp0_12_s2:1 vs_46_0:A 1.000000e-03
3 pgm_pp0_12_s2:1 vs_44_0:A 1.000000e-03
4 pgm_pp0_12_s2:1 vs_40_0:A 1.000000e-03
*END

*D_NET pgm_pp0_12_s3 1.781387e-02
*CONN
*I lt_pp0_12_s3:Z O
*I vs_58_0:A I
*I vs_51_0:A I
*CAP
1 pgm_pp0_12_s3:1 1.781387e-02
*RES
1 lt_pp0_12_s3:Z pgm_pp0_12_s3:1 2.021486e+01
2 pgm_pp0_12_s3:1 vs_58_0:A 1.000000e-03
3 pgm_pp0_12_s3:1 vs_51_0:A 1.000000e-03
*END

*D_NET pgm_pp0_3_s0 1.264421e-02
*CONN
*I lt_pp0_3_s0:Z O
*I vs_12_0:A I
*I vs_5_0:A I
*CAP
1 pgm_pp0_3_s0:1 1.264421e-02
*RES
1 lt_pp0_3_s0:Z pgm_pp0_3_s0:1 1.434842e+01
2 pgm_pp0_3_s0:1 vs_12_0:A 1.000000e-03
3 pgm_pp0_3_s0:1 vs_5_0:A 1.000000e-03
*END

*D_NET pgm_pp0_3_s1 3.134388e-03
*CONN
*I lt_pp0_3_s1:Z O
*I vs_21_0:A I
*CAP
1 pgm_pp0_3_s1:1 3.134388e-03
*RES
1 lt_pp0_3_s1:Z pgm_pp0_3_s1:1 3.556848e+00
2 pgm_pp0_3_s1:1 vs_21_0:A 1.000000e-03
*END

*D_NET pgm_pp0_4_s1 1.578748e-02
*CONN
*I lt_pp0_4_s1:Z O
*I vs_28_0:A I
*CAP
1 pgm_pp0_4_s1:1 1.578748e-02
*RES
1 lt_pp0_4_s1:Z pgm_pp0_4_s1:1 1.791535e+01
2 pgm_pp0_4_s1:1 vs_28_0:A 1.000000e-03
*END

*D_NET pgm_pp0_5_s3 8.961744e-03
*CONN
*I lt_pp0_5_s3:Z O
*I vs_60_0:A I
*CAP
1 pgm_pp0_5_s3:1 8.961744e-03
*RES
1 lt_pp0_5_s3:Z pgm_pp0_5_s3:1 1.016963e+01
2 pgm_pp0_5_s3:1 vs_60_0:A 1.000000e-03
*END

*D_NET pgm_pp0_7_s3 6.725011e-03
*CONN
*I lt_pp0_7_s3:Z O
*I vs_52_0:A I
*CAP
1 pgm_pp0_7_s3:1 6.725011e-03
*RES
1 lt_pp0_7_s3:Z pgm_pp0_7_s3:1 7.631422e+00
2 pgm_pp0_7_s3:1 vs_52_0:A 1.000000e-03
*END

*D_NET pgm_pp0_8_s0 5.465923e-03
*CONN
*I lt_pp0_8_s0:Z O
*I vs_6_0:A I
*CAP
1 pgm_pp0_8_s0:1 5.465923e-03
*RES
1 lt_pp0_8_s0:Z pgm_pp0_8_s0:1 6.202632e+00
2 pgm_pp0_8_s0:1 vs_6_0:A 1.000000e-03
*END

*D_NET pgm_pp0_8_s2 5.163742e-03
*CONN
*I lt_pp0_8_s2:Z O
*I vs_45_0:A I
*CAP
1 pgm_pp0_8_s2:1 5.163742e-03
*RES
1 lt_pp0_8_s2:Z pgm_pp0_8_s2:1 5.859722e+00
2 pgm_pp0_8_s2:1 vs_45_0:A 1.000000e-03
*END

*D_NET pgm_pp0_8_s3 8.008105e-03
*CONN
*I lt_pp0_8_s3:Z O
*I vs_53_0:A I
*CAP
1 pgm_pp0_8_s3:1 8.008105e-03
*RES
1 lt_pp0_8_s3:Z pgm_pp0_8_s3:1 8.235178e+00
2 pgm_pp0_8_s3:1 vs_53_0:A 1.000000e-03
*END

*D_NET pgm_pp0_9_s0 1.197467e-02
*CONN
*I lt_pp0_9_s0:Z O
*I vs_3_0:A I
*CAP
1 pgm_pp0_9_s0:1 1.197467e-02
*RES
1 lt_pp0_9_s0:Z pgm_pp0_9_s0:1 1.358864e+01
2 pgm_pp0_9_s0:1 vs_3_0:A 1.000000e-03
*END

*D_NET pgm_pp0_9_s1 5.305365e-03
*CONN
*I lt_pp0_9_s1:Z O
*I vs_24_0:A I
*CAP
1 pgm_pp0_9_s1:1 5.305365e-03
*RES
1 lt_pp0_9_s1:Z pgm_pp0_9_s1:1 4.880198e+00
2 pgm_pp0_9_s1:1 vs_24_0:A 1.000000e-03
*END

*D_NET pgm_pp0_9_s2 1.641258e-02
*CONN
*I lt_pp0_9_s2:Z O
*I vs_32_0:A I
*CAP
1 pgm_pp0_9_s2:1 1.641258e-02
*RES
1 lt_pp0_9_s2:Z pgm_pp0_9_s2:1 1.862470e+01
2 pgm_pp0_9_s2:1 vs_32_0:A 1.000000e-03
*END

*D_NET pgm_pp10_0_s3 1.387428e-02
*CONN
*I lt_pp10_0_s3:Z O
*I vs_57_10:A I
*CAP
1 pgm_pp10_0_s3:1 1.387428e-02
*RES
1 lt_pp10_0_s3:Z pgm_pp10_0_s3:1 1.402813e+01
2 pgm_pp10_0_s3:1 vs_57_10:A 1.000000e-03
*END

*D_NET pgm_pp10_10_s0 3.823096e-03
*CONN
*I lt_pp10_10_s0:Z O
*I vs_10_10:A I
*CAP
1 pgm_pp10_10_s0:1 3.823096e-03
*RES
1 lt_pp10_10_s0:Z pgm_pp10_10_s0:1 1.745831e+00
2 pgm_pp10_10_s0:1 vs_10_10:A 1.000000e-03
*END

*D_NET pgm_pp10_10_s2 1.517733e-02
*CONN
*I lt_pp10_10_s2:Z O
*I vs_47_10:A I
*I vs_38_10:A I
*CAP
1 pgm_pp10_10_s2:1 1.517733e-02
*RES
1 lt_pp10_10_s2:Z pgm_pp10_10_s2:1 1.497471e+01
2 pgm_pp10_10_s2:1 vs_47_10:A 1.000000e-03
3 pgm_pp10_10_s2:1 vs_38_10:A 1.000000e-03
*END

*D_NET pgm_pp10_10_s3 1.622594e-02
*CONN
*I lt_pp10_10_s3:Z O
*I vs_49_10:A I
*CAP
1 pgm_pp10_10_s3:1 1.622594e-02
*RES
1 lt_pp10_10_s3:Z pgm_pp10_10_s3:1 1.841291e+01
2 pgm_pp10_10_s3:1 vs_49_10:A 1.000000e-03
*END

*D_NET pgm_pp10_11_s0 1.597977e-02
*CONN
*I lt_pp10_11_s0:Z O
*I vs_7_10:A I
*I vs_4_10:A I
*CAP
1 pgm_pp10_11_s0:1 1.597977e-02
*RES
1 lt_pp10_11_s0:Z pgm_pp10_11_s0:1 1.612945e+01
2 pgm_pp10_11_s0:1 vs_7_10:A 1.000000e-03
3 pgm_pp10_11_s0:1 vs_4_10:A 1.000000e-03
*END

*D_NET pgm_pp10_11_s1 1.424143e-02
*CONN
*I lt_pp10_11_s1:Z O
*I vs_28_10:A I
*I vs_21_10:A I
*CAP
1 pgm_pp10_11_s1:1 1.424143e-02
*RES
1 lt_pp10_11_s1:Z pgm_pp10_11_s1:1 1.267807e+01
2 pgm_pp10_11_s1:1 vs_28_10:A 1.000000e-03
3 pgm_pp10_11_s1:1 vs_21_10:A 1.000000e-03
*END

*D_NET pgm_pp10_11_s2 1.833576e-02
*CONN
*I lt_pp10_11_s2:Z O
*I vs_43_10:A I
*I vs_42_10:A I
*I vs_37_10:A I
*CAP
1 pgm_pp10_11_s2:1 1.833576e-02
*RES
1 lt_pp10_11_s2:Z pgm_pp10_11_s2:1 1.809468e+01
2 pgm_pp10_11_s2:1 vs_43_10:A 1.000000e-03
3 pgm_pp10_11_s2:1 vs_42_10:A 1.000000e-03
4 pgm_pp10_11_s2:1 vs_37_10:A 1.000000e-03
*END

*D_NET pgm_pp10_11_s3 1.556886e-02
*CONN
*I lt_pp10_11_s3:Z O
*I vs_62_10:A I
*I vs_61_10:A I
*I vs_53_10:A I
*CAP
1 pgm_pp10_11_s3:1 1.556886e-02
*RES
1 lt_pp10_11_s3:Z pgm_pp10_11_s3:1 1.596271e+01
2 pgm_pp10_11_s3:1 vs_62_10:A 1.000000e-03
3 pgm_pp10_11_s3:1 vs_61_10:A 1.000000e-03
4 pgm_pp10_11_s3:1 vs_53_10:A 1.000000e-03
*END

*D_NET pgm_pp10_12_s0 1.249965e-02
*CONN
*I lt_pp10_12_s0:Z O
*I vs_8_10:A I
*CAP
1 pgm_pp10_12_s0:1 1.249965e-02
*RES
1 lt_pp10_12_s0:Z pgm_pp10_12_s0:1 1.246823e+01
2 pgm_pp10_12_s0:1 vs_8_10:A 1.000000e-03
*END

*D_NET pgm_pp10_12_s1 1.867825e-02
*CONN
*I lt_pp10_12_s1:Z O
*I vs_26_10:A I
*I vs_22_10:A I
*CAP
1 pgm_pp10_12_s1:1 1.867825e-02
*RES
1 lt_pp10_12_s1:Z pgm_pp10_12_s1:1 1.618547e+01
2 pgm_pp10_12_s1:1 vs_26_10:A 1.000000e-03
3 pgm_pp10_12_s1:1 vs_22_10:A 1.000000e-03
*END

*D_NET pgm_pp10_12_s2 1.614493e-02
*CONN
*I lt_pp10_12_s2:Z O
*I vs_36_10:A I
*CAP
1 pgm_pp10_12_s2:1 1.614493e-02
*RES
1 lt_pp10_12_s2:Z pgm_pp10_12_s2:1 1.703676e+01
2 pgm_pp10_12_s2:1 vs_36_10:A 1.000000e-03
*END

*D_NET pgm_pp10_12_s3 1.702941e-02
*CONN
*I lt_pp10_12_s3:Z O
*I vs_59_10:A I
*I vs_55_10:A I
*I vs_52_10:A I
*CAP
1 pgm_pp10_12_s3:1 1.702941e-02
*RES
1 lt_pp10_12_s3:Z pgm_pp10_12_s3:1 1.760851e+01
2 pgm_pp10_12_s3:1 vs_59_10:A 1.000000e-03
3 pgm_pp10_12_s3:1 vs_55_10:A 1.000000e-03
4 pgm_pp10_12_s3:1 vs_52_10:A 1.000000e-03
*END

*D_NET pgm_pp10_3_s0 1.083633e-02
*CONN
*I lt_pp10_3_s0:Z O
*I vs_9_10:A I
*CAP
1 pgm_pp10_3_s0:1 1.083633e-02
*RES
1 lt_pp10_3_s0:Z pgm_pp10_3_s0:1 1.014878e+01
2 pgm_pp10_3_s0:1 vs_9_10:A 1.000000e-03
*END

*D_NET pgm_pp10_4_s0 1.306785e-02
*CONN
*I lt_pp10_4_s0:Z O
*I vs_11_10:A I
*CAP
1 pgm_pp10_4_s0:1 1.306785e-02
*RES
1 lt_pp10_4_s0:Z pgm_pp10_4_s0:1 1.482916e+01
2 pgm_pp10_4_s0:1 vs_11_10:A 1.000000e-03
*END

*D_NET pgm_pp10_4_s2 6.141387e-03
*CONN
*I lt_pp10_4_s2:Z O
*I vs_33_10:A I
*CAP
1 pgm_pp10_4_s2:1 6.141387e-03
*RES
1 lt_pp10_4_s2:Z pgm_pp10_4_s2:1 6.969136e+00
2 pgm_pp10_4_s2:1 vs_33_10:A 1.000000e-03
*END

*D_NET pgm_pp10_4_s3 7.178283e-03
*CONN
*I lt_pp10_4_s3:Z O
*I vs_48_10:A I
*CAP
1 pgm_pp10_4_s3:1 7.178283e-03
*RES
1 lt_pp10_4_s3:Z pgm_pp10_4_s3:1 8.145787e+00
2 pgm_pp10_4_s3:1 vs_48_10:A 1.000000e-03
*END

*D_NET pgm_pp10_7_s3 9.415016e-03
*CONN
*I lt_pp10_7_s3:Z O
*I vs_50_10:A I
*CAP
1 pgm_pp10_7_s3:1 9.415016e-03
*RES
1 lt_pp10_7_s3:Z pgm_pp10_7_s3:1 1.068399e+01
2 pgm_pp10_7_s3:1 vs_50_10:A 1.000000e-03
*END

*D_NET pgm_pp10_8_s1 9.795415e-03
*CONN
*I lt_pp10_8_s1:Z O
*I vs_19_10:A I
*CAP
1 pgm_pp10_8_s1:1 9.795415e-03
*RES
1 lt_pp10_8_s1:Z pgm_pp10_8_s1:1 1.055134e+01
2 pgm_pp10_8_s1:1 vs_19_10:A 1.000000e-03
*END

*D_NET pgm_pp10_9_s0 2.228451e-02
*CONN
*I lt_pp10_9_s0:Z O
*I vs_15_10:A I
*I vs_3_10:A I
*I vs_2_10:A I
*CAP
1 pgm_pp10_9_s0:1 2.228451e-02
*RES
1 lt_pp10_9_s0:Z pgm_pp10_9_s0:1 2.303981e+01
2 pgm_pp10_9_s0:1 vs_15_10:A 1.000000e-03
3 pgm_pp10_9_s0:1 vs_3_10:A 1.000000e-03
4 pgm_pp10_9_s0:1 vs_2_10:A 1.000000e-03
*END

*D_NET pgm_pp10_9_s1 2.301020e-02
*CONN
*I lt_pp10_9_s1:Z O
*I vs_30_10:A I
*I vs_29_10:A I
*I vs_24_10:A I
*I vs_20_10:A I
*I vs_18_10:A I
*I vs_16_10:A I
*CAP
1 pgm_pp10_9_s1:1 2.301020e-02
*RES
1 lt_pp10_9_s1:Z pgm_pp10_9_s1:1 2.611157e+01
2 pgm_pp10_9_s1:1 vs_30_10:A 1.000000e-03
3 pgm_pp10_9_s1:1 vs_29_10:A 1.000000e-03
4 pgm_pp10_9_s1:1 vs_24_10:A 1.000000e-03
5 pgm_pp10_9_s1:1 vs_20_10:A 1.000000e-03
6 pgm_pp10_9_s1:1 vs_18_10:A 1.000000e-03
7 pgm_pp10_9_s1:1 vs_16_10:A 1.000000e-03
*END

*D_NET pgm_pp10_9_s2 1.443359e-02
*CONN
*I lt_pp10_9_s2:Z O
*I vs_40_10:A I
*I vs_34_10:A I
*CAP
1 pgm_pp10_9_s2:1 1.443359e-02
*RES
1 lt_pp10_9_s2:Z pgm_pp10_9_s2:1 1.637898e+01
2 pgm_pp10_9_s2:1 vs_40_10:A 1.000000e-03
3 pgm_pp10_9_s2:1 vs_34_10:A 1.000000e-03
*END

*D_NET pgm_pp10_9_s3 4.307562e-03
*CONN
*I lt_pp10_9_s3:Z O
*I vs_56_10:A I
*CAP
1 pgm_pp10_9_s3:1 4.307562e-03
*RES
1 lt_pp10_9_s3:Z pgm_pp10_9_s3:1 4.888144e+00
2 pgm_pp10_9_s3:1 vs_56_10:A 1.000000e-03
*END

*D_NET pgm_pp11_10_s1 1.338781e-02
*CONN
*I lt_pp11_10_s1:Z O
*I vs_31_11:A I
*I vs_26_11:A I
*I vs_24_11:A I
*CAP
1 pgm_pp11_10_s1:1 1.338781e-02
*RES
1 lt_pp11_10_s1:Z pgm_pp11_10_s1:1 1.519225e+01
2 pgm_pp11_10_s1:1 vs_31_11:A 1.000000e-03
3 pgm_pp11_10_s1:1 vs_26_11:A 1.000000e-03
4 pgm_pp11_10_s1:1 vs_24_11:A 1.000000e-03
*END

*D_NET pgm_pp11_10_s2 1.178506e-02
*CONN
*I lt_pp11_10_s2:Z O
*I vs_42_11:A I
*I vs_41_11:A I
*I vs_37_11:A I
*CAP
1 pgm_pp11_10_s2:1 1.178506e-02
*RES
1 lt_pp11_10_s2:Z pgm_pp11_10_s2:1 1.337348e+01
2 pgm_pp11_10_s2:1 vs_42_11:A 1.000000e-03
3 pgm_pp11_10_s2:1 vs_41_11:A 1.000000e-03
4 pgm_pp11_10_s2:1 vs_37_11:A 1.000000e-03
*END

*D_NET pgm_pp11_10_s3 1.816049e-02
*CONN
*I lt_pp11_10_s3:Z O
*I vs_48_11:A I
*CAP
1 pgm_pp11_10_s3:1 1.816049e-02
*RES
1 lt_pp11_10_s3:Z pgm_pp11_10_s3:1 2.060820e+01
2 pgm_pp11_10_s3:1 vs_48_11:A 1.000000e-03
*END

*D_NET pgm_pp11_11_s0 1.668071e-02
*CONN
*I lt_pp11_11_s0:Z O
*I vs_14_11:A I
*I vs_4_11:A I
*CAP
1 pgm_pp11_11_s0:1 1.668071e-02
*RES
1 lt_pp11_11_s0:Z pgm_pp11_11_s0:1 1.750078e+01
2 pgm_pp11_11_s0:1 vs_14_11:A 1.000000e-03
3 pgm_pp11_11_s0:1 vs_4_11:A 1.000000e-03
*END

*D_NET pgm_pp11_11_s1 1.765110e-02
*CONN
*I lt_pp11_11_s1:Z O
*I vs_20_11:A I
*I vs_19_11:A I
*CAP
1 pgm_pp11_11_s1:1 1.765110e-02
*RES
1 lt_pp11_11_s1:Z pgm_pp11_11_s1:1 1.817002e+01
2 pgm_pp11_11_s1:1 vs_20_11:A 1.000000e-03
3 pgm_pp11_11_s1:1 vs_19_11:A 1.000000e-03
*END

*D_NET pgm_pp11_11_s2 1.715322e-03
*CONN
*I lt_pp11_11_s2:Z O
*I vs_45_11:A I
*CAP
1 pgm_pp11_11_s2:1 1.715322e-03
*RES
1 lt_pp11_11_s2:Z pgm_pp11_11_s2:1 1.946517e+00
2 pgm_pp11_11_s2:1 vs_45_11:A 1.000000e-03
*END

*D_NET pgm_pp11_11_s3 1.891257e-02
*CONN
*I lt_pp11_11_s3:Z O
*I vs_58_11:A I
*I vs_50_11:A I
*CAP
1 pgm_pp11_11_s3:1 1.891257e-02
*RES
1 lt_pp11_11_s3:Z pgm_pp11_11_s3:1 1.846128e+01
2 pgm_pp11_11_s3:1 vs_58_11:A 1.000000e-03
3 pgm_pp11_11_s3:1 vs_50_11:A 1.000000e-03
*END

*D_NET pgm_pp11_12_s0 1.853810e-02
*CONN
*I lt_pp11_12_s0:Z O
*I vs_7_11:A I
*I vs_3_11:A I
*CAP
1 pgm_pp11_12_s0:1 1.853810e-02
*RES
1 lt_pp11_12_s0:Z pgm_pp11_12_s0:1 1.860065e+01
2 pgm_pp11_12_s0:1 vs_7_11:A 1.000000e-03
3 pgm_pp11_12_s0:1 vs_3_11:A 1.000000e-03
*END

*D_NET pgm_pp11_12_s1 6.133110e-03
*CONN
*I lt_pp11_12_s1:Z O
*I vs_27_11:A I
*CAP
1 pgm_pp11_12_s1:1 6.133110e-03
*RES
1 lt_pp11_12_s1:Z pgm_pp11_12_s1:1 5.243591e+00
2 pgm_pp11_12_s1:1 vs_27_11:A 1.000000e-03
*END

*D_NET pgm_pp11_12_s2 2.418338e-02
*CONN
*I lt_pp11_12_s2:Z O
*I vs_47_11:A I
*I vs_32_11:A I
*CAP
1 pgm_pp11_12_s2:1 2.418338e-02
*RES
1 lt_pp11_12_s2:Z pgm_pp11_12_s2:1 2.744286e+01
2 pgm_pp11_12_s2:1 vs_47_11:A 1.000000e-03
3 pgm_pp11_12_s2:1 vs_32_11:A 1.000000e-03
*END

*D_NET pgm_pp11_12_s3 1.273666e-02
*CONN
*I lt_pp11_12_s3:Z O
*I vs_62_11:A I
*I vs_57_11:A I
*CAP
1 pgm_pp11_12_s3:1 1.273666e-02
*RES
1 lt_pp11_12_s3:Z pgm_pp11_12_s3:1 1.273718e+01
2 pgm_pp11_12_s3:1 vs_62_11:A 1.000000e-03
3 pgm_pp11_12_s3:1 vs_57_11:A 1.000000e-03
*END

*D_NET pgm_pp11_3_s2 4.479391e-03
*CONN
*I lt_pp11_3_s2:Z O
*I vs_33_11:A I
*CAP
1 pgm_pp11_3_s2:1 4.479391e-03
*RES
1 lt_pp11_3_s2:Z pgm_pp11_3_s2:1 5.083132e+00
2 pgm_pp11_3_s2:1 vs_33_11:A 1.000000e-03
*END

*D_NET pgm_pp11_3_s3 4.443260e-03
*CONN
*I lt_pp11_3_s3:Z O
*I vs_54_11:A I
*CAP
1 pgm_pp11_3_s3:1 4.443260e-03
*RES
1 lt_pp11_3_s3:Z pgm_pp11_3_s3:1 3.901896e+00
2 pgm_pp11_3_s3:1 vs_54_11:A 1.000000e-03
*END

*D_NET pgm_pp11_5_s0 7.127919e-03
*CONN
*I lt_pp11_5_s0:Z O
*I vs_1_11:A I
*CAP
1 pgm_pp11_5_s0:1 7.127919e-03
*RES
1 lt_pp11_5_s0:Z pgm_pp11_5_s0:1 8.088635e+00
2 pgm_pp11_5_s0:1 vs_1_11:A 1.000000e-03
*END

*D_NET pgm_pp11_5_s1 7.758945e-03
*CONN
*I lt_pp11_5_s1:Z O
*I vs_17_11:A I
*CAP
1 pgm_pp11_5_s1:1 7.758945e-03
*RES
1 lt_pp11_5_s1:Z pgm_pp11_5_s1:1 8.804711e+00
2 pgm_pp11_5_s1:1 vs_17_11:A 1.000000e-03
*END

*D_NET pgm_pp11_5_s3 8.967669e-03
*CONN
*I lt_pp11_5_s3:Z O
*I vs_55_11:A I
*I vs_49_11:A I
*CAP
1 pgm_pp11_5_s3:1 8.967669e-03
*RES
1 lt_pp11_5_s3:Z pgm_pp11_5_s3:1 1.017635e+01
2 pgm_pp11_5_s3:1 vs_55_11:A 1.000000e-03
3 pgm_pp11_5_s3:1 vs_49_11:A 1.000000e-03
*END

*D_NET pgm_pp11_6_s0 9.970545e-03
*CONN
*I lt_pp11_6_s0:Z O
*I vs_13_11:A I
*I vs_10_11:A I
*CAP
1 pgm_pp11_6_s0:1 9.970545e-03
*RES
1 lt_pp11_6_s0:Z pgm_pp11_6_s0:1 9.729702e+00
2 pgm_pp11_6_s0:1 vs_13_11:A 1.000000e-03
3 pgm_pp11_6_s0:1 vs_10_11:A 1.000000e-03
*END

*D_NET pgm_pp11_6_s2 6.458381e-03
*CONN
*I lt_pp11_6_s2:Z O
*I vs_35_11:A I
*CAP
1 pgm_pp11_6_s2:1 6.458381e-03
*RES
1 lt_pp11_6_s2:Z pgm_pp11_6_s2:1 7.328855e+00
2 pgm_pp11_6_s2:1 vs_35_11:A 1.000000e-03
*END

*D_NET pgm_pp11_7_s0 1.150955e-02
*CONN
*I lt_pp11_7_s0:Z O
*I vs_2_11:A I
*CAP
1 pgm_pp11_7_s0:1 1.150955e-02
*RES
1 lt_pp11_7_s0:Z pgm_pp11_7_s0:1 1.306083e+01
2 pgm_pp11_7_s0:1 vs_2_11:A 1.000000e-03
*END

*D_NET pgm_pp11_7_s3 8.529210e-03
*CONN
*I lt_pp11_7_s3:Z O
*I vs_51_11:A I
*CAP
1 pgm_pp11_7_s3:1 8.529210e-03
*RES
1 lt_pp11_7_s3:Z pgm_pp11_7_s3:1 9.678795e+00
2 pgm_pp11_7_s3:1 vs_51_11:A 1.000000e-03
*END

*D_NET pgm_pp11_9_s0 2.658430e-02
*CONN
*I lt_pp11_9_s0:Z O
*I vs_15_11:A I
*I vs_12_11:A I
*I vs_9_11:A I
*I vs_0_11:A I
*CAP
1 pgm_pp11_9_s0:1 2.658430e-02
*RES
1 lt_pp11_9_s0:Z pgm_pp11_9_s0:1 2.276626e+01
2 pgm_pp11_9_s0:1 vs_15_11:A 1.000000e-03
3 pgm_pp11_9_s0:1 vs_12_11:A 1.000000e-03
4 pgm_pp11_9_s0:1 vs_9_11:A 1.000000e-03
5 pgm_pp11_9_s0:1 vs_0_11:A 1.000000e-03
*END

*D_NET pgm_pp11_9_s3 1.737099e-02
*CONN
*I lt_pp11_9_s3:Z O
*I vs_63_11:A I
*I vs_52_11:A I
*CAP
1 pgm_pp11_9_s3:1 1.737099e-02
*RES
1 lt_pp11_9_s3:Z pgm_pp11_9_s3:1 1.828409e+01
2 pgm_pp11_9_s3:1 vs_63_11:A 1.000000e-03
3 pgm_pp11_9_s3:1 vs_52_11:A 1.000000e-03
*END

*D_NET pgm_pp12_10_s2 1.804624e-02
*CONN
*I lt_pp12_10_s2:Z O
*I vs_44_12:A I
*I vs_34_12:A I
*CAP
1 pgm_pp12_10_s2:1 1.804624e-02
*RES
1 lt_pp12_10_s2:Z pgm_pp12_10_s2:1 1.727787e+01
2 pgm_pp12_10_s2:1 vs_44_12:A 1.000000e-03
3 pgm_pp12_10_s2:1 vs_34_12:A 1.000000e-03
*END

*D_NET pgm_pp12_10_s3 4.701583e-03
*CONN
*I lt_pp12_10_s3:Z O
*I vs_62_12:A I
*I vs_61_12:A I
*CAP
1 pgm_pp12_10_s3:1 4.701583e-03
*RES
1 lt_pp12_10_s3:Z pgm_pp12_10_s3:1 5.335272e+00
2 pgm_pp12_10_s3:1 vs_62_12:A 1.000000e-03
3 pgm_pp12_10_s3:1 vs_61_12:A 1.000000e-03
*END

*D_NET pgm_pp12_11_s0 1.673226e-02
*CONN
*I lt_pp12_11_s0:Z O
*I vs_3_12:A I
*CAP
1 pgm_pp12_11_s0:1 1.673226e-02
*RES
1 lt_pp12_11_s0:Z pgm_pp12_11_s0:1 1.698336e+01
2 pgm_pp12_11_s0:1 vs_3_12:A 1.000000e-03
*END

*D_NET pgm_pp12_11_s1 1.217316e-02
*CONN
*I lt_pp12_11_s1:Z O
*I vs_28_12:A I
*I vs_22_12:A I
*CAP
1 pgm_pp12_11_s1:1 1.217316e-02
*RES
1 lt_pp12_11_s1:Z pgm_pp12_11_s1:1 1.381388e+01
2 pgm_pp12_11_s1:1 vs_28_12:A 1.000000e-03
3 pgm_pp12_11_s1:1 vs_22_12:A 1.000000e-03
*END

*D_NET pgm_pp12_11_s2 1.406729e-02
*CONN
*I lt_pp12_11_s2:Z O
*I vs_39_12:A I
*I vs_37_12:A I
*CAP
1 pgm_pp12_11_s2:1 1.406729e-02
*RES
1 lt_pp12_11_s2:Z pgm_pp12_11_s2:1 1.439113e+01
2 pgm_pp12_11_s2:1 vs_39_12:A 1.000000e-03
3 pgm_pp12_11_s2:1 vs_37_12:A 1.000000e-03
*END

*D_NET pgm_pp12_12_s0 1.586601e-02
*CONN
*I lt_pp12_12_s0:Z O
*I vs_11_12:A I
*I vs_5_12:A I
*CAP
1 pgm_pp12_12_s0:1 1.586601e-02
*RES
1 lt_pp12_12_s0:Z pgm_pp12_12_s0:1 1.657626e+01
2 pgm_pp12_12_s0:1 vs_11_12:A 1.000000e-03
3 pgm_pp12_12_s0:1 vs_5_12:A 1.000000e-03
*END

*D_NET pgm_pp12_12_s1 2.682250e-02
*CONN
*I lt_pp12_12_s1:Z O
*I vs_26_12:A I
*I vs_16_12:A I
*CAP
1 pgm_pp12_12_s1:1 2.682250e-02
*RES
1 lt_pp12_12_s1:Z pgm_pp12_12_s1:1 2.355568e+01
2 pgm_pp12_12_s1:1 vs_26_12:A 1.000000e-03
3 pgm_pp12_12_s1:1 vs_16_12:A 1.000000e-03
*END

*D_NET pgm_pp12_12_s2 9.771134e-03
*CONN
*I lt_pp12_12_s2:Z O
*I vs_46_12:A I
*I vs_45_12:A I
*I vs_41_12:A I
*CAP
1 pgm_pp12_12_s2:1 9.771134e-03
*RES
1 lt_pp12_12_s2:Z pgm_pp12_12_s2:1 9.371955e+00
2 pgm_pp12_12_s2:1 vs_46_12:A 1.000000e-03
3 pgm_pp12_12_s2:1 vs_45_12:A 1.000000e-03
4 pgm_pp12_12_s2:1 vs_41_12:A 1.000000e-03
*END

*D_NET pgm_pp12_12_s3 2.720910e-02
*CONN
*I lt_pp12_12_s3:Z O
*I vs_55_12:A I
*I vs_51_12:A I
*I vs_48_12:A I
*CAP
1 pgm_pp12_12_s3:1 2.720910e-02
*RES
1 lt_pp12_12_s3:Z pgm_pp12_12_s3:1 2.815147e+01
2 pgm_pp12_12_s3:1 vs_55_12:A 1.000000e-03
3 pgm_pp12_12_s3:1 vs_51_12:A 1.000000e-03
4 pgm_pp12_12_s3:1 vs_48_12:A 1.000000e-03
*END

*D_NET pgm_pp12_3_s3 9.420941e-03
*CONN
*I lt_pp12_3_s3:Z O
*I vs_56_12:A I
*I vs_50_12:A I
*CAP
1 pgm_pp12_3_s3:1 9.420941e-03
*RES
1 lt_pp12_3_s3:Z pgm_pp12_3_s3:1 1.069071e+01
2 pgm_pp12_3_s3:1 vs_56_12:A 1.000000e-03
3 pgm_pp12_3_s3:1 vs_50_12:A 1.000000e-03
*END

*D_NET pgm_pp12_4_s1 1.414326e-02
*CONN
*I lt_pp12_4_s1:Z O
*I vs_31_12:A I
*CAP
1 pgm_pp12_4_s1:1 1.414326e-02
*RES
1 lt_pp12_4_s1:Z pgm_pp12_4_s1:1 1.604952e+01
2 pgm_pp12_4_s1:1 vs_31_12:A 1.000000e-03
*END

*D_NET pgm_pp12_5_s1 1.430916e-03
*CONN
*I lt_pp12_5_s1:Z O
*I vs_21_12:A I
*CAP
1 pgm_pp12_5_s1:1 1.430916e-03
*RES
1 lt_pp12_5_s1:Z pgm_pp12_5_s1:1 1.623778e+00
2 pgm_pp12_5_s1:1 vs_21_12:A 1.000000e-03
*END

*D_NET pgm_pp12_5_s2 8.161853e-03
*CONN
*I lt_pp12_5_s2:Z O
*I vs_33_12:A I
*CAP
1 pgm_pp12_5_s2:1 8.161853e-03
*RES
1 lt_pp12_5_s2:Z pgm_pp12_5_s2:1 9.261924e+00
2 pgm_pp12_5_s2:1 vs_33_12:A 1.000000e-03
*END

*D_NET pgm_pp12_6_s0 2.565577e-03
*CONN
*I lt_pp12_6_s0:Z O
*I vs_6_12:A I
*CAP
1 pgm_pp12_6_s0:1 2.565577e-03
*RES
1 lt_pp12_6_s0:Z pgm_pp12_6_s0:1 2.911371e+00
2 pgm_pp12_6_s0:1 vs_6_12:A 1.000000e-03
*END

*D_NET pgm_pp12_6_s1 6.357654e-03
*CONN
*I lt_pp12_6_s1:Z O
*I vs_27_12:A I
*CAP
1 pgm_pp12_6_s1:1 6.357654e-03
*RES
1 lt_pp12_6_s1:Z pgm_pp12_6_s1:1 7.214552e+00
2 pgm_pp12_6_s1:1 vs_27_12:A 1.000000e-03
*END

*D_NET pgm_pp12_9_s1 1.165767e-02
*CONN
*I lt_pp12_9_s1:Z O
*I vs_19_12:A I
*CAP
1 pgm_pp12_9_s1:1 1.165767e-02
*RES
1 lt_pp12_9_s1:Z pgm_pp12_9_s1:1 1.322892e+01
2 pgm_pp12_9_s1:1 vs_19_12:A 1.000000e-03
*END

*D_NET pgm_pp12_9_s3 2.047808e-03
*CONN
*I lt_pp12_9_s3:Z O
*I vs_58_12:A I
*CAP
1 pgm_pp12_9_s3:1 2.047808e-03
*RES
1 lt_pp12_9_s3:Z pgm_pp12_9_s3:1 8.392823e-01
2 pgm_pp12_9_s3:1 vs_58_12:A 1.000000e-03
*END

*D_NET pgm_pp13_0_s1 1.930421e-02
*CONN
*I lt_pp13_0_s1:Z O
*I vs_29_13:A I
*CAP
1 pgm_pp13_0_s1:1 1.930421e-02
*RES
1 lt_pp13_0_s1:Z pgm_pp13_0_s1:1 2.004594e+01
2 pgm_pp13_0_s1:1 vs_29_13:A 1.000000e-03
*END

*D_NET pgm_pp13_10_s0 2.485588e-03
*CONN
*I lt_pp13_10_s0:Z O
*I vs_12_13:A I
*I vs_11_13:A I
*CAP
1 pgm_pp13_10_s0:1 2.485588e-03
*RES
1 lt_pp13_10_s0:Z pgm_pp13_10_s0:1 2.820601e+00
2 pgm_pp13_10_s0:1 vs_12_13:A 1.000000e-03
3 pgm_pp13_10_s0:1 vs_11_13:A 1.000000e-03
*END

*D_NET pgm_pp13_10_s1 7.528579e-03
*CONN
*I lt_pp13_10_s1:Z O
*I vs_23_13:A I
*CAP
1 pgm_pp13_10_s1:1 7.528579e-03
*RES
1 lt_pp13_10_s1:Z pgm_pp13_10_s1:1 7.446881e+00
2 pgm_pp13_10_s1:1 vs_23_13:A 1.000000e-03
*END

*D_NET pgm_pp13_10_s2 5.391859e-03
*CONN
*I lt_pp13_10_s2:Z O
*I vs_43_13:A I
*I vs_41_13:A I
*CAP
1 pgm_pp13_10_s2:1 5.391859e-03
*RES
1 lt_pp13_10_s2:Z pgm_pp13_10_s2:1 6.118585e+00
2 pgm_pp13_10_s2:1 vs_43_13:A 1.000000e-03
3 pgm_pp13_10_s2:1 vs_41_13:A 1.000000e-03
*END

*D_NET pgm_pp13_10_s3 7.980556e-03
*CONN
*I lt_pp13_10_s3:Z O
*I vs_56_13:A I
*CAP
1 pgm_pp13_10_s3:1 7.980556e-03
*RES
1 lt_pp13_10_s3:Z pgm_pp13_10_s3:1 7.915957e+00
2 pgm_pp13_10_s3:1 vs_56_13:A 1.000000e-03
*END

*D_NET pgm_pp13_11_s0 7.003492e-03
*CONN
*I lt_pp13_11_s0:Z O
*I vs_9_13:A I
*CAP
1 pgm_pp13_11_s0:1 7.003492e-03
*RES
1 lt_pp13_11_s0:Z pgm_pp13_11_s0:1 7.947437e+00
2 pgm_pp13_11_s0:1 vs_9_13:A 1.000000e-03
*END

*D_NET pgm_pp13_11_s1 1.484243e-02
*CONN
*I lt_pp13_11_s1:Z O
*I vs_20_13:A I
*CAP
1 pgm_pp13_11_s1:1 1.484243e-02
*RES
1 lt_pp13_11_s1:Z pgm_pp13_11_s1:1 1.684292e+01
2 pgm_pp13_11_s1:1 vs_20_13:A 1.000000e-03
*END

*D_NET pgm_pp13_11_s2 1.006014e-02
*CONN
*I lt_pp13_11_s2:Z O
*I vs_42_13:A I
*I vs_40_13:A I
*CAP
1 pgm_pp13_11_s2:1 1.006014e-02
*RES
1 lt_pp13_11_s2:Z pgm_pp13_11_s2:1 9.267971e+00
2 pgm_pp13_11_s2:1 vs_42_13:A 1.000000e-03
3 pgm_pp13_11_s2:1 vs_40_13:A 1.000000e-03
*END

*D_NET pgm_pp13_11_s3 1.765686e-03
*CONN
*I lt_pp13_11_s3:Z O
*I vs_61_13:A I
*CAP
1 pgm_pp13_11_s3:1 1.765686e-03
*RES
1 lt_pp13_11_s3:Z pgm_pp13_11_s3:1 2.003669e+00
2 pgm_pp13_11_s3:1 vs_61_13:A 1.000000e-03
*END

*D_NET pgm_pp13_12_s0 8.037425e-03
*CONN
*I lt_pp13_12_s0:Z O
*I vs_13_13:A I
*I vs_10_13:A I
*CAP
1 pgm_pp13_12_s0:1 8.037425e-03
*RES
1 lt_pp13_12_s0:Z pgm_pp13_12_s0:1 9.120726e+00
2 pgm_pp13_12_s0:1 vs_13_13:A 1.000000e-03
3 pgm_pp13_12_s0:1 vs_10_13:A 1.000000e-03
*END

*D_NET pgm_pp13_12_s1 2.361296e-02
*CONN
*I lt_pp13_12_s1:Z O
*I vs_28_13:A I
*I vs_17_13:A I
*I vs_16_13:A I
*CAP
1 pgm_pp13_12_s1:1 2.361296e-02
*RES
1 lt_pp13_12_s1:Z pgm_pp13_12_s1:1 2.437112e+01
2 pgm_pp13_12_s1:1 vs_28_13:A 1.000000e-03
3 pgm_pp13_12_s1:1 vs_17_13:A 1.000000e-03
4 pgm_pp13_12_s1:1 vs_16_13:A 1.000000e-03
*END

*D_NET pgm_pp13_12_s2 2.073199e-02
*CONN
*I lt_pp13_12_s2:Z O
*I vs_47_13:A I
*I vs_37_13:A I
*I vs_35_13:A I
*I vs_34_13:A I
*CAP
1 pgm_pp13_12_s2:1 2.073199e-02
*RES
1 lt_pp13_12_s2:Z pgm_pp13_12_s2:1 2.352630e+01
2 pgm_pp13_12_s2:1 vs_47_13:A 1.000000e-03
3 pgm_pp13_12_s2:1 vs_37_13:A 1.000000e-03
4 pgm_pp13_12_s2:1 vs_35_13:A 1.000000e-03
5 pgm_pp13_12_s2:1 vs_34_13:A 1.000000e-03
*END

*D_NET pgm_pp13_12_s3 1.728456e-02
*CONN
*I lt_pp13_12_s3:Z O
*I vs_57_13:A I
*I vs_55_13:A I
*I vs_52_13:A I
*CAP
1 pgm_pp13_12_s3:1 1.728456e-02
*RES
1 lt_pp13_12_s3:Z pgm_pp13_12_s3:1 1.727740e+01
2 pgm_pp13_12_s3:1 vs_57_13:A 1.000000e-03
3 pgm_pp13_12_s3:1 vs_55_13:A 1.000000e-03
4 pgm_pp13_12_s3:1 vs_52_13:A 1.000000e-03
*END

*D_NET pgm_pp13_2_s3 1.629408e-03
*CONN
*I lt_pp13_2_s3:Z O
*I vs_50_13:A I
*CAP
1 pgm_pp13_2_s3:1 1.629408e-03
*RES
1 lt_pp13_2_s3:Z pgm_pp13_2_s3:1 1.849023e+00
2 pgm_pp13_2_s3:1 vs_50_13:A 1.000000e-03
*END

*D_NET pgm_pp13_4_s0 3.415832e-03
*CONN
*I lt_pp13_4_s0:Z O
*I vs_7_13:A I
*CAP
1 pgm_pp13_4_s0:1 3.415832e-03
*RES
1 lt_pp13_4_s0:Z pgm_pp13_4_s0:1 3.876225e+00
2 pgm_pp13_4_s0:1 vs_7_13:A 1.000000e-03
*END

*D_NET pgm_pp13_5_s3 7.077556e-03
*CONN
*I lt_pp13_5_s3:Z O
*I vs_49_13:A I
*CAP
1 pgm_pp13_5_s3:1 7.077556e-03
*RES
1 lt_pp13_5_s3:Z pgm_pp13_5_s3:1 8.031484e+00
2 pgm_pp13_5_s3:1 vs_49_13:A 1.000000e-03
*END

*D_NET pgm_pp13_6_s0 1.430916e-03
*CONN
*I lt_pp13_6_s0:Z O
*I vs_8_13:A I
*CAP
1 pgm_pp13_6_s0:1 1.430916e-03
*RES
1 lt_pp13_6_s0:Z pgm_pp13_6_s0:1 1.623778e+00
2 pgm_pp13_6_s0:1 vs_8_13:A 1.000000e-03
*END

*D_NET pgm_pp13_7_s1 5.391859e-04
*CONN
*I lt_pp13_7_s1:Z O
*I vs_24_13:A I
*CAP
1 pgm_pp13_7_s1:1 5.391859e-04
*RES
1 lt_pp13_7_s1:Z pgm_pp13_7_s1:1 6.118585e-01
2 pgm_pp13_7_s1:1 vs_24_13:A 1.000000e-03
*END

*D_NET pgm_pp13_9_s0 1.384701e-02
*CONN
*I lt_pp13_9_s0:Z O
*I vs_4_13:A I
*I vs_1_13:A I
*CAP
1 pgm_pp13_9_s0:1 1.384701e-02
*RES
1 lt_pp13_9_s0:Z pgm_pp13_9_s0:1 1.571333e+01
2 pgm_pp13_9_s0:1 vs_4_13:A 1.000000e-03
3 pgm_pp13_9_s0:1 vs_1_13:A 1.000000e-03
*END

*D_NET pgm_pp13_9_s2 1.726314e-02
*CONN
*I lt_pp13_9_s2:Z O
*I vs_32_13:A I
*CAP
1 pgm_pp13_9_s2:1 1.726314e-02
*RES
1 lt_pp13_9_s2:Z pgm_pp13_9_s2:1 1.873763e+01
2 pgm_pp13_9_s2:1 vs_32_13:A 1.000000e-03
*END

*D_NET pgm_pp13_9_s3 1.842048e-02
*CONN
*I lt_pp13_9_s3:Z O
*I vs_62_13:A I
*I vs_60_13:A I
*I vs_51_13:A I
*CAP
1 pgm_pp13_9_s3:1 1.842048e-02
*RES
1 lt_pp13_9_s3:Z pgm_pp13_9_s3:1 1.876674e+01
2 pgm_pp13_9_s3:1 vs_62_13:A 1.000000e-03
3 pgm_pp13_9_s3:1 vs_60_13:A 1.000000e-03
4 pgm_pp13_9_s3:1 vs_51_13:A 1.000000e-03
*END

*D_NET pgm_pp14_10_s0 1.613706e-02
*CONN
*I lt_pp14_10_s0:Z O
*I vs_6_14:A I
*I vs_1_14:A I
*CAP
1 pgm_pp14_10_s0:1 1.613706e-02
*RES
1 lt_pp14_10_s0:Z pgm_pp14_10_s0:1 1.831205e+01
2 pgm_pp14_10_s0:1 vs_6_14:A 1.000000e-03
3 pgm_pp14_10_s0:1 vs_1_14:A 1.000000e-03
*END

*D_NET pgm_pp14_10_s1 2.019281e-02
*CONN
*I lt_pp14_10_s1:Z O
*I vs_30_14:A I
*I vs_17_14:A I
*CAP
1 pgm_pp14_10_s1:1 2.019281e-02
*RES
1 lt_pp14_10_s1:Z pgm_pp14_10_s1:1 2.291444e+01
2 pgm_pp14_10_s1:1 vs_30_14:A 1.000000e-03
3 pgm_pp14_10_s1:1 vs_17_14:A 1.000000e-03
*END

*D_NET pgm_pp14_10_s3 1.090222e-02
*CONN
*I lt_pp14_10_s3:Z O
*I vs_56_14:A I
*I vs_54_14:A I
*CAP
1 pgm_pp14_10_s3:1 1.090222e-02
*RES
1 lt_pp14_10_s3:Z pgm_pp14_10_s3:1 1.237164e+01
2 pgm_pp14_10_s3:1 vs_56_14:A 1.000000e-03
3 pgm_pp14_10_s3:1 vs_54_14:A 1.000000e-03
*END

*D_NET pgm_pp14_11_s0 4.233498e-03
*CONN
*I lt_pp14_11_s0:Z O
*I vs_11_14:A I
*CAP
1 pgm_pp14_11_s0:1 4.233498e-03
*RES
1 lt_pp14_11_s0:Z pgm_pp14_11_s0:1 4.804098e+00
2 pgm_pp14_11_s0:1 vs_11_14:A 1.000000e-03
*END

*D_NET pgm_pp14_11_s1 1.184029e-02
*CONN
*I lt_pp14_11_s1:Z O
*I vs_27_14:A I
*I vs_23_14:A I
*CAP
1 pgm_pp14_11_s1:1 1.184029e-02
*RES
1 lt_pp14_11_s1:Z pgm_pp14_11_s1:1 7.963092e+00
2 pgm_pp14_11_s1:1 vs_27_14:A 1.000000e-03
3 pgm_pp14_11_s1:1 vs_23_14:A 1.000000e-03
*END

*D_NET pgm_pp14_11_s2 2.103731e-02
*CONN
*I lt_pp14_11_s2:Z O
*I vs_45_14:A I
*I vs_43_14:A I
*I vs_42_14:A I
*I vs_33_14:A I
*CAP
1 pgm_pp14_11_s2:1 2.103731e-02
*RES
1 lt_pp14_11_s2:Z pgm_pp14_11_s2:1 2.201263e+01
2 pgm_pp14_11_s2:1 vs_45_14:A 1.000000e-03
3 pgm_pp14_11_s2:1 vs_43_14:A 1.000000e-03
4 pgm_pp14_11_s2:1 vs_42_14:A 1.000000e-03
5 pgm_pp14_11_s2:1 vs_33_14:A 1.000000e-03
*END

*D_NET pgm_pp14_11_s3 1.627038e-02
*CONN
*I lt_pp14_11_s3:Z O
*I vs_50_14:A I
*CAP
1 pgm_pp14_11_s3:1 1.627038e-02
*RES
1 lt_pp14_11_s3:Z pgm_pp14_11_s3:1 1.846334e+01
2 pgm_pp14_11_s3:1 vs_50_14:A 1.000000e-03
*END

*D_NET pgm_pp14_12_s1 8.306744e-03
*CONN
*I lt_pp14_12_s1:Z O
*I vs_26_14:A I
*CAP
1 pgm_pp14_12_s1:1 8.306744e-03
*RES
1 lt_pp14_12_s1:Z pgm_pp14_12_s1:1 7.422232e+00
2 pgm_pp14_12_s1:1 vs_26_14:A 1.000000e-03
*END

*D_NET pgm_pp14_12_s2 1.298255e-02
*CONN
*I lt_pp14_12_s2:Z O
*I vs_38_14:A I
*CAP
1 pgm_pp14_12_s2:1 1.298255e-02
*RES
1 lt_pp14_12_s2:Z pgm_pp14_12_s2:1 1.301621e+01
2 pgm_pp14_12_s2:1 vs_38_14:A 1.000000e-03
*END

*D_NET pgm_pp14_12_s3 1.710378e-02
*CONN
*I lt_pp14_12_s3:Z O
*I vs_55_14:A I
*CAP
1 pgm_pp14_12_s3:1 1.710378e-02
*RES
1 lt_pp14_12_s3:Z pgm_pp14_12_s3:1 1.682903e+01
2 pgm_pp14_12_s3:1 vs_55_14:A 1.000000e-03
*END

*D_NET pgm_pp14_1_s0 2.571502e-03
*CONN
*I lt_pp14_1_s0:Z O
*I vs_0_14:A I
*CAP
1 pgm_pp14_1_s0:1 2.571502e-03
*RES
1 lt_pp14_1_s0:Z pgm_pp14_1_s0:1 2.918094e+00
2 pgm_pp14_1_s0:1 vs_0_14:A 1.000000e-03
*END

*D_NET pgm_pp14_3_s0 3.370813e-03
*CONN
*I lt_pp14_3_s0:Z O
*I vs_5_14:A I
*CAP
1 pgm_pp14_3_s0:1 3.370813e-03
*RES
1 lt_pp14_3_s0:Z pgm_pp14_3_s0:1 2.684903e+00
2 pgm_pp14_3_s0:1 vs_5_14:A 1.000000e-03
*END

*D_NET pgm_pp14_3_s1 9.324058e-03
*CONN
*I lt_pp14_3_s1:Z O
*I vs_25_14:A I
*I vs_20_14:A I
*CAP
1 pgm_pp14_3_s1:1 9.324058e-03
*RES
1 lt_pp14_3_s1:Z pgm_pp14_3_s1:1 7.068008e+00
2 pgm_pp14_3_s1:1 vs_25_14:A 1.000000e-03
3 pgm_pp14_3_s1:1 vs_20_14:A 1.000000e-03
*END

*D_NET pgm_pp14_3_s3 3.104763e-03
*CONN
*I lt_pp14_3_s3:Z O
*I vs_53_14:A I
*CAP
1 pgm_pp14_3_s3:1 3.104763e-03
*RES
1 lt_pp14_3_s3:Z pgm_pp14_3_s3:1 3.523229e+00
2 pgm_pp14_3_s3:1 vs_53_14:A 1.000000e-03
*END

*D_NET pgm_pp14_4_s0 6.458381e-03
*CONN
*I lt_pp14_4_s0:Z O
*I vs_9_14:A I
*CAP
1 pgm_pp14_4_s0:1 6.458381e-03
*RES
1 lt_pp14_4_s0:Z pgm_pp14_4_s0:1 7.328855e+00
2 pgm_pp14_4_s0:1 vs_9_14:A 1.000000e-03
*END

*D_NET pgm_pp14_4_s2 1.577912e-02
*CONN
*I lt_pp14_4_s2:Z O
*I vs_47_14:A I
*CAP
1 pgm_pp14_4_s2:1 1.577912e-02
*RES
1 lt_pp14_4_s2:Z pgm_pp14_4_s2:1 1.712558e+01
2 pgm_pp14_4_s2:1 vs_47_14:A 1.000000e-03
*END

*D_NET pgm_pp14_4_s3 7.587116e-03
*CONN
*I lt_pp14_4_s3:Z O
*I vs_48_14:A I
*CAP
1 pgm_pp14_4_s3:1 7.587116e-03
*RES
1 lt_pp14_4_s3:Z pgm_pp14_4_s3:1 8.609723e+00
2 pgm_pp14_4_s3:1 vs_48_14:A 1.000000e-03
*END

*D_NET pgm_pp14_6_s1 1.165175e-02
*CONN
*I lt_pp14_6_s1:Z O
*I vs_31_14:A I
*CAP
1 pgm_pp14_6_s1:1 1.165175e-02
*RES
1 lt_pp14_6_s1:Z pgm_pp14_6_s1:1 1.322220e+01
2 pgm_pp14_6_s1:1 vs_31_14:A 1.000000e-03
*END

*D_NET pgm_pp14_7_s3 1.028008e-03
*CONN
*I lt_pp14_7_s3:Z O
*I vs_57_14:A I
*CAP
1 pgm_pp14_7_s3:1 1.028008e-03
*RES
1 lt_pp14_7_s3:Z pgm_pp14_7_s3:1 1.166565e+00
2 pgm_pp14_7_s3:1 vs_57_14:A 1.000000e-03
*END

*D_NET pgm_pp14_8_s1 1.321894e-02
*CONN
*I lt_pp14_8_s1:Z O
*I vs_28_14:A I
*I vs_19_14:A I
*CAP
1 pgm_pp14_8_s1:1 1.321894e-02
*RES
1 lt_pp14_8_s1:Z pgm_pp14_8_s1:1 1.500062e+01
2 pgm_pp14_8_s1:1 vs_28_14:A 1.000000e-03
3 pgm_pp14_8_s1:1 vs_19_14:A 1.000000e-03
*END

*D_NET pgm_pp14_8_s3 1.314164e-02
*CONN
*I lt_pp14_8_s3:Z O
*I vs_58_14:A I
*I vs_51_14:A I
*CAP
1 pgm_pp14_8_s3:1 1.314164e-02
*RES
1 lt_pp14_8_s3:Z pgm_pp14_8_s3:1 1.236417e+01
2 pgm_pp14_8_s3:1 vs_58_14:A 1.000000e-03
3 pgm_pp14_8_s3:1 vs_51_14:A 1.000000e-03
*END

*D_NET pgm_pp14_9_s0 1.492939e-02
*CONN
*I lt_pp14_9_s0:Z O
*I vs_4_14:A I
*I vs_2_14:A I
*CAP
1 pgm_pp14_9_s0:1 1.492939e-02
*RES
1 lt_pp14_9_s0:Z pgm_pp14_9_s0:1 1.536943e+01
2 pgm_pp14_9_s0:1 vs_4_14:A 1.000000e-03
3 pgm_pp14_9_s0:1 vs_2_14:A 1.000000e-03
*END

*D_NET pgm_pp14_9_s2 7.175320e-03
*CONN
*I lt_pp14_9_s2:Z O
*I vs_44_14:A I
*I vs_40_14:A I
*CAP
1 pgm_pp14_9_s2:1 7.175320e-03
*RES
1 lt_pp14_9_s2:Z pgm_pp14_9_s2:1 8.142425e+00
2 pgm_pp14_9_s2:1 vs_44_14:A 1.000000e-03
3 pgm_pp14_9_s2:1 vs_40_14:A 1.000000e-03
*END

*D_NET pgm_pp14_9_s3 2.328572e-03
*CONN
*I lt_pp14_9_s3:Z O
*I vs_60_14:A I
*CAP
1 pgm_pp14_9_s3:1 2.328572e-03
*RES
1 lt_pp14_9_s3:Z pgm_pp14_9_s3:1 2.642422e+00
2 pgm_pp14_9_s3:1 vs_60_14:A 1.000000e-03
*END

*D_NET pgm_pp15_10_s0 2.106738e-02
*CONN
*I lt_pp15_10_s0:Z O
*I vs_15_15:A I
*I vs_3_15:A I
*CAP
1 pgm_pp15_10_s0:1 2.106738e-02
*RES
1 lt_pp15_10_s0:Z pgm_pp15_10_s0:1 2.219073e+01
2 pgm_pp15_10_s0:1 vs_15_15:A 1.000000e-03
3 pgm_pp15_10_s0:1 vs_3_15:A 1.000000e-03
*END

*D_NET pgm_pp15_10_s1 6.413942e-03
*CONN
*I lt_pp15_10_s1:Z O
*I vs_24_15:A I
*CAP
1 pgm_pp15_10_s1:1 6.413942e-03
*RES
1 lt_pp15_10_s1:Z pgm_pp15_10_s1:1 7.278427e+00
2 pgm_pp15_10_s1:1 vs_24_15:A 1.000000e-03
*END

*D_NET pgm_pp15_10_s3 2.441980e-02
*CONN
*I lt_pp15_10_s3:Z O
*I vs_63_15:A I
*I vs_59_15:A I
*I vs_52_15:A I
*I vs_48_15:A I
*CAP
1 pgm_pp15_10_s3:1 2.441980e-02
*RES
1 lt_pp15_10_s3:Z pgm_pp15_10_s3:1 2.657092e+01
2 pgm_pp15_10_s3:1 vs_63_15:A 1.000000e-03
3 pgm_pp15_10_s3:1 vs_59_15:A 1.000000e-03
4 pgm_pp15_10_s3:1 vs_52_15:A 1.000000e-03
5 pgm_pp15_10_s3:1 vs_48_15:A 1.000000e-03
*END

*D_NET pgm_pp15_11_s0 1.843305e-02
*CONN
*I lt_pp15_11_s0:Z O
*I vs_12_15:A I
*I vs_1_15:A I
*CAP
1 pgm_pp15_11_s0:1 1.843305e-02
*RES
1 lt_pp15_11_s0:Z pgm_pp15_11_s0:1 2.091749e+01
2 pgm_pp15_11_s0:1 vs_12_15:A 1.000000e-03
3 pgm_pp15_11_s0:1 vs_1_15:A 1.000000e-03
*END

*D_NET pgm_pp15_11_s1 2.888496e-03
*CONN
*I lt_pp15_11_s1:Z O
*I vs_28_15:A I
*CAP
1 pgm_pp15_11_s1:1 2.888496e-03
*RES
1 lt_pp15_11_s1:Z pgm_pp15_11_s1:1 3.277814e+00
2 pgm_pp15_11_s1:1 vs_28_15:A 1.000000e-03
*END

*D_NET pgm_pp15_11_s2 1.524533e-02
*CONN
*I lt_pp15_11_s2:Z O
*I vs_44_15:A I
*I vs_43_15:A I
*I vs_37_15:A I
*CAP
1 pgm_pp15_11_s2:1 1.524533e-02
*RES
1 lt_pp15_11_s2:Z pgm_pp15_11_s2:1 1.730013e+01
2 pgm_pp15_11_s2:1 vs_44_15:A 1.000000e-03
3 pgm_pp15_11_s2:1 vs_43_15:A 1.000000e-03
4 pgm_pp15_11_s2:1 vs_37_15:A 1.000000e-03
*END

*D_NET pgm_pp15_12_s0 2.373620e-02
*CONN
*I lt_pp15_12_s0:Z O
*I vs_10_15:A I
*I vs_7_15:A I
*I vs_0_15:A I
*CAP
1 pgm_pp15_12_s0:1 2.373620e-02
*RES
1 lt_pp15_12_s0:Z pgm_pp15_12_s0:1 2.507528e+01
2 pgm_pp15_12_s0:1 vs_10_15:A 1.000000e-03
3 pgm_pp15_12_s0:1 vs_7_15:A 1.000000e-03
4 pgm_pp15_12_s0:1 vs_0_15:A 1.000000e-03
*END

*D_NET pgm_pp15_12_s1 3.513596e-03
*CONN
*I lt_pp15_12_s1:Z O
*I vs_29_15:A I
*CAP
1 pgm_pp15_12_s1:1 3.513596e-03
*RES
1 lt_pp15_12_s1:Z pgm_pp15_12_s1:1 3.987166e+00
2 pgm_pp15_12_s1:1 vs_29_15:A 1.000000e-03
*END

*D_NET pgm_pp15_3_s3 1.839780e-02
*CONN
*I lt_pp15_3_s3:Z O
*I vs_62_15:A I
*I vs_58_15:A I
*I vs_53_15:A I
*CAP
1 pgm_pp15_3_s3:1 1.839780e-02
*RES
1 lt_pp15_3_s3:Z pgm_pp15_3_s3:1 2.002522e+01
2 pgm_pp15_3_s3:1 vs_62_15:A 1.000000e-03
3 pgm_pp15_3_s3:1 vs_58_15:A 1.000000e-03
4 pgm_pp15_3_s3:1 vs_53_15:A 1.000000e-03
*END

*D_NET pgm_pp15_4_s3 3.451382e-03
*CONN
*I lt_pp15_4_s3:Z O
*I vs_55_15:A I
*CAP
1 pgm_pp15_4_s3:1 3.451382e-03
*RES
1 lt_pp15_4_s3:Z pgm_pp15_4_s3:1 3.916567e+00
2 pgm_pp15_4_s3:1 vs_55_15:A 1.000000e-03
*END

*D_NET pgm_pp15_5_s1 7.963361e-03
*CONN
*I lt_pp15_5_s1:Z O
*I vs_16_15:A I
*CAP
1 pgm_pp15_5_s1:1 7.963361e-03
*RES
1 lt_pp15_5_s1:Z pgm_pp15_5_s1:1 9.036680e+00
2 pgm_pp15_5_s1:1 vs_16_15:A 1.000000e-03
*END

*D_NET pgm_pp15_5_s2 2.178074e-02
*CONN
*I lt_pp15_5_s2:Z O
*I vs_46_15:A I
*I vs_32_15:A I
*CAP
1 pgm_pp15_5_s2:1 2.178074e-02
*RES
1 lt_pp15_5_s2:Z pgm_pp15_5_s2:1 2.471639e+01
2 pgm_pp15_5_s2:1 vs_46_15:A 1.000000e-03
3 pgm_pp15_5_s2:1 vs_32_15:A 1.000000e-03
*END

*D_NET pgm_pp15_6_s1 4.301637e-03
*CONN
*I lt_pp15_6_s1:Z O
*I vs_22_15:A I
*I vs_20_15:A I
*CAP
1 pgm_pp15_6_s1:1 4.301637e-03
*RES
1 lt_pp15_6_s1:Z pgm_pp15_6_s1:1 4.881421e+00
2 pgm_pp15_6_s1:1 vs_22_15:A 1.000000e-03
3 pgm_pp15_6_s1:1 vs_20_15:A 1.000000e-03
*END

*D_NET pgm_pp15_6_s2 2.020466e-03
*CONN
*I lt_pp15_6_s2:Z O
*I vs_38_15:A I
*CAP
1 pgm_pp15_6_s2:1 2.020466e-03
*RES
1 lt_pp15_6_s2:Z pgm_pp15_6_s2:1 2.292789e+00
2 pgm_pp15_6_s2:1 vs_38_15:A 1.000000e-03
*END

*D_NET pgm_pp15_6_s3 1.057324e-02
*CONN
*I lt_pp15_6_s3:Z O
*I vs_49_15:A I
*CAP
1 pgm_pp15_6_s3:1 1.057324e-02
*RES
1 lt_pp15_6_s3:Z pgm_pp15_6_s3:1 1.100207e+01
2 pgm_pp15_6_s3:1 vs_49_15:A 1.000000e-03
*END

*D_NET pgm_pp15_8_s2 1.260569e-02
*CONN
*I lt_pp15_8_s2:Z O
*I vs_40_15:A I
*I vs_34_15:A I
*CAP
1 pgm_pp15_8_s2:1 1.260569e-02
*RES
1 lt_pp15_8_s2:Z pgm_pp15_8_s2:1 1.430471e+01
2 pgm_pp15_8_s2:1 vs_40_15:A 1.000000e-03
3 pgm_pp15_8_s2:1 vs_34_15:A 1.000000e-03
*END

*D_NET pgm_pp15_8_s3 1.048154e-02
*CONN
*I lt_pp15_8_s3:Z O
*I vs_50_15:A I
*CAP
1 pgm_pp15_8_s3:1 1.048154e-02
*RES
1 lt_pp15_8_s3:Z pgm_pp15_8_s3:1 1.189426e+01
2 pgm_pp15_8_s3:1 vs_50_15:A 1.000000e-03
*END

*D_NET pgm_pp15_9_s0 1.714583e-02
*CONN
*I lt_pp15_9_s0:Z O
*I vs_14_15:A I
*I vs_8_15:A I
*I vs_4_15:A I
*CAP
1 pgm_pp15_9_s0:1 1.714583e-02
*RES
1 lt_pp15_9_s0:Z pgm_pp15_9_s0:1 1.802859e+01
2 pgm_pp15_9_s0:1 vs_14_15:A 1.000000e-03
3 pgm_pp15_9_s0:1 vs_8_15:A 1.000000e-03
4 pgm_pp15_9_s0:1 vs_4_15:A 1.000000e-03
*END

*D_NET pgm_pp15_9_s1 1.411956e-02
*CONN
*I lt_pp15_9_s1:Z O
*I vs_17_15:A I
*CAP
1 pgm_pp15_9_s1:1 1.411956e-02
*RES
1 lt_pp15_9_s1:Z pgm_pp15_9_s1:1 1.602262e+01
2 pgm_pp15_9_s1:1 vs_17_15:A 1.000000e-03
*END

*D_NET pgm_pp15_9_s3 1.410222e-02
*CONN
*I lt_pp15_9_s3:Z O
*I vs_57_15:A I
*I vs_51_15:A I
*CAP
1 pgm_pp15_9_s3:1 1.410222e-02
*RES
1 lt_pp15_9_s3:Z pgm_pp15_9_s3:1 1.290242e+01
2 pgm_pp15_9_s3:1 vs_57_15:A 1.000000e-03
3 pgm_pp15_9_s3:1 vs_51_15:A 1.000000e-03
*END

*D_NET pgm_pp16_10_s0 1.805384e-02
*CONN
*I lt_pp16_10_s0:Z O
*I vs_12_16:A I
*I vs_8_16:A I
*I vs_7_16:A I
*I vs_4_16:A I
*I vs_3_16:A I
*I vs_1_16:A I
*CAP
1 pgm_pp16_10_s0:1 1.805384e-02
*RES
1 lt_pp16_10_s0:Z pgm_pp16_10_s0:1 2.048717e+01
2 pgm_pp16_10_s0:1 vs_12_16:A 1.000000e-03
3 pgm_pp16_10_s0:1 vs_8_16:A 1.000000e-03
4 pgm_pp16_10_s0:1 vs_7_16:A 1.000000e-03
5 pgm_pp16_10_s0:1 vs_4_16:A 1.000000e-03
6 pgm_pp16_10_s0:1 vs_3_16:A 1.000000e-03
7 pgm_pp16_10_s0:1 vs_1_16:A 1.000000e-03
*END

*D_NET pgm_pp16_10_s1 1.010825e-02
*CONN
*I lt_pp16_10_s1:Z O
*I vs_29_16:A I
*I vs_24_16:A I
*CAP
1 pgm_pp16_10_s1:1 1.010825e-02
*RES
1 lt_pp16_10_s1:Z pgm_pp16_10_s1:1 1.147067e+01
2 pgm_pp16_10_s1:1 vs_29_16:A 1.000000e-03
3 pgm_pp16_10_s1:1 vs_24_16:A 1.000000e-03
*END

*D_NET pgm_pp16_10_s2 1.300860e-02
*CONN
*I lt_pp16_10_s2:Z O
*I vs_38_16:A I
*I vs_36_16:A I
*CAP
1 pgm_pp16_10_s2:1 1.300860e-02
*RES
1 lt_pp16_10_s2:Z pgm_pp16_10_s2:1 1.476193e+01
2 pgm_pp16_10_s2:1 vs_38_16:A 1.000000e-03
3 pgm_pp16_10_s2:1 vs_36_16:A 1.000000e-03
*END

*D_NET pgm_pp16_10_s3 6.997429e-03
*CONN
*I lt_pp16_10_s3:Z O
*I vs_56_16:A I
*CAP
1 pgm_pp16_10_s3:1 6.997429e-03
*RES
1 lt_pp16_10_s3:Z pgm_pp16_10_s3:1 6.944302e+00
2 pgm_pp16_10_s3:1 vs_56_16:A 1.000000e-03
*END

*D_NET pgm_pp16_11_s0 1.964177e-02
*CONN
*I lt_pp16_11_s0:Z O
*I vs_0_16:A I
*CAP
1 pgm_pp16_11_s0:1 1.964177e-02
*RES
1 lt_pp16_11_s0:Z pgm_pp16_11_s0:1 2.228913e+01
2 pgm_pp16_11_s0:1 vs_0_16:A 1.000000e-03
*END

*D_NET pgm_pp16_11_s2 7.367887e-03
*CONN
*I lt_pp16_11_s2:Z O
*I vs_46_16:A I
*I vs_42_16:A I
*CAP
1 pgm_pp16_11_s2:1 7.367887e-03
*RES
1 lt_pp16_11_s2:Z pgm_pp16_11_s2:1 8.360946e+00
2 pgm_pp16_11_s2:1 vs_46_16:A 1.000000e-03
3 pgm_pp16_11_s2:1 vs_42_16:A 1.000000e-03
*END

*D_NET pgm_pp16_11_s3 2.017800e-02
*CONN
*I lt_pp16_11_s3:Z O
*I vs_62_16:A I
*I vs_52_16:A I
*I vs_50_16:A I
*CAP
1 pgm_pp16_11_s3:1 2.017800e-02
*RES
1 lt_pp16_11_s3:Z pgm_pp16_11_s3:1 2.289763e+01
2 pgm_pp16_11_s3:1 vs_62_16:A 1.000000e-03
3 pgm_pp16_11_s3:1 vs_52_16:A 1.000000e-03
4 pgm_pp16_11_s3:1 vs_50_16:A 1.000000e-03
*END

*D_NET pgm_pp16_12_s0 1.296610e-02
*CONN
*I lt_pp16_12_s0:Z O
*I vs_6_16:A I
*CAP
1 pgm_pp16_12_s0:1 1.296610e-02
*RES
1 lt_pp16_12_s0:Z pgm_pp16_12_s0:1 1.342949e+01
2 pgm_pp16_12_s0:1 vs_6_16:A 1.000000e-03
*END

*D_NET pgm_pp16_12_s1 2.519318e-02
*CONN
*I lt_pp16_12_s1:Z O
*I vs_30_16:A I
*I vs_25_16:A I
*I vs_16_16:A I
*CAP
1 pgm_pp16_12_s1:1 2.519318e-02
*RES
1 lt_pp16_12_s1:Z pgm_pp16_12_s1:1 2.512203e+01
2 pgm_pp16_12_s1:1 vs_30_16:A 1.000000e-03
3 pgm_pp16_12_s1:1 vs_25_16:A 1.000000e-03
4 pgm_pp16_12_s1:1 vs_16_16:A 1.000000e-03
*END

*D_NET pgm_pp16_12_s2 2.409157e-02
*CONN
*I lt_pp16_12_s2:Z O
*I vs_45_16:A I
*I vs_32_16:A I
*CAP
1 pgm_pp16_12_s2:1 2.409157e-02
*RES
1 lt_pp16_12_s2:Z pgm_pp16_12_s2:1 2.447649e+01
2 pgm_pp16_12_s2:1 vs_45_16:A 1.000000e-03
3 pgm_pp16_12_s2:1 vs_32_16:A 1.000000e-03
*END

*D_NET pgm_pp16_12_s3 1.054525e-02
*CONN
*I lt_pp16_12_s3:Z O
*I vs_60_16:A I
*I vs_57_16:A I
*CAP
1 pgm_pp16_12_s3:1 1.054525e-02
*RES
1 lt_pp16_12_s3:Z pgm_pp16_12_s3:1 1.053836e+01
2 pgm_pp16_12_s3:1 vs_60_16:A 1.000000e-03
3 pgm_pp16_12_s3:1 vs_57_16:A 1.000000e-03
*END

*D_NET pgm_pp16_5_s2 1.250200e-02
*CONN
*I lt_pp16_5_s2:Z O
*I vs_47_16:A I
*CAP
1 pgm_pp16_5_s2:1 1.250200e-02
*RES
1 lt_pp16_5_s2:Z pgm_pp16_5_s2:1 1.418705e+01
2 pgm_pp16_5_s2:1 vs_47_16:A 1.000000e-03
*END

*D_NET pgm_pp16_6_s2 3.098838e-03
*CONN
*I lt_pp16_6_s2:Z O
*I vs_41_16:A I
*CAP
1 pgm_pp16_6_s2:1 3.098838e-03
*RES
1 lt_pp16_6_s2:Z pgm_pp16_6_s2:1 3.516506e+00
2 pgm_pp16_6_s2:1 vs_41_16:A 1.000000e-03
*END

*D_NET pgm_pp16_6_s3 5.391859e-04
*CONN
*I lt_pp16_6_s3:Z O
*I vs_55_16:A I
*CAP
1 pgm_pp16_6_s3:1 5.391859e-04
*RES
1 lt_pp16_6_s3:Z pgm_pp16_6_s3:1 6.118585e-01
2 pgm_pp16_6_s3:1 vs_55_16:A 1.000000e-03
*END

*D_NET pgm_pp16_7_s0 9.971977e-03
*CONN
*I lt_pp16_7_s0:Z O
*I vs_15_16:A I
*I vs_10_16:A I
*CAP
1 pgm_pp16_7_s0:1 9.971977e-03
*RES
1 lt_pp16_7_s0:Z pgm_pp16_7_s0:1 1.131602e+01
2 pgm_pp16_7_s0:1 vs_15_16:A 1.000000e-03
3 pgm_pp16_7_s0:1 vs_10_16:A 1.000000e-03
*END

*D_NET pgm_pp16_8_s1 5.294095e-03
*CONN
*I lt_pp16_8_s1:Z O
*I vs_22_16:A I
*CAP
1 pgm_pp16_8_s1:1 5.294095e-03
*RES
1 lt_pp16_8_s1:Z pgm_pp16_8_s1:1 6.007644e+00
2 pgm_pp16_8_s1:1 vs_22_16:A 1.000000e-03
*END

*D_NET pgm_pp16_8_s3 1.068595e-02
*CONN
*I lt_pp16_8_s3:Z O
*I vs_51_16:A I
*CAP
1 pgm_pp16_8_s3:1 1.068595e-02
*RES
1 lt_pp16_8_s3:Z pgm_pp16_8_s3:1 1.212623e+01
2 pgm_pp16_8_s3:1 vs_51_16:A 1.000000e-03
*END

*D_NET pgm_pp16_9_s0 8.976557e-04
*CONN
*I lt_pp16_9_s0:Z O
*I vs_11_16:A I
*CAP
1 pgm_pp16_9_s0:1 8.976557e-04
*RES
1 lt_pp16_9_s0:Z pgm_pp16_9_s0:1 1.018644e+00
2 pgm_pp16_9_s0:1 vs_11_16:A 1.000000e-03
*END

*D_NET pgm_pp16_9_s1 1.746802e-02
*CONN
*I lt_pp16_9_s1:Z O
*I vs_28_16:A I
*I vs_23_16:A I
*I vs_17_16:A I
*CAP
1 pgm_pp16_9_s1:1 1.746802e-02
*RES
1 lt_pp16_9_s1:Z pgm_pp16_9_s1:1 1.740779e+01
2 pgm_pp16_9_s1:1 vs_28_16:A 1.000000e-03
3 pgm_pp16_9_s1:1 vs_23_16:A 1.000000e-03
4 pgm_pp16_9_s1:1 vs_17_16:A 1.000000e-03
*END

*D_NET pgm_pp16_9_s2 1.296120e-02
*CONN
*I lt_pp16_9_s2:Z O
*I vs_34_16:A I
*CAP
1 pgm_pp16_9_s2:1 1.296120e-02
*RES
1 lt_pp16_9_s2:Z pgm_pp16_9_s2:1 1.470814e+01
2 pgm_pp16_9_s2:1 vs_34_16:A 1.000000e-03
*END

*D_NET pgm_pp17_10_s2 1.445879e-02
*CONN
*I lt_pp17_10_s2:Z O
*I vs_38_17:A I
*I vs_35_17:A I
*CAP
1 pgm_pp17_10_s2:1 1.445879e-02
*RES
1 lt_pp17_10_s2:Z pgm_pp17_10_s2:1 1.497938e+01
2 pgm_pp17_10_s2:1 vs_38_17:A 1.000000e-03
3 pgm_pp17_10_s2:1 vs_35_17:A 1.000000e-03
*END

*D_NET pgm_pp17_10_s3 1.251978e-02
*CONN
*I lt_pp17_10_s3:Z O
*I vs_61_17:A I
*I vs_53_17:A I
*CAP
1 pgm_pp17_10_s3:1 1.251978e-02
*RES
1 lt_pp17_10_s3:Z pgm_pp17_10_s3:1 1.420722e+01
2 pgm_pp17_10_s3:1 vs_61_17:A 1.000000e-03
3 pgm_pp17_10_s3:1 vs_53_17:A 1.000000e-03
*END

*D_NET pgm_pp17_11_s0 1.960775e-02
*CONN
*I lt_pp17_11_s0:Z O
*I vs_12_17:A I
*I vs_9_17:A I
*I vs_4_17:A I
*I vs_2_17:A I
*CAP
1 pgm_pp17_11_s0:1 1.960775e-02
*RES
1 lt_pp17_11_s0:Z pgm_pp17_11_s0:1 2.066583e+01
2 pgm_pp17_11_s0:1 vs_12_17:A 1.000000e-03
3 pgm_pp17_11_s0:1 vs_9_17:A 1.000000e-03
4 pgm_pp17_11_s0:1 vs_4_17:A 1.000000e-03
5 pgm_pp17_11_s0:1 vs_2_17:A 1.000000e-03
*END

*D_NET pgm_pp17_11_s1 2.571502e-03
*CONN
*I lt_pp17_11_s1:Z O
*I vs_30_17:A I
*CAP
1 pgm_pp17_11_s1:1 2.571502e-03
*RES
1 lt_pp17_11_s1:Z pgm_pp17_11_s1:1 2.918094e+00
2 pgm_pp17_11_s1:1 vs_30_17:A 1.000000e-03
*END

*D_NET pgm_pp17_11_s2 4.671957e-03
*CONN
*I lt_pp17_11_s2:Z O
*I vs_46_17:A I
*I vs_45_17:A I
*I vs_44_17:A I
*CAP
1 pgm_pp17_11_s2:1 4.671957e-03
*RES
1 lt_pp17_11_s2:Z pgm_pp17_11_s2:1 5.301653e+00
2 pgm_pp17_11_s2:1 vs_46_17:A 1.000000e-03
3 pgm_pp17_11_s2:1 vs_45_17:A 1.000000e-03
4 pgm_pp17_11_s2:1 vs_44_17:A 1.000000e-03
*END

*D_NET pgm_pp17_12_s0 8.948291e-03
*CONN
*I lt_pp17_12_s0:Z O
*I vs_10_17:A I
*CAP
1 pgm_pp17_12_s0:1 8.948291e-03
*RES
1 lt_pp17_12_s0:Z pgm_pp17_12_s0:1 7.718310e+00
2 pgm_pp17_12_s0:1 vs_10_17:A 1.000000e-03
*END

*D_NET pgm_pp17_12_s1 1.929236e-02
*CONN
*I lt_pp17_12_s1:Z O
*I vs_26_17:A I
*I vs_19_17:A I
*CAP
1 pgm_pp17_12_s1:1 1.929236e-02
*RES
1 lt_pp17_12_s1:Z pgm_pp17_12_s1:1 2.003829e+01
2 pgm_pp17_12_s1:1 vs_26_17:A 1.000000e-03
3 pgm_pp17_12_s1:1 vs_19_17:A 1.000000e-03
*END

*D_NET pgm_pp17_12_s2 1.670516e-02
*CONN
*I lt_pp17_12_s2:Z O
*I vs_37_17:A I
*CAP
1 pgm_pp17_12_s2:1 1.670516e-02
*RES
1 lt_pp17_12_s2:Z pgm_pp17_12_s2:1 1.680862e+01
2 pgm_pp17_12_s2:1 vs_37_17:A 1.000000e-03
*END

*D_NET pgm_pp17_12_s3 2.322456e-02
*CONN
*I lt_pp17_12_s3:Z O
*I vs_59_17:A I
*I vs_48_17:A I
*CAP
1 pgm_pp17_12_s3:1 2.322456e-02
*RES
1 lt_pp17_12_s3:Z pgm_pp17_12_s3:1 2.478264e+01
2 pgm_pp17_12_s3:1 vs_59_17:A 1.000000e-03
3 pgm_pp17_12_s3:1 vs_48_17:A 1.000000e-03
*END

*D_NET pgm_pp17_1_s1 1.998247e-02
*CONN
*I lt_pp17_1_s1:Z O
*I vs_31_17:A I
*CAP
1 pgm_pp17_1_s1:1 1.998247e-02
*RES
1 lt_pp17_1_s1:Z pgm_pp17_1_s1:1 2.267575e+01
2 pgm_pp17_1_s1:1 vs_31_17:A 1.000000e-03
*END

*D_NET pgm_pp17_1_s2 9.684777e-03
*CONN
*I lt_pp17_1_s2:Z O
*I vs_39_17:A I
*CAP
1 pgm_pp17_1_s2:1 9.684777e-03
*RES
1 lt_pp17_1_s2:Z pgm_pp17_1_s2:1 9.129979e+00
2 pgm_pp17_1_s2:1 vs_39_17:A 1.000000e-03
*END

*D_NET pgm_pp17_3_s2 8.522705e-03
*CONN
*I lt_pp17_3_s2:Z O
*I vs_41_17:A I
*CAP
1 pgm_pp17_3_s2:1 8.522705e-03
*RES
1 lt_pp17_3_s2:Z pgm_pp17_3_s2:1 8.531178e+00
2 pgm_pp17_3_s2:1 vs_41_17:A 1.000000e-03
*END

*D_NET pgm_pp17_4_s0 5.380009e-03
*CONN
*I lt_pp17_4_s0:Z O
*I vs_1_17:A I
*CAP
1 pgm_pp17_4_s0:1 5.380009e-03
*RES
1 lt_pp17_4_s0:Z pgm_pp17_4_s0:1 6.105138e+00
2 pgm_pp17_4_s0:1 vs_1_17:A 1.000000e-03
*END

*D_NET pgm_pp17_4_s3 3.285479e-03
*CONN
*I lt_pp17_4_s3:Z O
*I vs_51_17:A I
*CAP
1 pgm_pp17_4_s3:1 3.285479e-03
*RES
1 lt_pp17_4_s3:Z pgm_pp17_4_s3:1 3.728303e+00
2 pgm_pp17_4_s3:1 vs_51_17:A 1.000000e-03
*END

*D_NET pgm_pp17_5_s0 7.889297e-03
*CONN
*I lt_pp17_5_s0:Z O
*I vs_11_17:A I
*CAP
1 pgm_pp17_5_s0:1 7.889297e-03
*RES
1 lt_pp17_5_s0:Z pgm_pp17_5_s0:1 8.952633e+00
2 pgm_pp17_5_s0:1 vs_11_17:A 1.000000e-03
*END

*D_NET pgm_pp17_6_s1 3.229190e-03
*CONN
*I lt_pp17_6_s1:Z O
*I vs_21_17:A I
*CAP
1 pgm_pp17_6_s1:1 3.229190e-03
*RES
1 lt_pp17_6_s1:Z pgm_pp17_6_s1:1 3.664427e+00
2 pgm_pp17_6_s1:1 vs_21_17:A 1.000000e-03
*END

*D_NET pgm_pp17_7_s1 1.164286e-03
*CONN
*I lt_pp17_7_s1:Z O
*I vs_25_17:A I
*CAP
1 pgm_pp17_7_s1:1 1.164286e-03
*RES
1 lt_pp17_7_s1:Z pgm_pp17_7_s1:1 1.321211e+00
2 pgm_pp17_7_s1:1 vs_25_17:A 1.000000e-03
*END

*D_NET pgm_pp17_9_s1 1.439916e-02
*CONN
*I lt_pp17_9_s1:Z O
*I vs_18_17:A I
*CAP
1 pgm_pp17_9_s1:1 1.439916e-02
*RES
1 lt_pp17_9_s1:Z pgm_pp17_9_s1:1 1.499936e+01
2 pgm_pp17_9_s1:1 vs_18_17:A 1.000000e-03
*END

*D_NET pgm_pp17_9_s2 1.852557e-02
*CONN
*I lt_pp17_9_s2:Z O
*I vs_47_17:A I
*I vs_43_17:A I
*I vs_36_17:A I
*CAP
1 pgm_pp17_9_s2:1 1.852557e-02
*RES
1 lt_pp17_9_s2:Z pgm_pp17_9_s2:1 1.953795e+01
2 pgm_pp17_9_s2:1 vs_47_17:A 1.000000e-03
3 pgm_pp17_9_s2:1 vs_43_17:A 1.000000e-03
4 pgm_pp17_9_s2:1 vs_36_17:A 1.000000e-03
*END

*D_NET pgm_pp17_9_s3 7.990024e-03
*CONN
*I lt_pp17_9_s3:Z O
*I vs_63_17:A I
*I vs_58_17:A I
*CAP
1 pgm_pp17_9_s3:1 7.990024e-03
*RES
1 lt_pp17_9_s3:Z pgm_pp17_9_s3:1 9.066936e+00
2 pgm_pp17_9_s3:1 vs_63_17:A 1.000000e-03
3 pgm_pp17_9_s3:1 vs_58_17:A 1.000000e-03
*END

*D_NET pgm_pp18_10_s0 8.205711e-03
*CONN
*I lt_pp18_10_s0:Z O
*I vs_7_18:A I
*CAP
1 pgm_pp18_10_s0:1 8.205711e-03
*RES
1 lt_pp18_10_s0:Z pgm_pp18_10_s0:1 8.171459e+00
2 pgm_pp18_10_s0:1 vs_7_18:A 1.000000e-03
*END

*D_NET pgm_pp18_10_s1 4.096197e-03
*CONN
*I lt_pp18_10_s1:Z O
*I vs_30_18:A I
*CAP
1 pgm_pp18_10_s1:1 4.096197e-03
*RES
1 lt_pp18_10_s1:Z pgm_pp18_10_s1:1 3.364077e+00
2 pgm_pp18_10_s1:1 vs_30_18:A 1.000000e-03
*END

*D_NET pgm_pp18_10_s2 1.866116e-02
*CONN
*I lt_pp18_10_s2:Z O
*I vs_42_18:A I
*I vs_34_18:A I
*CAP
1 pgm_pp18_10_s2:1 1.866116e-02
*RES
1 lt_pp18_10_s2:Z pgm_pp18_10_s2:1 1.793765e+01
2 pgm_pp18_10_s2:1 vs_42_18:A 1.000000e-03
3 pgm_pp18_10_s2:1 vs_34_18:A 1.000000e-03
*END

*D_NET pgm_pp18_10_s3 6.599561e-03
*CONN
*I lt_pp18_10_s3:Z O
*I vs_56_18:A I
*CAP
1 pgm_pp18_10_s3:1 6.599561e-03
*RES
1 lt_pp18_10_s3:Z pgm_pp18_10_s3:1 6.204848e+00
2 pgm_pp18_10_s3:1 vs_56_18:A 1.000000e-03
*END

*D_NET pgm_pp18_11_s0 2.246999e-02
*CONN
*I lt_pp18_11_s0:Z O
*I vs_13_18:A I
*I vs_10_18:A I
*I vs_0_18:A I
*CAP
1 pgm_pp18_11_s0:1 2.246999e-02
*RES
1 lt_pp18_11_s0:Z pgm_pp18_11_s0:1 2.421433e+01
2 pgm_pp18_11_s0:1 vs_13_18:A 1.000000e-03
3 pgm_pp18_11_s0:1 vs_10_18:A 1.000000e-03
4 pgm_pp18_11_s0:1 vs_0_18:A 1.000000e-03
*END

*D_NET pgm_pp18_11_s1 1.539754e-02
*CONN
*I lt_pp18_11_s1:Z O
*I vs_20_18:A I
*CAP
1 pgm_pp18_11_s1:1 1.539754e-02
*RES
1 lt_pp18_11_s1:Z pgm_pp18_11_s1:1 1.287619e+01
2 pgm_pp18_11_s1:1 vs_20_18:A 1.000000e-03
*END

*D_NET pgm_pp18_11_s2 2.486676e-03
*CONN
*I lt_pp18_11_s2:Z O
*I vs_45_18:A I
*CAP
1 pgm_pp18_11_s2:1 2.486676e-03
*RES
1 lt_pp18_11_s2:Z pgm_pp18_11_s2:1 1.093162e+00
2 pgm_pp18_11_s2:1 vs_45_18:A 1.000000e-03
*END

*D_NET pgm_pp18_11_s3 1.648460e-02
*CONN
*I lt_pp18_11_s3:Z O
*I vs_53_18:A I
*I vs_52_18:A I
*CAP
1 pgm_pp18_11_s3:1 1.648460e-02
*RES
1 lt_pp18_11_s3:Z pgm_pp18_11_s3:1 1.613800e+01
2 pgm_pp18_11_s3:1 vs_53_18:A 1.000000e-03
3 pgm_pp18_11_s3:1 vs_52_18:A 1.000000e-03
*END

*D_NET pgm_pp18_12_s2 1.414326e-02
*CONN
*I lt_pp18_12_s2:Z O
*I vs_44_18:A I
*I vs_40_18:A I
*I vs_38_18:A I
*CAP
1 pgm_pp18_12_s2:1 1.414326e-02
*RES
1 lt_pp18_12_s2:Z pgm_pp18_12_s2:1 1.604952e+01
2 pgm_pp18_12_s2:1 vs_44_18:A 1.000000e-03
3 pgm_pp18_12_s2:1 vs_40_18:A 1.000000e-03
4 pgm_pp18_12_s2:1 vs_38_18:A 1.000000e-03
*END

*D_NET pgm_pp18_12_s3 1.924479e-02
*CONN
*I lt_pp18_12_s3:Z O
*I vs_50_18:A I
*CAP
1 pgm_pp18_12_s3:1 1.924479e-02
*RES
1 lt_pp18_12_s3:Z pgm_pp18_12_s3:1 2.183864e+01
2 pgm_pp18_12_s3:1 vs_50_18:A 1.000000e-03
*END

*D_NET pgm_pp18_1_s2 9.788161e-03
*CONN
*I lt_pp18_1_s2:Z O
*I vs_39_18:A I
*CAP
1 pgm_pp18_1_s2:1 9.788161e-03
*RES
1 lt_pp18_1_s2:Z pgm_pp18_1_s2:1 1.011117e+01
2 pgm_pp18_1_s2:1 vs_39_18:A 1.000000e-03
*END

*D_NET pgm_pp18_3_s1 1.049931e-02
*CONN
*I lt_pp18_3_s1:Z O
*I vs_26_18:A I
*CAP
1 pgm_pp18_3_s1:1 1.049931e-02
*RES
1 lt_pp18_3_s1:Z pgm_pp18_3_s1:1 1.191443e+01
2 pgm_pp18_3_s1:1 vs_26_18:A 1.000000e-03
*END

*D_NET pgm_pp18_5_s3 1.349150e-02
*CONN
*I lt_pp18_5_s3:Z O
*I vs_62_18:A I
*CAP
1 pgm_pp18_5_s3:1 1.349150e-02
*RES
1 lt_pp18_5_s3:Z pgm_pp18_5_s3:1 1.530991e+01
2 pgm_pp18_5_s3:1 vs_62_18:A 1.000000e-03
*END

*D_NET pgm_pp18_7_s0 5.329645e-03
*CONN
*I lt_pp18_7_s0:Z O
*I vs_12_18:A I
*CAP
1 pgm_pp18_7_s0:1 5.329645e-03
*RES
1 lt_pp18_7_s0:Z pgm_pp18_7_s0:1 6.047986e+00
2 pgm_pp18_7_s0:1 vs_12_18:A 1.000000e-03
*END

*D_NET pgm_pp18_8_s2 1.212872e-02
*CONN
*I lt_pp18_8_s2:Z O
*I vs_33_18:A I
*CAP
1 pgm_pp18_8_s2:1 1.212872e-02
*RES
1 lt_pp18_8_s2:Z pgm_pp18_8_s2:1 1.376345e+01
2 pgm_pp18_8_s2:1 vs_33_18:A 1.000000e-03
*END

*D_NET pgm_pp18_9_s0 1.478215e-02
*CONN
*I lt_pp18_9_s0:Z O
*I vs_8_18:A I
*I vs_6_18:A I
*I vs_2_18:A I
*CAP
1 pgm_pp18_9_s0:1 1.478215e-02
*RES
1 lt_pp18_9_s0:Z pgm_pp18_9_s0:1 1.549031e+01
2 pgm_pp18_9_s0:1 vs_8_18:A 1.000000e-03
3 pgm_pp18_9_s0:1 vs_6_18:A 1.000000e-03
4 pgm_pp18_9_s0:1 vs_2_18:A 1.000000e-03
*END

*D_NET pgm_pp18_9_s1 1.092000e-02
*CONN
*I lt_pp18_9_s1:Z O
*I vs_31_18:A I
*I vs_28_18:A I
*I vs_25_18:A I
*CAP
1 pgm_pp18_9_s1:1 1.092000e-02
*RES
1 lt_pp18_9_s1:Z pgm_pp18_9_s1:1 1.239182e+01
2 pgm_pp18_9_s1:1 vs_31_18:A 1.000000e-03
3 pgm_pp18_9_s1:1 vs_28_18:A 1.000000e-03
4 pgm_pp18_9_s1:1 vs_25_18:A 1.000000e-03
*END

*D_NET pgm_pp18_9_s2 7.809308e-03
*CONN
*I lt_pp18_9_s2:Z O
*I vs_46_18:A I
*I vs_41_18:A I
*CAP
1 pgm_pp18_9_s2:1 7.809308e-03
*RES
1 lt_pp18_9_s2:Z pgm_pp18_9_s2:1 8.861863e+00
2 pgm_pp18_9_s2:1 vs_46_18:A 1.000000e-03
3 pgm_pp18_9_s2:1 vs_41_18:A 1.000000e-03
*END

*D_NET pgm_pp19_10_s0 1.897816e-02
*CONN
*I lt_pp19_10_s0:Z O
*I vs_15_19:A I
*I vs_11_19:A I
*I vs_3_19:A I
*CAP
1 pgm_pp19_10_s0:1 1.897816e-02
*RES
1 lt_pp19_10_s0:Z pgm_pp19_10_s0:1 2.153608e+01
2 pgm_pp19_10_s0:1 vs_15_19:A 1.000000e-03
3 pgm_pp19_10_s0:1 vs_11_19:A 1.000000e-03
4 pgm_pp19_10_s0:1 vs_3_19:A 1.000000e-03
*END

*D_NET pgm_pp19_10_s1 3.910579e-03
*CONN
*I lt_pp19_10_s1:Z O
*I vs_30_19:A I
*CAP
1 pgm_pp19_10_s1:1 3.910579e-03
*RES
1 lt_pp19_10_s1:Z pgm_pp19_10_s1:1 4.437655e+00
2 pgm_pp19_10_s1:1 vs_30_19:A 1.000000e-03
*END

*D_NET pgm_pp19_10_s2 1.676513e-02
*CONN
*I lt_pp19_10_s2:Z O
*I vs_33_19:A I
*CAP
1 pgm_pp19_10_s2:1 1.676513e-02
*RES
1 lt_pp19_10_s2:Z pgm_pp19_10_s2:1 1.902477e+01
2 pgm_pp19_10_s2:1 vs_33_19:A 1.000000e-03
*END

*D_NET pgm_pp19_10_s3 5.039315e-03
*CONN
*I lt_pp19_10_s3:Z O
*I vs_63_19:A I
*I vs_60_19:A I
*CAP
1 pgm_pp19_10_s3:1 5.039315e-03
*RES
1 lt_pp19_10_s3:Z pgm_pp19_10_s3:1 5.718524e+00
2 pgm_pp19_10_s3:1 vs_63_19:A 1.000000e-03
3 pgm_pp19_10_s3:1 vs_60_19:A 1.000000e-03
*END

*D_NET pgm_pp19_11_s0 2.295926e-02
*CONN
*I lt_pp19_11_s0:Z O
*I vs_14_19:A I
*I vs_13_19:A I
*I vs_9_19:A I
*I vs_7_19:A I
*I vs_0_19:A I
*CAP
1 pgm_pp19_11_s0:1 2.295926e-02
*RES
1 lt_pp19_11_s0:Z pgm_pp19_11_s0:1 2.491352e+01
2 pgm_pp19_11_s0:1 vs_14_19:A 1.000000e-03
3 pgm_pp19_11_s0:1 vs_13_19:A 1.000000e-03
4 pgm_pp19_11_s0:1 vs_9_19:A 1.000000e-03
5 pgm_pp19_11_s0:1 vs_7_19:A 1.000000e-03
6 pgm_pp19_11_s0:1 vs_0_19:A 1.000000e-03
*END

*D_NET pgm_pp19_11_s2 6.055335e-03
*CONN
*I lt_pp19_11_s2:Z O
*I vs_44_19:A I
*I vs_42_19:A I
*CAP
1 pgm_pp19_11_s2:1 6.055335e-03
*RES
1 lt_pp19_11_s2:Z pgm_pp19_11_s2:1 5.875230e+00
2 pgm_pp19_11_s2:1 vs_44_19:A 1.000000e-03
3 pgm_pp19_11_s2:1 vs_42_19:A 1.000000e-03
*END

*D_NET pgm_pp19_11_s3 4.603612e-03
*CONN
*I lt_pp19_11_s3:Z O
*I vs_59_19:A I
*CAP
1 pgm_pp19_11_s3:1 4.603612e-03
*RES
1 lt_pp19_11_s3:Z pgm_pp19_11_s3:1 3.451604e+00
2 pgm_pp19_11_s3:1 vs_59_19:A 1.000000e-03
*END

*D_NET pgm_pp19_12_s0 1.622080e-02
*CONN
*I lt_pp19_12_s0:Z O
*I vs_5_19:A I
*CAP
1 pgm_pp19_12_s0:1 1.622080e-02
*RES
1 lt_pp19_12_s0:Z pgm_pp19_12_s0:1 1.483078e+01
2 pgm_pp19_12_s0:1 vs_5_19:A 1.000000e-03
*END

*D_NET pgm_pp19_12_s1 6.405666e-03
*CONN
*I lt_pp19_12_s1:Z O
*I vs_27_19:A I
*CAP
1 pgm_pp19_12_s1:1 6.405666e-03
*RES
1 lt_pp19_12_s1:Z pgm_pp19_12_s1:1 5.552882e+00
2 pgm_pp19_12_s1:1 vs_27_19:A 1.000000e-03
*END

*D_NET pgm_pp19_12_s2 9.929341e-03
*CONN
*I lt_pp19_12_s2:Z O
*I vs_41_19:A I
*CAP
1 pgm_pp19_12_s2:1 9.929341e-03
*RES
1 lt_pp19_12_s2:Z pgm_pp19_12_s2:1 8.975567e+00
2 pgm_pp19_12_s2:1 vs_41_19:A 1.000000e-03
*END

*D_NET pgm_pp19_12_s3 9.422438e-03
*CONN
*I lt_pp19_12_s3:Z O
*I vs_62_19:A I
*I vs_58_19:A I
*CAP
1 pgm_pp19_12_s3:1 9.422438e-03
*RES
1 lt_pp19_12_s3:Z pgm_pp19_12_s3:1 9.264219e+00
2 pgm_pp19_12_s3:1 vs_62_19:A 1.000000e-03
3 pgm_pp19_12_s3:1 vs_58_19:A 1.000000e-03
*END

*D_NET pgm_pp19_7_s0 3.359543e-03
*CONN
*I lt_pp19_7_s0:Z O
*I vs_6_19:A I
*CAP
1 pgm_pp19_7_s0:1 3.359543e-03
*RES
1 lt_pp19_7_s0:Z pgm_pp19_7_s0:1 3.812349e+00
2 pgm_pp19_7_s0:1 vs_6_19:A 1.000000e-03
*END

*D_NET pgm_pp19_7_s1 1.073683e-02
*CONN
*I lt_pp19_7_s1:Z O
*I vs_26_19:A I
*I vs_21_19:A I
*I vs_20_19:A I
*CAP
1 pgm_pp19_7_s1:1 1.073683e-02
*RES
1 lt_pp19_7_s1:Z pgm_pp19_7_s1:1 9.320848e+00
2 pgm_pp19_7_s1:1 vs_26_19:A 1.000000e-03
3 pgm_pp19_7_s1:1 vs_21_19:A 1.000000e-03
4 pgm_pp19_7_s1:1 vs_20_19:A 1.000000e-03
*END

*D_NET pgm_pp19_9_s0 1.001284e-02
*CONN
*I lt_pp19_9_s0:Z O
*I vs_4_19:A I
*CAP
1 pgm_pp19_9_s0:1 1.001284e-02
*RES
1 lt_pp19_9_s0:Z pgm_pp19_9_s0:1 9.834036e+00
2 pgm_pp19_9_s0:1 vs_4_19:A 1.000000e-03
*END

*D_NET pgm_pp19_9_s1 1.277456e-02
*CONN
*I lt_pp19_9_s1:Z O
*I vs_18_19:A I
*CAP
1 pgm_pp19_9_s1:1 1.277456e-02
*RES
1 lt_pp19_9_s1:Z pgm_pp19_9_s1:1 1.449634e+01
2 pgm_pp19_9_s1:1 vs_18_19:A 1.000000e-03
*END

*D_NET pgm_pp19_9_s2 1.354779e-02
*CONN
*I lt_pp19_9_s2:Z O
*I vs_47_19:A I
*I vs_43_19:A I
*I vs_39_19:A I
*CAP
1 pgm_pp19_9_s2:1 1.354779e-02
*RES
1 lt_pp19_9_s2:Z pgm_pp19_9_s2:1 1.537379e+01
2 pgm_pp19_9_s2:1 vs_47_19:A 1.000000e-03
3 pgm_pp19_9_s2:1 vs_43_19:A 1.000000e-03
4 pgm_pp19_9_s2:1 vs_39_19:A 1.000000e-03
*END

*D_NET pgm_pp19_9_s3 9.338600e-03
*CONN
*I lt_pp19_9_s3:Z O
*I vs_57_19:A I
*I vs_55_19:A I
*I vs_54_19:A I
*CAP
1 pgm_pp19_9_s3:1 9.338600e-03
*RES
1 lt_pp19_9_s3:Z pgm_pp19_9_s3:1 8.881123e+00
2 pgm_pp19_9_s3:1 vs_57_19:A 1.000000e-03
3 pgm_pp19_9_s3:1 vs_55_19:A 1.000000e-03
4 pgm_pp19_9_s3:1 vs_54_19:A 1.000000e-03
*END

*D_NET pgm_pp1_10_s0 1.601560e-02
*CONN
*I lt_pp1_10_s0:Z O
*I vs_7_1:A I
*I vs_2_1:A I
*CAP
1 pgm_pp1_10_s0:1 1.601560e-02
*RES
1 lt_pp1_10_s0:Z pgm_pp1_10_s0:1 1.817422e+01
2 pgm_pp1_10_s0:1 vs_7_1:A 1.000000e-03
3 pgm_pp1_10_s0:1 vs_2_1:A 1.000000e-03
*END

*D_NET pgm_pp1_10_s1 1.934552e-02
*CONN
*I lt_pp1_10_s1:Z O
*I vs_24_1:A I
*I vs_19_1:A I
*I vs_18_1:A I
*CAP
1 pgm_pp1_10_s1:1 1.934552e-02
*RES
1 lt_pp1_10_s1:Z pgm_pp1_10_s1:1 2.195295e+01
2 pgm_pp1_10_s1:1 vs_24_1:A 1.000000e-03
3 pgm_pp1_10_s1:1 vs_19_1:A 1.000000e-03
4 pgm_pp1_10_s1:1 vs_18_1:A 1.000000e-03
*END

*D_NET pgm_pp1_10_s2 1.457695e-02
*CONN
*I lt_pp1_10_s2:Z O
*I vs_39_1:A I
*I vs_35_1:A I
*CAP
1 pgm_pp1_10_s2:1 1.457695e-02
*RES
1 lt_pp1_10_s2:Z pgm_pp1_10_s2:1 1.558923e+01
2 pgm_pp1_10_s2:1 vs_39_1:A 1.000000e-03
3 pgm_pp1_10_s2:1 vs_35_1:A 1.000000e-03
*END

*D_NET pgm_pp1_10_s3 2.020173e-02
*CONN
*I lt_pp1_10_s3:Z O
*I vs_63_1:A I
*I vs_56_1:A I
*I vs_53_1:A I
*I vs_52_1:A I
*CAP
1 pgm_pp1_10_s3:1 2.020173e-02
*RES
1 lt_pp1_10_s3:Z pgm_pp1_10_s3:1 2.006817e+01
2 pgm_pp1_10_s3:1 vs_63_1:A 1.000000e-03
3 pgm_pp1_10_s3:1 vs_56_1:A 1.000000e-03
4 pgm_pp1_10_s3:1 vs_53_1:A 1.000000e-03
5 pgm_pp1_10_s3:1 vs_52_1:A 1.000000e-03
*END

*D_NET pgm_pp1_11_s0 1.614878e-02
*CONN
*I lt_pp1_11_s0:Z O
*I vs_3_1:A I
*CAP
1 pgm_pp1_11_s0:1 1.614878e-02
*RES
1 lt_pp1_11_s0:Z pgm_pp1_11_s0:1 1.732909e+01
2 pgm_pp1_11_s0:1 vs_3_1:A 1.000000e-03
*END

*D_NET pgm_pp1_11_s1 4.642332e-03
*CONN
*I lt_pp1_11_s1:Z O
*I vs_30_1:A I
*I vs_28_1:A I
*CAP
1 pgm_pp1_11_s1:1 4.642332e-03
*RES
1 lt_pp1_11_s1:Z pgm_pp1_11_s1:1 5.268035e+00
2 pgm_pp1_11_s1:1 vs_30_1:A 1.000000e-03
3 pgm_pp1_11_s1:1 vs_28_1:A 1.000000e-03
*END

*D_NET pgm_pp1_12_s3 2.214486e-02
*CONN
*I lt_pp1_12_s3:Z O
*I vs_61_1:A I
*I vs_54_1:A I
*I vs_51_1:A I
*I vs_49_1:A I
*CAP
1 pgm_pp1_12_s3:1 2.214486e-02
*RES
1 lt_pp1_12_s3:Z pgm_pp1_12_s3:1 2.312548e+01
2 pgm_pp1_12_s3:1 vs_61_1:A 1.000000e-03
3 pgm_pp1_12_s3:1 vs_54_1:A 1.000000e-03
4 pgm_pp1_12_s3:1 vs_51_1:A 1.000000e-03
5 pgm_pp1_12_s3:1 vs_49_1:A 1.000000e-03
*END

*D_NET pgm_pp1_3_s1 1.759761e-03
*CONN
*I lt_pp1_3_s1:Z O
*I vs_20_1:A I
*CAP
1 pgm_pp1_3_s1:1 1.759761e-03
*RES
1 lt_pp1_3_s1:Z pgm_pp1_3_s1:1 1.996945e+00
2 pgm_pp1_3_s1:1 vs_20_1:A 1.000000e-03
*END

*D_NET pgm_pp1_4_s0 6.730936e-03
*CONN
*I lt_pp1_4_s0:Z O
*I vs_9_1:A I
*CAP
1 pgm_pp1_4_s0:1 6.730936e-03
*RES
1 lt_pp1_4_s0:Z pgm_pp1_4_s0:1 7.638146e+00
2 pgm_pp1_4_s0:1 vs_9_1:A 1.000000e-03
*END

*D_NET pgm_pp1_4_s1 8.976557e-04
*CONN
*I lt_pp1_4_s1:Z O
*I vs_21_1:A I
*CAP
1 pgm_pp1_4_s1:1 8.976557e-04
*RES
1 lt_pp1_4_s1:Z pgm_pp1_4_s1:1 1.018644e+00
2 pgm_pp1_4_s1:1 vs_21_1:A 1.000000e-03
*END

*D_NET pgm_pp1_4_s2 9.814961e-03
*CONN
*I lt_pp1_4_s2:Z O
*I vs_42_1:A I
*CAP
1 pgm_pp1_4_s2:1 9.814961e-03
*RES
1 lt_pp1_4_s2:Z pgm_pp1_4_s2:1 1.113784e+01
2 pgm_pp1_4_s2:1 vs_42_1:A 1.000000e-03
*END

*D_NET pgm_pp1_5_s0 8.025575e-03
*CONN
*I lt_pp1_5_s0:Z O
*I vs_11_1:A I
*CAP
1 pgm_pp1_5_s0:1 8.025575e-03
*RES
1 lt_pp1_5_s0:Z pgm_pp1_5_s0:1 9.107279e+00
2 pgm_pp1_5_s0:1 vs_11_1:A 1.000000e-03
*END

*D_NET pgm_pp1_5_s1 9.637208e-03
*CONN
*I lt_pp1_5_s1:Z O
*I vs_17_1:A I
*CAP
1 pgm_pp1_5_s1:1 9.637208e-03
*RES
1 lt_pp1_5_s1:Z pgm_pp1_5_s1:1 1.093613e+01
2 pgm_pp1_5_s1:1 vs_17_1:A 1.000000e-03
*END

*D_NET pgm_pp1_6_s2 1.414254e-02
*CONN
*I lt_pp1_6_s2:Z O
*I vs_32_1:A I
*CAP
1 pgm_pp1_6_s2:1 1.414254e-02
*RES
1 lt_pp1_6_s2:Z pgm_pp1_6_s2:1 1.390061e+01
2 pgm_pp1_6_s2:1 vs_32_1:A 1.000000e-03
*END

*D_NET pgm_pp1_7_s0 1.058523e-02
*CONN
*I lt_pp1_7_s0:Z O
*I vs_15_1:A I
*CAP
1 pgm_pp1_7_s0:1 1.058523e-02
*RES
1 lt_pp1_7_s0:Z pgm_pp1_7_s0:1 1.201193e+01
2 pgm_pp1_7_s0:1 vs_15_1:A 1.000000e-03
*END

*D_NET pgm_pp1_9_s1 7.178283e-03
*CONN
*I lt_pp1_9_s1:Z O
*I vs_22_1:A I
*CAP
1 pgm_pp1_9_s1:1 7.178283e-03
*RES
1 lt_pp1_9_s1:Z pgm_pp1_9_s1:1 8.145787e+00
2 pgm_pp1_9_s1:1 vs_22_1:A 1.000000e-03
*END

*D_NET pgm_pp1_9_s2 2.282356e-02
*CONN
*I lt_pp1_9_s2:Z O
*I vs_47_1:A I
*I vs_41_1:A I
*I vs_33_1:A I
*CAP
1 pgm_pp1_9_s2:1 2.282356e-02
*RES
1 lt_pp1_9_s2:Z pgm_pp1_9_s2:1 2.589977e+01
2 pgm_pp1_9_s2:1 vs_47_1:A 1.000000e-03
3 pgm_pp1_9_s2:1 vs_41_1:A 1.000000e-03
4 pgm_pp1_9_s2:1 vs_33_1:A 1.000000e-03
*END

*D_NET pgm_pp1_9_s3 2.192294e-03
*CONN
*I lt_pp1_9_s3:Z O
*I vs_60_1:A I
*CAP
1 pgm_pp1_9_s3:1 2.192294e-03
*RES
1 lt_pp1_9_s3:Z pgm_pp1_9_s3:1 2.487776e+00
2 pgm_pp1_9_s3:1 vs_60_1:A 1.000000e-03
*END

*D_NET pgm_pp20_0_s1 1.089299e-02
*CONN
*I lt_pp20_0_s1:Z O
*I vs_22_20:A I
*CAP
1 pgm_pp20_0_s1:1 1.089299e-02
*RES
1 lt_pp20_0_s1:Z pgm_pp20_0_s1:1 9.580821e+00
2 pgm_pp20_0_s1:1 vs_22_20:A 1.000000e-03
*END

*D_NET pgm_pp20_10_s1 1.766871e-02
*CONN
*I lt_pp20_10_s1:Z O
*I vs_26_20:A I
*I vs_17_20:A I
*CAP
1 pgm_pp20_10_s1:1 1.766871e-02
*RES
1 lt_pp20_10_s1:Z pgm_pp20_10_s1:1 2.005013e+01
2 pgm_pp20_10_s1:1 vs_26_20:A 1.000000e-03
3 pgm_pp20_10_s1:1 vs_17_20:A 1.000000e-03
*END

*D_NET pgm_pp20_10_s3 9.420941e-03
*CONN
*I lt_pp20_10_s3:Z O
*I vs_56_20:A I
*I vs_54_20:A I
*CAP
1 pgm_pp20_10_s3:1 9.420941e-03
*RES
1 lt_pp20_10_s3:Z pgm_pp20_10_s3:1 1.069071e+01
2 pgm_pp20_10_s3:1 vs_56_20:A 1.000000e-03
3 pgm_pp20_10_s3:1 vs_54_20:A 1.000000e-03
*END

*D_NET pgm_pp20_11_s0 1.032748e-02
*CONN
*I lt_pp20_11_s0:Z O
*I vs_7_20:A I
*CAP
1 pgm_pp20_11_s0:1 1.032748e-02
*RES
1 lt_pp20_11_s0:Z pgm_pp20_11_s0:1 7.930315e+00
2 pgm_pp20_11_s0:1 vs_7_20:A 1.000000e-03
*END

*D_NET pgm_pp20_11_s2 5.959340e-03
*CONN
*I lt_pp20_11_s2:Z O
*I vs_42_20:A I
*CAP
1 pgm_pp20_11_s2:1 5.959340e-03
*RES
1 lt_pp20_11_s2:Z pgm_pp20_11_s2:1 4.708361e+00
2 pgm_pp20_11_s2:1 vs_42_20:A 1.000000e-03
*END

*D_NET pgm_pp20_11_s3 6.822776e-03
*CONN
*I lt_pp20_11_s3:Z O
*I vs_63_20:A I
*I vs_61_20:A I
*I vs_59_20:A I
*CAP
1 pgm_pp20_11_s3:1 6.822776e-03
*RES
1 lt_pp20_11_s3:Z pgm_pp20_11_s3:1 7.742364e+00
2 pgm_pp20_11_s3:1 vs_63_20:A 1.000000e-03
3 pgm_pp20_11_s3:1 vs_61_20:A 1.000000e-03
4 pgm_pp20_11_s3:1 vs_59_20:A 1.000000e-03
*END

*D_NET pgm_pp20_12_s0 2.053647e-02
*CONN
*I lt_pp20_12_s0:Z O
*I vs_13_20:A I
*I vs_3_20:A I
*I vs_2_20:A I
*CAP
1 pgm_pp20_12_s0:1 2.053647e-02
*RES
1 lt_pp20_12_s0:Z pgm_pp20_12_s0:1 2.330441e+01
2 pgm_pp20_12_s0:1 vs_13_20:A 1.000000e-03
3 pgm_pp20_12_s0:1 vs_3_20:A 1.000000e-03
4 pgm_pp20_12_s0:1 vs_2_20:A 1.000000e-03
*END

*D_NET pgm_pp20_12_s1 1.689994e-02
*CONN
*I lt_pp20_12_s1:Z O
*I vs_21_20:A I
*I vs_20_20:A I
*I vs_19_20:A I
*CAP
1 pgm_pp20_12_s1:1 1.689994e-02
*RES
1 lt_pp20_12_s1:Z pgm_pp20_12_s1:1 1.774955e+01
2 pgm_pp20_12_s1:1 vs_21_20:A 1.000000e-03
3 pgm_pp20_12_s1:1 vs_20_20:A 1.000000e-03
4 pgm_pp20_12_s1:1 vs_19_20:A 1.000000e-03
*END

*D_NET pgm_pp20_12_s2 1.437423e-02
*CONN
*I lt_pp20_12_s2:Z O
*I vs_41_20:A I
*I vs_39_20:A I
*CAP
1 pgm_pp20_12_s2:1 1.437423e-02
*RES
1 lt_pp20_12_s2:Z pgm_pp20_12_s2:1 1.244738e+01
2 pgm_pp20_12_s2:1 vs_41_20:A 1.000000e-03
3 pgm_pp20_12_s2:1 vs_39_20:A 1.000000e-03
*END

*D_NET pgm_pp20_12_s3 2.024675e-02
*CONN
*I lt_pp20_12_s3:Z O
*I vs_49_20:A I
*CAP
1 pgm_pp20_12_s3:1 2.024675e-02
*RES
1 lt_pp20_12_s3:Z pgm_pp20_12_s3:1 2.125949e+01
2 pgm_pp20_12_s3:1 vs_49_20:A 1.000000e-03
*END

*D_NET pgm_pp20_1_s0 1.989655e-02
*CONN
*I lt_pp20_1_s0:Z O
*I vs_15_20:A I
*CAP
1 pgm_pp20_1_s0:1 1.989655e-02
*RES
1 lt_pp20_1_s0:Z pgm_pp20_1_s0:1 2.257825e+01
2 pgm_pp20_1_s0:1 vs_15_20:A 1.000000e-03
*END

*D_NET pgm_pp20_3_s0 8.455146e-03
*CONN
*I lt_pp20_3_s0:Z O
*I vs_9_20:A I
*CAP
1 pgm_pp20_3_s0:1 8.455146e-03
*RES
1 lt_pp20_3_s0:Z pgm_pp20_3_s0:1 9.594748e+00
2 pgm_pp20_3_s0:1 vs_9_20:A 1.000000e-03
*END

*D_NET pgm_pp20_3_s2 1.733394e-02
*CONN
*I lt_pp20_3_s2:Z O
*I vs_46_20:A I
*I vs_37_20:A I
*CAP
1 pgm_pp20_3_s2:1 1.733394e-02
*RES
1 lt_pp20_3_s2:Z pgm_pp20_3_s2:1 1.967024e+01
2 pgm_pp20_3_s2:1 vs_46_20:A 1.000000e-03
3 pgm_pp20_3_s2:1 vs_37_20:A 1.000000e-03
*END

*D_NET pgm_pp20_3_s3 1.673846e-03
*CONN
*I lt_pp20_3_s3:Z O
*I vs_51_20:A I
*CAP
1 pgm_pp20_3_s3:1 1.673846e-03
*RES
1 lt_pp20_3_s3:Z pgm_pp20_3_s3:1 1.899451e+00
2 pgm_pp20_3_s3:1 vs_51_20:A 1.000000e-03
*END

*D_NET pgm_pp20_4_s1 1.298490e-02
*CONN
*I lt_pp20_4_s1:Z O
*I vs_30_20:A I
*CAP
1 pgm_pp20_4_s1:1 1.298490e-02
*RES
1 lt_pp20_4_s1:Z pgm_pp20_4_s1:1 1.473503e+01
2 pgm_pp20_4_s1:1 vs_30_20:A 1.000000e-03
*END

*D_NET pgm_pp20_6_s2 8.126165e-03
*CONN
*I lt_pp20_6_s2:Z O
*I vs_44_20:A I
*CAP
1 pgm_pp20_6_s2:1 8.126165e-03
*RES
1 lt_pp20_6_s2:Z pgm_pp20_6_s2:1 8.225170e+00
2 pgm_pp20_6_s2:1 vs_44_20:A 1.000000e-03
*END

*D_NET pgm_pp20_7_s0 2.287096e-03
*CONN
*I lt_pp20_7_s0:Z O
*I vs_10_20:A I
*CAP
1 pgm_pp20_7_s0:1 2.287096e-03
*RES
1 lt_pp20_7_s0:Z pgm_pp20_7_s0:1 2.595356e+00
2 pgm_pp20_7_s0:1 vs_10_20:A 1.000000e-03
*END

*D_NET pgm_pp20_8_s1 4.580118e-03
*CONN
*I lt_pp20_8_s1:Z O
*I vs_24_20:A I
*CAP
1 pgm_pp20_8_s1:1 4.580118e-03
*RES
1 lt_pp20_8_s1:Z pgm_pp20_8_s1:1 5.197436e+00
2 pgm_pp20_8_s1:1 vs_24_20:A 1.000000e-03
*END

*D_NET pgm_pp20_9_s0 2.282404e-02
*CONN
*I lt_pp20_9_s0:Z O
*I vs_14_20:A I
*I vs_12_20:A I
*I vs_1_20:A I
*CAP
1 pgm_pp20_9_s0:1 2.282404e-02
*RES
1 lt_pp20_9_s0:Z pgm_pp20_9_s0:1 2.318790e+01
2 pgm_pp20_9_s0:1 vs_14_20:A 1.000000e-03
3 pgm_pp20_9_s0:1 vs_12_20:A 1.000000e-03
4 pgm_pp20_9_s0:1 vs_1_20:A 1.000000e-03
*END

*D_NET pgm_pp20_9_s1 2.328572e-03
*CONN
*I lt_pp20_9_s1:Z O
*I vs_28_20:A I
*CAP
1 pgm_pp20_9_s1:1 2.328572e-03
*RES
1 lt_pp20_9_s1:Z pgm_pp20_9_s1:1 2.642422e+00
2 pgm_pp20_9_s1:1 vs_28_20:A 1.000000e-03
*END

*D_NET pgm_pp20_9_s3 1.566285e-02
*CONN
*I lt_pp20_9_s3:Z O
*I vs_62_20:A I
*I vs_60_20:A I
*I vs_57_20:A I
*I vs_53_20:A I
*CAP
1 pgm_pp20_9_s3:1 1.566285e-02
*RES
1 lt_pp20_9_s3:Z pgm_pp20_9_s3:1 1.600143e+01
2 pgm_pp20_9_s3:1 vs_62_20:A 1.000000e-03
3 pgm_pp20_9_s3:1 vs_60_20:A 1.000000e-03
4 pgm_pp20_9_s3:1 vs_57_20:A 1.000000e-03
5 pgm_pp20_9_s3:1 vs_53_20:A 1.000000e-03
*END

*D_NET pgm_pp21_0_s0 2.137783e-02
*CONN
*I lt_pp21_0_s0:Z O
*I vs_15_21:A I
*I vs_13_21:A I
*I vs_9_21:A I
*I vs_6_21:A I
*I vs_5_21:A I
*I vs_1_21:A I
*I vs_0_21:A I
*CAP
1 pgm_pp21_0_s0:1 2.137783e-02
*RES
1 lt_pp21_0_s0:Z pgm_pp21_0_s0:1 2.425918e+01
2 pgm_pp21_0_s0:1 vs_15_21:A 1.000000e-03
3 pgm_pp21_0_s0:1 vs_13_21:A 1.000000e-03
4 pgm_pp21_0_s0:1 vs_9_21:A 1.000000e-03
5 pgm_pp21_0_s0:1 vs_6_21:A 1.000000e-03
6 pgm_pp21_0_s0:1 vs_5_21:A 1.000000e-03
7 pgm_pp21_0_s0:1 vs_1_21:A 1.000000e-03
8 pgm_pp21_0_s0:1 vs_0_21:A 1.000000e-03
*END

*D_NET pgm_pp21_0_s1 2.154966e-02
*CONN
*I lt_pp21_0_s1:Z O
*I vs_31_21:A I
*I vs_30_21:A I
*I vs_28_21:A I
*I vs_27_21:A I
*I vs_24_21:A I
*I vs_23_21:A I
*I vs_22_21:A I
*I vs_21_21:A I
*I vs_18_21:A I
*I vs_17_21:A I
*I vs_16_21:A I
*CAP
1 pgm_pp21_0_s1:1 2.154966e-02
*RES
1 lt_pp21_0_s1:Z pgm_pp21_0_s1:1 2.445417e+01
2 pgm_pp21_0_s1:1 vs_31_21:A 1.000000e-03
3 pgm_pp21_0_s1:1 vs_30_21:A 1.000000e-03
4 pgm_pp21_0_s1:1 vs_28_21:A 1.000000e-03
5 pgm_pp21_0_s1:1 vs_27_21:A 1.000000e-03
6 pgm_pp21_0_s1:1 vs_24_21:A 1.000000e-03
7 pgm_pp21_0_s1:1 vs_23_21:A 1.000000e-03
8 pgm_pp21_0_s1:1 vs_22_21:A 1.000000e-03
9 pgm_pp21_0_s1:1 vs_21_21:A 1.000000e-03
10 pgm_pp21_0_s1:1 vs_18_21:A 1.000000e-03
11 pgm_pp21_0_s1:1 vs_17_21:A 1.000000e-03
12 pgm_pp21_0_s1:1 vs_16_21:A 1.000000e-03
*END

*D_NET pgm_pp21_0_s2 2.317018e-02
*CONN
*I lt_pp21_0_s2:Z O
*I vs_47_21:A I
*I vs_39_21:A I
*I vs_38_21:A I
*I vs_36_21:A I
*I vs_34_21:A I
*I vs_33_21:A I
*CAP
1 pgm_pp21_0_s2:1 2.317018e-02
*RES
1 lt_pp21_0_s2:Z pgm_pp21_0_s2:1 2.629311e+01
2 pgm_pp21_0_s2:1 vs_47_21:A 1.000000e-03
3 pgm_pp21_0_s2:1 vs_39_21:A 1.000000e-03
4 pgm_pp21_0_s2:1 vs_38_21:A 1.000000e-03
5 pgm_pp21_0_s2:1 vs_36_21:A 1.000000e-03
6 pgm_pp21_0_s2:1 vs_34_21:A 1.000000e-03
7 pgm_pp21_0_s2:1 vs_33_21:A 1.000000e-03
*END

*D_NET pgm_pp21_0_s3 2.331180e-02
*CONN
*I lt_pp21_0_s3:Z O
*I vs_62_21:A I
*I vs_61_21:A I
*I vs_56_21:A I
*I vs_53_21:A I
*I vs_50_21:A I
*I vs_48_21:A I
*CAP
1 pgm_pp21_0_s3:1 2.331180e-02
*RES
1 lt_pp21_0_s3:Z pgm_pp21_0_s3:1 2.531358e+01
2 pgm_pp21_0_s3:1 vs_62_21:A 1.000000e-03
3 pgm_pp21_0_s3:1 vs_61_21:A 1.000000e-03
4 pgm_pp21_0_s3:1 vs_56_21:A 1.000000e-03
5 pgm_pp21_0_s3:1 vs_53_21:A 1.000000e-03
6 pgm_pp21_0_s3:1 vs_50_21:A 1.000000e-03
7 pgm_pp21_0_s3:1 vs_48_21:A 1.000000e-03
*END

*D_NET pgm_pp2_10_s0 2.639504e-03
*CONN
*I lt_pp2_10_s0:Z O
*I vs_12_2:A I
*CAP
1 pgm_pp2_10_s0:1 2.639504e-03
*RES
1 lt_pp2_10_s0:Z pgm_pp2_10_s0:1 1.999006e+00
2 pgm_pp2_10_s0:1 vs_12_2:A 1.000000e-03
*END

*D_NET pgm_pp2_10_s3 5.528137e-03
*CONN
*I lt_pp2_10_s3:Z O
*I vs_57_2:A I
*CAP
1 pgm_pp2_10_s3:1 5.528137e-03
*RES
1 lt_pp2_10_s3:Z pgm_pp2_10_s3:1 6.273231e+00
2 pgm_pp2_10_s3:1 vs_57_2:A 1.000000e-03
*END

*D_NET pgm_pp2_11_s0 1.454293e-02
*CONN
*I lt_pp2_11_s0:Z O
*I vs_15_2:A I
*I vs_7_2:A I
*CAP
1 pgm_pp2_11_s0:1 1.454293e-02
*RES
1 lt_pp2_11_s0:Z pgm_pp2_11_s0:1 1.449895e+01
2 pgm_pp2_11_s0:1 vs_15_2:A 1.000000e-03
3 pgm_pp2_11_s0:1 vs_7_2:A 1.000000e-03
*END

*D_NET pgm_pp2_11_s1 3.024774e-03
*CONN
*I lt_pp2_11_s1:Z O
*I vs_28_2:A I
*CAP
1 pgm_pp2_11_s1:1 3.024774e-03
*RES
1 lt_pp2_11_s1:Z pgm_pp2_11_s1:1 3.432459e+00
2 pgm_pp2_11_s1:1 vs_28_2:A 1.000000e-03
*END

*D_NET pgm_pp2_11_s2 2.071422e-02
*CONN
*I lt_pp2_11_s2:Z O
*I vs_46_2:A I
*I vs_32_2:A I
*CAP
1 pgm_pp2_11_s2:1 2.071422e-02
*RES
1 lt_pp2_11_s2:Z pgm_pp2_11_s2:1 2.350613e+01
2 pgm_pp2_11_s2:1 vs_46_2:A 1.000000e-03
3 pgm_pp2_11_s2:1 vs_32_2:A 1.000000e-03
*END

*D_NET pgm_pp2_11_s3 1.792444e-02
*CONN
*I lt_pp2_11_s3:Z O
*I vs_58_2:A I
*I vs_51_2:A I
*CAP
1 pgm_pp2_11_s3:1 1.792444e-02
*RES
1 lt_pp2_11_s3:Z pgm_pp2_11_s3:1 1.760380e+01
2 pgm_pp2_11_s3:1 vs_58_2:A 1.000000e-03
3 pgm_pp2_11_s3:1 vs_51_2:A 1.000000e-03
*END

*D_NET pgm_pp2_12_s0 1.093065e-02
*CONN
*I lt_pp2_12_s0:Z O
*I vs_8_2:A I
*CAP
1 pgm_pp2_12_s0:1 1.093065e-02
*RES
1 lt_pp2_12_s0:Z pgm_pp2_12_s0:1 9.723718e+00
2 pgm_pp2_12_s0:1 vs_8_2:A 1.000000e-03
*END

*D_NET pgm_pp2_12_s1 1.669699e-02
*CONN
*I lt_pp2_12_s1:Z O
*I vs_29_2:A I
*I vs_20_2:A I
*CAP
1 pgm_pp2_12_s1:1 1.669699e-02
*RES
1 lt_pp2_12_s1:Z pgm_pp2_12_s1:1 1.894744e+01
2 pgm_pp2_12_s1:1 vs_29_2:A 1.000000e-03
3 pgm_pp2_12_s1:1 vs_20_2:A 1.000000e-03
*END

*D_NET pgm_pp2_12_s2 2.032316e-02
*CONN
*I lt_pp2_12_s2:Z O
*I vs_47_2:A I
*I vs_34_2:A I
*CAP
1 pgm_pp2_12_s2:1 2.032316e-02
*RES
1 lt_pp2_12_s2:Z pgm_pp2_12_s2:1 2.306236e+01
2 pgm_pp2_12_s2:1 vs_47_2:A 1.000000e-03
3 pgm_pp2_12_s2:1 vs_34_2:A 1.000000e-03
*END

*D_NET pgm_pp2_12_s3 1.711365e-02
*CONN
*I lt_pp2_12_s3:Z O
*I vs_59_2:A I
*I vs_53_2:A I
*CAP
1 pgm_pp2_12_s3:1 1.711365e-02
*RES
1 lt_pp2_12_s3:Z pgm_pp2_12_s3:1 1.394720e+01
2 pgm_pp2_12_s3:1 vs_59_2:A 1.000000e-03
3 pgm_pp2_12_s3:1 vs_53_2:A 1.000000e-03
*END

*D_NET pgm_pp2_5_s0 5.560725e-03
*CONN
*I lt_pp2_5_s0:Z O
*I vs_2_2:A I
*CAP
1 pgm_pp2_5_s0:1 5.560725e-03
*RES
1 lt_pp2_5_s0:Z pgm_pp2_5_s0:1 6.310211e+00
2 pgm_pp2_5_s0:1 vs_2_2:A 1.000000e-03
*END

*D_NET pgm_pp2_5_s3 3.092913e-03
*CONN
*I lt_pp2_5_s3:Z O
*I vs_56_2:A I
*CAP
1 pgm_pp2_5_s3:1 3.092913e-03
*RES
1 lt_pp2_5_s3:Z pgm_pp2_5_s3:1 3.509782e+00
2 pgm_pp2_5_s3:1 vs_56_2:A 1.000000e-03
*END

*D_NET pgm_pp2_7_s0 4.938588e-03
*CONN
*I lt_pp2_7_s0:Z O
*I vs_11_2:A I
*CAP
1 pgm_pp2_7_s0:1 4.938588e-03
*RES
1 lt_pp2_7_s0:Z pgm_pp2_7_s0:1 5.604221e+00
2 pgm_pp2_7_s0:1 vs_11_2:A 1.000000e-03
*END

*D_NET pgm_pp2_8_s1 3.632099e-03
*CONN
*I lt_pp2_8_s1:Z O
*I vs_23_2:A I
*CAP
1 pgm_pp2_8_s1:1 3.632099e-03
*RES
1 lt_pp2_8_s1:Z pgm_pp2_8_s1:1 4.121640e+00
2 pgm_pp2_8_s1:1 vs_23_2:A 1.000000e-03
*END

*D_NET pgm_pp2_8_s2 4.651219e-03
*CONN
*I lt_pp2_8_s2:Z O
*I vs_42_2:A I
*I vs_40_2:A I
*CAP
1 pgm_pp2_8_s2:1 4.651219e-03
*RES
1 lt_pp2_8_s2:Z pgm_pp2_8_s2:1 5.278120e+00
2 pgm_pp2_8_s2:1 vs_42_2:A 1.000000e-03
3 pgm_pp2_8_s2:1 vs_40_2:A 1.000000e-03
*END

*D_NET pgm_pp2_8_s3 1.169026e-02
*CONN
*I lt_pp2_8_s3:Z O
*I vs_49_2:A I
*CAP
1 pgm_pp2_8_s3:1 1.169026e-02
*RES
1 lt_pp2_8_s3:Z pgm_pp2_8_s3:1 1.326590e+01
2 pgm_pp2_8_s3:1 vs_49_2:A 1.000000e-03
*END

*D_NET pgm_pp2_9_s0 7.264197e-03
*CONN
*I lt_pp2_9_s0:Z O
*I vs_6_2:A I
*CAP
1 pgm_pp2_9_s0:1 7.264197e-03
*RES
1 lt_pp2_9_s0:Z pgm_pp2_9_s0:1 8.243281e+00
2 pgm_pp2_9_s0:1 vs_6_2:A 1.000000e-03
*END

*D_NET pgm_pp2_9_s1 1.514164e-02
*CONN
*I lt_pp2_9_s1:Z O
*I vs_18_2:A I
*I vs_16_2:A I
*CAP
1 pgm_pp2_9_s1:1 1.514164e-02
*RES
1 lt_pp2_9_s1:Z pgm_pp2_9_s1:1 1.718247e+01
2 pgm_pp2_9_s1:1 vs_18_2:A 1.000000e-03
3 pgm_pp2_9_s1:1 vs_16_2:A 1.000000e-03
*END

*D_NET pgm_pp3_10_s1 1.321894e-02
*CONN
*I lt_pp3_10_s1:Z O
*I vs_19_3:A I
*CAP
1 pgm_pp3_10_s1:1 1.321894e-02
*RES
1 lt_pp3_10_s1:Z pgm_pp3_10_s1:1 1.500062e+01
2 pgm_pp3_10_s1:1 vs_19_3:A 1.000000e-03
*END

*D_NET pgm_pp3_10_s2 8.102868e-03
*CONN
*I lt_pp3_10_s2:Z O
*I vs_39_3:A I
*CAP
1 pgm_pp3_10_s2:1 8.102868e-03
*RES
1 lt_pp3_10_s2:Z pgm_pp3_10_s2:1 3.609252e+00
2 pgm_pp3_10_s2:1 vs_39_3:A 1.000000e-03
*END

*D_NET pgm_pp3_11_s0 2.257028e-02
*CONN
*I lt_pp3_11_s0:Z O
*I vs_10_3:A I
*I vs_7_3:A I
*I vs_0_3:A I
*CAP
1 pgm_pp3_11_s0:1 2.257028e-02
*RES
1 lt_pp3_11_s0:Z pgm_pp3_11_s0:1 2.418415e+01
2 pgm_pp3_11_s0:1 vs_10_3:A 1.000000e-03
3 pgm_pp3_11_s0:1 vs_7_3:A 1.000000e-03
4 pgm_pp3_11_s0:1 vs_0_3:A 1.000000e-03
*END

*D_NET pgm_pp3_11_s2 1.385739e-02
*CONN
*I lt_pp3_11_s2:Z O
*I vs_36_3:A I
*CAP
1 pgm_pp3_11_s2:1 1.385739e-02
*RES
1 lt_pp3_11_s2:Z pgm_pp3_11_s2:1 1.429692e+01
2 pgm_pp3_11_s2:1 vs_36_3:A 1.000000e-03
*END

*D_NET pgm_pp3_11_s3 8.817632e-03
*CONN
*I lt_pp3_11_s3:Z O
*I vs_59_3:A I
*I vs_56_3:A I
*CAP
1 pgm_pp3_11_s3:1 8.817632e-03
*RES
1 lt_pp3_11_s3:Z pgm_pp3_11_s3:1 8.433918e+00
2 pgm_pp3_11_s3:1 vs_59_3:A 1.000000e-03
3 pgm_pp3_11_s3:1 vs_56_3:A 1.000000e-03
*END

*D_NET pgm_pp3_12_s0 2.254246e-02
*CONN
*I lt_pp3_12_s0:Z O
*I vs_15_3:A I
*I vs_13_3:A I
*I vs_3_3:A I
*CAP
1 pgm_pp3_12_s0:1 2.254246e-02
*RES
1 lt_pp3_12_s0:Z pgm_pp3_12_s0:1 2.186051e+01
2 pgm_pp3_12_s0:1 vs_15_3:A 1.000000e-03
3 pgm_pp3_12_s0:1 vs_13_3:A 1.000000e-03
4 pgm_pp3_12_s0:1 vs_3_3:A 1.000000e-03
*END

*D_NET pgm_pp3_12_s1 1.721264e-02
*CONN
*I lt_pp3_12_s1:Z O
*I vs_30_3:A I
*I vs_21_3:A I
*CAP
1 pgm_pp3_12_s1:1 1.721264e-02
*RES
1 lt_pp3_12_s1:Z pgm_pp3_12_s1:1 1.767247e+01
2 pgm_pp3_12_s1:1 vs_30_3:A 1.000000e-03
3 pgm_pp3_12_s1:1 vs_21_3:A 1.000000e-03
*END

*D_NET pgm_pp3_12_s2 2.205169e-02
*CONN
*I lt_pp3_12_s2:Z O
*I vs_45_3:A I
*I vs_44_3:A I
*I vs_41_3:A I
*I vs_34_3:A I
*CAP
1 pgm_pp3_12_s2:1 2.205169e-02
*RES
1 lt_pp3_12_s2:Z pgm_pp3_12_s2:1 2.258782e+01
2 pgm_pp3_12_s2:1 vs_45_3:A 1.000000e-03
3 pgm_pp3_12_s2:1 vs_44_3:A 1.000000e-03
4 pgm_pp3_12_s2:1 vs_41_3:A 1.000000e-03
5 pgm_pp3_12_s2:1 vs_34_3:A 1.000000e-03
*END

*D_NET pgm_pp3_1_s2 1.505627e-02
*CONN
*I lt_pp3_1_s2:Z O
*I vs_43_3:A I
*CAP
1 pgm_pp3_1_s2:1 1.505627e-02
*RES
1 lt_pp3_1_s2:Z pgm_pp3_1_s2:1 1.459320e+01
2 pgm_pp3_1_s2:1 vs_43_3:A 1.000000e-03
*END

*D_NET pgm_pp3_2_s0 1.175768e-02
*CONN
*I lt_pp3_2_s0:Z O
*I vs_9_3:A I
*CAP
1 pgm_pp3_2_s0:1 1.175768e-02
*RES
1 lt_pp3_2_s0:Z pgm_pp3_2_s0:1 1.119432e+01
2 pgm_pp3_2_s0:1 vs_9_3:A 1.000000e-03
*END

*D_NET pgm_pp3_4_s0 1.203586e-02
*CONN
*I lt_pp3_4_s0:Z O
*I vs_12_3:A I
*CAP
1 pgm_pp3_4_s0:1 1.203586e-02
*RES
1 lt_pp3_4_s0:Z pgm_pp3_4_s0:1 1.237386e+01
2 pgm_pp3_4_s0:1 vs_12_3:A 1.000000e-03
*END

*D_NET pgm_pp3_4_s1 6.538370e-03
*CONN
*I lt_pp3_4_s1:Z O
*I vs_16_3:A I
*CAP
1 pgm_pp3_4_s1:1 6.538370e-03
*RES
1 lt_pp3_4_s1:Z pgm_pp3_4_s1:1 7.419625e+00
2 pgm_pp3_4_s1:1 vs_16_3:A 1.000000e-03
*END

*D_NET pgm_pp3_4_s2 5.279282e-03
*CONN
*I lt_pp3_4_s2:Z O
*I vs_40_3:A I
*CAP
1 pgm_pp3_4_s2:1 5.279282e-03
*RES
1 lt_pp3_4_s2:Z pgm_pp3_4_s2:1 5.990835e+00
2 pgm_pp3_4_s2:1 vs_40_3:A 1.000000e-03
*END

*D_NET pgm_pp3_5_s1 9.274821e-03
*CONN
*I lt_pp3_5_s1:Z O
*I vs_28_3:A I
*CAP
1 pgm_pp3_5_s1:1 9.274821e-03
*RES
1 lt_pp3_5_s1:Z pgm_pp3_5_s1:1 9.472305e+00
2 pgm_pp3_5_s1:1 vs_28_3:A 1.000000e-03
*END

*D_NET pgm_pp3_5_s2 4.574193e-03
*CONN
*I lt_pp3_5_s2:Z O
*I vs_35_3:A I
*CAP
1 pgm_pp3_5_s2:1 4.574193e-03
*RES
1 lt_pp3_5_s2:Z pgm_pp3_5_s2:1 5.190712e+00
2 pgm_pp3_5_s2:1 vs_35_3:A 1.000000e-03
*END

*D_NET pgm_pp3_5_s3 1.481280e-03
*CONN
*I lt_pp3_5_s3:Z O
*I vs_55_3:A I
*CAP
1 pgm_pp3_5_s3:1 1.481280e-03
*RES
1 lt_pp3_5_s3:Z pgm_pp3_5_s3:1 1.680930e+00
2 pgm_pp3_5_s3:1 vs_55_3:A 1.000000e-03
*END

*D_NET pgm_pp3_6_s0 1.028247e-02
*CONN
*I lt_pp3_6_s0:Z O
*I vs_1_3:A I
*CAP
1 pgm_pp3_6_s0:1 1.028247e-02
*RES
1 lt_pp3_6_s0:Z pgm_pp3_6_s0:1 1.052812e+01
2 pgm_pp3_6_s0:1 vs_1_3:A 1.000000e-03
*END

*D_NET pgm_pp3_6_s3 3.501746e-03
*CONN
*I lt_pp3_6_s3:Z O
*I vs_53_3:A I
*CAP
1 pgm_pp3_6_s3:1 3.501746e-03
*RES
1 lt_pp3_6_s3:Z pgm_pp3_6_s3:1 3.973719e+00
2 pgm_pp3_6_s3:1 vs_53_3:A 1.000000e-03
*END

*D_NET pgm_pp3_7_s3 9.687571e-03
*CONN
*I lt_pp3_7_s3:Z O
*I vs_50_3:A I
*CAP
1 pgm_pp3_7_s3:1 9.687571e-03
*RES
1 lt_pp3_7_s3:Z pgm_pp3_7_s3:1 1.099328e+01
2 pgm_pp3_7_s3:1 vs_50_3:A 1.000000e-03
*END

*D_NET pgm_pp3_9_s0 1.011952e-02
*CONN
*I lt_pp3_9_s0:Z O
*I vs_5_3:A I
*CAP
1 pgm_pp3_9_s0:1 1.011952e-02
*RES
1 lt_pp3_9_s0:Z pgm_pp3_9_s0:1 1.034322e+01
2 pgm_pp3_9_s0:1 vs_5_3:A 1.000000e-03
*END

*D_NET pgm_pp3_9_s1 1.057930e-02
*CONN
*I lt_pp3_9_s1:Z O
*I vs_24_3:A I
*I vs_20_3:A I
*CAP
1 pgm_pp3_9_s1:1 1.057930e-02
*RES
1 lt_pp3_9_s1:Z pgm_pp3_9_s1:1 1.200520e+01
2 pgm_pp3_9_s1:1 vs_24_3:A 1.000000e-03
3 pgm_pp3_9_s1:1 vs_20_3:A 1.000000e-03
*END

*D_NET pgm_pp3_9_s2 7.575129e-03
*CONN
*I lt_pp3_9_s2:Z O
*I vs_38_3:A I
*CAP
1 pgm_pp3_9_s2:1 7.575129e-03
*RES
1 lt_pp3_9_s2:Z pgm_pp3_9_s2:1 7.599864e+00
2 pgm_pp3_9_s2:1 vs_38_3:A 1.000000e-03
*END

*D_NET pgm_pp3_9_s3 5.868831e-03
*CONN
*I lt_pp3_9_s3:Z O
*I vs_63_3:A I
*CAP
1 pgm_pp3_9_s3:1 5.868831e-03
*RES
1 lt_pp3_9_s3:Z pgm_pp3_9_s3:1 6.659845e+00
2 pgm_pp3_9_s3:1 vs_63_3:A 1.000000e-03
*END

*D_NET pgm_pp4_10_s0 9.797186e-03
*CONN
*I lt_pp4_10_s0:Z O
*I vs_7_4:A I
*CAP
1 pgm_pp4_10_s0:1 9.797186e-03
*RES
1 lt_pp4_10_s0:Z pgm_pp4_10_s0:1 1.111767e+01
2 pgm_pp4_10_s0:1 vs_7_4:A 1.000000e-03
*END

*D_NET pgm_pp4_10_s2 1.025935e-02
*CONN
*I lt_pp4_10_s2:Z O
*I vs_39_4:A I
*CAP
1 pgm_pp4_10_s2:1 1.025935e-02
*RES
1 lt_pp4_10_s2:Z pgm_pp4_10_s2:1 1.164212e+01
2 pgm_pp4_10_s2:1 vs_39_4:A 1.000000e-03
*END

*D_NET pgm_pp4_10_s3 5.174569e-03
*CONN
*I lt_pp4_10_s3:Z O
*I vs_63_4:A I
*CAP
1 pgm_pp4_10_s3:1 5.174569e-03
*RES
1 lt_pp4_10_s3:Z pgm_pp4_10_s3:1 4.587794e+00
2 pgm_pp4_10_s3:1 vs_63_4:A 1.000000e-03
*END

*D_NET pgm_pp4_11_s0 2.038205e-02
*CONN
*I lt_pp4_11_s0:Z O
*I vs_13_4:A I
*I vs_6_4:A I
*I vs_1_4:A I
*CAP
1 pgm_pp4_11_s0:1 2.038205e-02
*RES
1 lt_pp4_11_s0:Z pgm_pp4_11_s0:1 2.206094e+01
2 pgm_pp4_11_s0:1 vs_13_4:A 1.000000e-03
3 pgm_pp4_11_s0:1 vs_6_4:A 1.000000e-03
4 pgm_pp4_11_s0:1 vs_1_4:A 1.000000e-03
*END

*D_NET pgm_pp4_11_s3 1.575772e-02
*CONN
*I lt_pp4_11_s3:Z O
*I vs_54_4:A I
*I vs_52_4:A I
*CAP
1 pgm_pp4_11_s3:1 1.575772e-02
*RES
1 lt_pp4_11_s3:Z pgm_pp4_11_s3:1 1.688532e+01
2 pgm_pp4_11_s3:1 vs_54_4:A 1.000000e-03
3 pgm_pp4_11_s3:1 vs_52_4:A 1.000000e-03
*END

*D_NET pgm_pp4_12_s1 2.149930e-02
*CONN
*I lt_pp4_12_s1:Z O
*I vs_31_4:A I
*I vs_30_4:A I
*I vs_21_4:A I
*I vs_18_4:A I
*CAP
1 pgm_pp4_12_s1:1 2.149930e-02
*RES
1 lt_pp4_12_s1:Z pgm_pp4_12_s1:1 2.439702e+01
2 pgm_pp4_12_s1:1 vs_31_4:A 1.000000e-03
3 pgm_pp4_12_s1:1 vs_30_4:A 1.000000e-03
4 pgm_pp4_12_s1:1 vs_21_4:A 1.000000e-03
5 pgm_pp4_12_s1:1 vs_18_4:A 1.000000e-03
*END

*D_NET pgm_pp4_12_s2 9.432791e-03
*CONN
*I lt_pp4_12_s2:Z O
*I vs_41_4:A I
*CAP
1 pgm_pp4_12_s2:1 9.432791e-03
*RES
1 lt_pp4_12_s2:Z pgm_pp4_12_s2:1 1.070416e+01
2 pgm_pp4_12_s2:1 vs_41_4:A 1.000000e-03
*END

*D_NET pgm_pp4_12_s3 3.982735e-03
*CONN
*I lt_pp4_12_s3:Z O
*I vs_62_4:A I
*I vs_61_4:A I
*CAP
1 pgm_pp4_12_s3:1 3.982735e-03
*RES
1 lt_pp4_12_s3:Z pgm_pp4_12_s3:1 2.947362e+00
2 pgm_pp4_12_s3:1 vs_62_4:A 1.000000e-03
3 pgm_pp4_12_s3:1 vs_61_4:A 1.000000e-03
*END

*D_NET pgm_pp4_3_s2 1.454011e-02
*CONN
*I lt_pp4_3_s2:Z O
*I vs_45_4:A I
*CAP
1 pgm_pp4_3_s2:1 1.454011e-02
*RES
1 lt_pp4_3_s2:Z pgm_pp4_3_s2:1 1.550360e+01
2 pgm_pp4_3_s2:1 vs_45_4:A 1.000000e-03
*END

*D_NET pgm_pp4_4_s2 2.085050e-02
*CONN
*I lt_pp4_4_s2:Z O
*I vs_46_4:A I
*I vs_43_4:A I
*I vs_32_4:A I
*CAP
1 pgm_pp4_4_s2:1 2.085050e-02
*RES
1 lt_pp4_4_s2:Z pgm_pp4_4_s2:1 2.366077e+01
2 pgm_pp4_4_s2:1 vs_46_4:A 1.000000e-03
3 pgm_pp4_4_s2:1 vs_43_4:A 1.000000e-03
4 pgm_pp4_4_s2:1 vs_32_4:A 1.000000e-03
*END

*D_NET pgm_pp4_4_s3 4.307562e-03
*CONN
*I lt_pp4_4_s3:Z O
*I vs_50_4:A I
*CAP
1 pgm_pp4_4_s3:1 4.307562e-03
*RES
1 lt_pp4_4_s3:Z pgm_pp4_4_s3:1 4.888144e+00
2 pgm_pp4_4_s3:1 vs_50_4:A 1.000000e-03
*END

*D_NET pgm_pp4_5_s0 9.204674e-03
*CONN
*I lt_pp4_5_s0:Z O
*I vs_11_4:A I
*CAP
1 pgm_pp4_5_s0:1 9.204674e-03
*RES
1 lt_pp4_5_s0:Z pgm_pp4_5_s0:1 1.044530e+01
2 pgm_pp4_5_s0:1 vs_11_4:A 1.000000e-03
*END

*D_NET pgm_pp4_6_s1 4.846748e-03
*CONN
*I lt_pp4_6_s1:Z O
*I vs_20_4:A I
*CAP
1 pgm_pp4_6_s1:1 4.846748e-03
*RES
1 lt_pp4_6_s1:Z pgm_pp4_6_s1:1 5.500003e+00
2 pgm_pp4_6_s1:1 vs_20_4:A 1.000000e-03
*END

*D_NET pgm_pp4_6_s2 2.731480e-03
*CONN
*I lt_pp4_6_s2:Z O
*I vs_38_4:A I
*CAP
1 pgm_pp4_6_s2:1 2.731480e-03
*RES
1 lt_pp4_6_s2:Z pgm_pp4_6_s2:1 3.099635e+00
2 pgm_pp4_6_s2:1 vs_38_4:A 1.000000e-03
*END

*D_NET pgm_pp4_7_s0 1.296433e-02
*CONN
*I lt_pp4_7_s0:Z O
*I vs_2_4:A I
*CAP
1 pgm_pp4_7_s0:1 1.296433e-02
*RES
1 lt_pp4_7_s0:Z pgm_pp4_7_s0:1 1.286316e+01
2 pgm_pp4_7_s0:1 vs_2_4:A 1.000000e-03
*END

*D_NET pgm_pp4_7_s2 6.061398e-03
*CONN
*I lt_pp4_7_s2:Z O
*I vs_37_4:A I
*CAP
1 pgm_pp4_7_s2:1 6.061398e-03
*RES
1 lt_pp4_7_s2:Z pgm_pp4_7_s2:1 6.878366e+00
2 pgm_pp4_7_s2:1 vs_37_4:A 1.000000e-03
*END

*D_NET pgm_pp4_7_s3 2.150819e-03
*CONN
*I lt_pp4_7_s3:Z O
*I vs_58_4:A I
*CAP
1 pgm_pp4_7_s3:1 2.150819e-03
*RES
1 lt_pp4_7_s3:Z pgm_pp4_7_s3:1 2.440710e+00
2 pgm_pp4_7_s3:1 vs_58_4:A 1.000000e-03
*END

*D_NET pgm_pp4_9_s0 5.119304e-03
*CONN
*I lt_pp4_9_s0:Z O
*I vs_14_4:A I
*CAP
1 pgm_pp4_9_s0:1 5.119304e-03
*RES
1 lt_pp4_9_s0:Z pgm_pp4_9_s0:1 5.809294e+00
2 pgm_pp4_9_s0:1 vs_14_4:A 1.000000e-03
*END

*D_NET pgm_pp4_9_s1 1.190653e-02
*CONN
*I lt_pp4_9_s1:Z O
*I vs_29_4:A I
*I vs_28_4:A I
*I vs_23_4:A I
*I vs_22_4:A I
*CAP
1 pgm_pp4_9_s1:1 1.190653e-02
*RES
1 lt_pp4_9_s1:Z pgm_pp4_9_s1:1 1.351132e+01
2 pgm_pp4_9_s1:1 vs_29_4:A 1.000000e-03
3 pgm_pp4_9_s1:1 vs_28_4:A 1.000000e-03
4 pgm_pp4_9_s1:1 vs_23_4:A 1.000000e-03
5 pgm_pp4_9_s1:1 vs_22_4:A 1.000000e-03
*END

*D_NET pgm_pp4_9_s2 1.556233e-02
*CONN
*I lt_pp4_9_s2:Z O
*I vs_33_4:A I
*CAP
1 pgm_pp4_9_s2:1 1.556233e-02
*RES
1 lt_pp4_9_s2:Z pgm_pp4_9_s2:1 1.765985e+01
2 pgm_pp4_9_s2:1 vs_33_4:A 1.000000e-03
*END

*D_NET pgm_pp5_10_s0 5.981409e-03
*CONN
*I lt_pp5_10_s0:Z O
*I vs_13_5:A I
*I vs_11_5:A I
*CAP
1 pgm_pp5_10_s0:1 5.981409e-03
*RES
1 lt_pp5_10_s0:Z pgm_pp5_10_s0:1 6.787595e+00
2 pgm_pp5_10_s0:1 vs_13_5:A 1.000000e-03
3 pgm_pp5_10_s0:1 vs_11_5:A 1.000000e-03
*END

*D_NET pgm_pp5_10_s2 3.069212e-03
*CONN
*I lt_pp5_10_s2:Z O
*I vs_43_5:A I
*CAP
1 pgm_pp5_10_s2:1 3.069212e-03
*RES
1 lt_pp5_10_s2:Z pgm_pp5_10_s2:1 3.482887e+00
2 pgm_pp5_10_s2:1 vs_43_5:A 1.000000e-03
*END

*D_NET pgm_pp5_10_s3 7.002912e-03
*CONN
*I lt_pp5_10_s3:Z O
*I vs_56_5:A I
*CAP
1 pgm_pp5_10_s3:1 7.002912e-03
*RES
1 lt_pp5_10_s3:Z pgm_pp5_10_s3:1 6.806543e+00
2 pgm_pp5_10_s3:1 vs_56_5:A 1.000000e-03
*END

*D_NET pgm_pp5_11_s1 4.183135e-03
*CONN
*I lt_pp5_11_s1:Z O
*I vs_28_5:A I
*I vs_27_5:A I
*CAP
1 pgm_pp5_11_s1:1 4.183135e-03
*RES
1 lt_pp5_11_s1:Z pgm_pp5_11_s1:1 4.746946e+00
2 pgm_pp5_11_s1:1 vs_28_5:A 1.000000e-03
3 pgm_pp5_11_s1:1 vs_27_5:A 1.000000e-03
*END

*D_NET pgm_pp5_11_s3 2.356716e-02
*CONN
*I lt_pp5_11_s3:Z O
*I vs_51_5:A I
*I vs_48_5:A I
*CAP
1 pgm_pp5_11_s3:1 2.356716e-02
*RES
1 lt_pp5_11_s3:Z pgm_pp5_11_s3:1 2.674360e+01
2 pgm_pp5_11_s3:1 vs_51_5:A 1.000000e-03
3 pgm_pp5_11_s3:1 vs_48_5:A 1.000000e-03
*END

*D_NET pgm_pp5_12_s0 2.138968e-02
*CONN
*I lt_pp5_12_s0:Z O
*I vs_0_5:A I
*CAP
1 pgm_pp5_12_s0:1 2.138968e-02
*RES
1 lt_pp5_12_s0:Z pgm_pp5_12_s0:1 2.427263e+01
2 pgm_pp5_12_s0:1 vs_0_5:A 1.000000e-03
*END

*D_NET pgm_pp5_12_s1 2.333033e-02
*CONN
*I lt_pp5_12_s1:Z O
*I vs_30_5:A I
*I vs_21_5:A I
*I vs_17_5:A I
*CAP
1 pgm_pp5_12_s1:1 2.333033e-02
*RES
1 lt_pp5_12_s1:Z pgm_pp5_12_s1:1 2.461471e+01
2 pgm_pp5_12_s1:1 vs_30_5:A 1.000000e-03
3 pgm_pp5_12_s1:1 vs_21_5:A 1.000000e-03
4 pgm_pp5_12_s1:1 vs_17_5:A 1.000000e-03
*END

*D_NET pgm_pp5_12_s2 5.605332e-03
*CONN
*I lt_pp5_12_s2:Z O
*I vs_44_5:A I
*CAP
1 pgm_pp5_12_s2:1 5.605332e-03
*RES
1 lt_pp5_12_s2:Z pgm_pp5_12_s2:1 4.500698e+00
2 pgm_pp5_12_s2:1 vs_44_5:A 1.000000e-03
*END

*D_NET pgm_pp5_12_s3 1.663702e-02
*CONN
*I lt_pp5_12_s3:Z O
*I vs_52_5:A I
*CAP
1 pgm_pp5_12_s3:1 1.663702e-02
*RES
1 lt_pp5_12_s3:Z pgm_pp5_12_s3:1 1.673130e+01
2 pgm_pp5_12_s3:1 vs_52_5:A 1.000000e-03
*END

*D_NET pgm_pp5_1_s0 1.842120e-02
*CONN
*I lt_pp5_1_s0:Z O
*I vs_14_5:A I
*CAP
1 pgm_pp5_1_s0:1 1.842120e-02
*RES
1 lt_pp5_1_s0:Z pgm_pp5_1_s0:1 2.090405e+01
2 pgm_pp5_1_s0:1 vs_14_5:A 1.000000e-03
*END

*D_NET pgm_pp5_3_s2 9.737935e-03
*CONN
*I lt_pp5_3_s2:Z O
*I vs_42_5:A I
*CAP
1 pgm_pp5_3_s2:1 9.737935e-03
*RES
1 lt_pp5_3_s2:Z pgm_pp5_3_s2:1 1.105043e+01
2 pgm_pp5_3_s2:1 vs_42_5:A 1.000000e-03
*END

*D_NET pgm_pp5_3_s3 1.497574e-02
*CONN
*I lt_pp5_3_s3:Z O
*I vs_62_5:A I
*I vs_60_5:A I
*CAP
1 pgm_pp5_3_s3:1 1.497574e-02
*RES
1 lt_pp5_3_s3:Z pgm_pp5_3_s3:1 1.699420e+01
2 pgm_pp5_3_s3:1 vs_62_5:A 1.000000e-03
3 pgm_pp5_3_s3:1 vs_60_5:A 1.000000e-03
*END

*D_NET pgm_pp5_4_s0 7.003492e-03
*CONN
*I lt_pp5_4_s0:Z O
*I vs_9_5:A I
*CAP
1 pgm_pp5_4_s0:1 7.003492e-03
*RES
1 lt_pp5_4_s0:Z pgm_pp5_4_s0:1 7.947437e+00
2 pgm_pp5_4_s0:1 vs_9_5:A 1.000000e-03
*END

*D_NET pgm_pp5_4_s1 1.661404e-02
*CONN
*I lt_pp5_4_s1:Z O
*I vs_31_5:A I
*CAP
1 pgm_pp5_4_s1:1 1.661404e-02
*RES
1 lt_pp5_4_s1:Z pgm_pp5_4_s1:1 1.885331e+01
2 pgm_pp5_4_s1:1 vs_31_5:A 1.000000e-03
*END

*D_NET pgm_pp5_4_s3 6.221376e-03
*CONN
*I lt_pp5_4_s3:Z O
*I vs_57_5:A I
*CAP
1 pgm_pp5_4_s3:1 6.221376e-03
*RES
1 lt_pp5_4_s3:Z pgm_pp5_4_s3:1 7.059906e+00
2 pgm_pp5_4_s3:1 vs_57_5:A 1.000000e-03
*END

*D_NET pgm_pp5_5_s0 3.587660e-03
*CONN
*I lt_pp5_5_s0:Z O
*I vs_8_5:A I
*CAP
1 pgm_pp5_5_s0:1 3.587660e-03
*RES
1 lt_pp5_5_s0:Z pgm_pp5_5_s0:1 4.071212e+00
2 pgm_pp5_5_s0:1 vs_8_5:A 1.000000e-03
*END

*D_NET pgm_pp5_5_s2 7.071631e-03
*CONN
*I lt_pp5_5_s2:Z O
*I vs_33_5:A I
*CAP
1 pgm_pp5_5_s2:1 7.071631e-03
*RES
1 lt_pp5_5_s2:Z pgm_pp5_5_s2:1 8.024760e+00
2 pgm_pp5_5_s2:1 vs_33_5:A 1.000000e-03
*END

*D_NET pgm_pp5_6_s1 1.071558e-02
*CONN
*I lt_pp5_6_s1:Z O
*I vs_16_5:A I
*CAP
1 pgm_pp5_6_s1:1 1.071558e-02
*RES
1 lt_pp5_6_s1:Z pgm_pp5_6_s1:1 1.215985e+01
2 pgm_pp5_6_s1:1 vs_16_5:A 1.000000e-03
*END

*D_NET pgm_pp5_9_s0 8.954048e-03
*CONN
*I lt_pp5_9_s0:Z O
*I vs_5_5:A I
*CAP
1 pgm_pp5_9_s0:1 8.954048e-03
*RES
1 lt_pp5_9_s0:Z pgm_pp5_9_s0:1 9.596575e+00
2 pgm_pp5_9_s0:1 vs_5_5:A 1.000000e-03
*END

*D_NET pgm_pp5_9_s1 1.487205e-03
*CONN
*I lt_pp5_9_s1:Z O
*I vs_26_5:A I
*CAP
1 pgm_pp5_9_s1:1 1.487205e-03
*RES
1 lt_pp5_9_s1:Z pgm_pp5_9_s1:1 1.687654e+00
2 pgm_pp5_9_s1:1 vs_26_5:A 1.000000e-03
*END

*D_NET pgm_pp5_9_s2 5.051165e-03
*CONN
*I lt_pp5_9_s2:Z O
*I vs_41_5:A I
*I vs_40_5:A I
*CAP
1 pgm_pp5_9_s2:1 5.051165e-03
*RES
1 lt_pp5_9_s2:Z pgm_pp5_9_s2:1 5.731971e+00
2 pgm_pp5_9_s2:1 vs_41_5:A 1.000000e-03
3 pgm_pp5_9_s2:1 vs_40_5:A 1.000000e-03
*END

*D_NET pgm_pp5_9_s3 1.359223e-02
*CONN
*I lt_pp5_9_s3:Z O
*I vs_53_5:A I
*I vs_50_5:A I
*CAP
1 pgm_pp5_9_s3:1 1.359223e-02
*RES
1 lt_pp5_9_s3:Z pgm_pp5_9_s3:1 1.542421e+01
2 pgm_pp5_9_s3:1 vs_53_5:A 1.000000e-03
3 pgm_pp5_9_s3:1 vs_50_5:A 1.000000e-03
*END

*D_NET pgm_pp6_0_s0 8.570686e-03
*CONN
*I lt_pp6_0_s0:Z O
*I vs_5_6:A I
*CAP
1 pgm_pp6_0_s0:1 8.570686e-03
*RES
1 lt_pp6_0_s0:Z pgm_pp6_0_s0:1 9.725861e+00
2 pgm_pp6_0_s0:1 vs_5_6:A 1.000000e-03
*END

*D_NET pgm_pp6_10_s0 9.323039e-03
*CONN
*I lt_pp6_10_s0:Z O
*I vs_6_6:A I
*CAP
1 pgm_pp6_10_s0:1 9.323039e-03
*RES
1 lt_pp6_10_s0:Z pgm_pp6_10_s0:1 9.583362e+00
2 pgm_pp6_10_s0:1 vs_6_6:A 1.000000e-03
*END

*D_NET pgm_pp6_10_s1 3.490201e-03
*CONN
*I lt_pp6_10_s1:Z O
*I vs_27_6:A I
*I vs_26_6:A I
*CAP
1 pgm_pp6_10_s1:1 3.490201e-03
*RES
1 lt_pp6_10_s1:Z pgm_pp6_10_s1:1 3.108341e+00
2 pgm_pp6_10_s1:1 vs_27_6:A 1.000000e-03
3 pgm_pp6_10_s1:1 vs_26_6:A 1.000000e-03
*END

*D_NET pgm_pp6_10_s2 1.913667e-02
*CONN
*I lt_pp6_10_s2:Z O
*I vs_44_6:A I
*I vs_41_6:A I
*I vs_33_6:A I
*CAP
1 pgm_pp6_10_s2:1 1.913667e-02
*RES
1 lt_pp6_10_s2:Z pgm_pp6_10_s2:1 2.028776e+01
2 pgm_pp6_10_s2:1 vs_44_6:A 1.000000e-03
3 pgm_pp6_10_s2:1 vs_41_6:A 1.000000e-03
4 pgm_pp6_10_s2:1 vs_33_6:A 1.000000e-03
*END

*D_NET pgm_pp6_10_s3 1.870543e-02
*CONN
*I lt_pp6_10_s3:Z O
*I vs_62_6:A I
*I vs_55_6:A I
*I vs_51_6:A I
*CAP
1 pgm_pp6_10_s3:1 1.870543e-02
*RES
1 lt_pp6_10_s3:Z pgm_pp6_10_s3:1 1.984221e+01
2 pgm_pp6_10_s3:1 vs_62_6:A 1.000000e-03
3 pgm_pp6_10_s3:1 vs_55_6:A 1.000000e-03
4 pgm_pp6_10_s3:1 vs_51_6:A 1.000000e-03
*END

*D_NET pgm_pp6_11_s0 1.120753e-02
*CONN
*I lt_pp6_11_s0:Z O
*I vs_7_6:A I
*CAP
1 pgm_pp6_11_s0:1 1.120753e-02
*RES
1 lt_pp6_11_s0:Z pgm_pp6_11_s0:1 1.085797e+01
2 pgm_pp6_11_s0:1 vs_7_6:A 1.000000e-03
*END

*D_NET pgm_pp6_11_s1 1.352810e-02
*CONN
*I lt_pp6_11_s1:Z O
*I vs_21_6:A I
*CAP
1 pgm_pp6_11_s1:1 1.352810e-02
*RES
1 lt_pp6_11_s1:Z pgm_pp6_11_s1:1 1.377928e+01
2 pgm_pp6_11_s1:1 vs_21_6:A 1.000000e-03
*END

*D_NET pgm_pp6_11_s3 1.089469e-02
*CONN
*I lt_pp6_11_s3:Z O
*I vs_56_6:A I
*CAP
1 pgm_pp6_11_s3:1 1.089469e-02
*RES
1 lt_pp6_11_s3:Z pgm_pp6_11_s3:1 9.927052e+00
2 pgm_pp6_11_s3:1 vs_56_6:A 1.000000e-03
*END

*D_NET pgm_pp6_12_s0 2.111713e-02
*CONN
*I lt_pp6_12_s0:Z O
*I vs_0_6:A I
*CAP
1 pgm_pp6_12_s0:1 2.111713e-02
*RES
1 lt_pp6_12_s0:Z pgm_pp6_12_s0:1 2.396334e+01
2 pgm_pp6_12_s0:1 vs_0_6:A 1.000000e-03
*END

*D_NET pgm_pp6_12_s1 1.941811e-02
*CONN
*I lt_pp6_12_s1:Z O
*I vs_17_6:A I
*CAP
1 pgm_pp6_12_s1:1 1.941811e-02
*RES
1 lt_pp6_12_s1:Z pgm_pp6_12_s1:1 2.060713e+01
2 pgm_pp6_12_s1:1 vs_17_6:A 1.000000e-03
*END

*D_NET pgm_pp6_12_s2 2.751501e-03
*CONN
*I lt_pp6_12_s2:Z O
*I vs_47_6:A I
*CAP
1 pgm_pp6_12_s2:1 2.751501e-03
*RES
1 lt_pp6_12_s2:Z pgm_pp6_12_s2:1 9.742625e-01
2 pgm_pp6_12_s2:1 vs_47_6:A 1.000000e-03
*END

*D_NET pgm_pp6_12_s3 1.990840e-02
*CONN
*I lt_pp6_12_s3:Z O
*I vs_49_6:A I
*CAP
1 pgm_pp6_12_s3:1 1.990840e-02
*RES
1 lt_pp6_12_s3:Z pgm_pp6_12_s3:1 2.259170e+01
2 pgm_pp6_12_s3:1 vs_49_6:A 1.000000e-03
*END

*D_NET pgm_pp6_3_s0 1.535791e-02
*CONN
*I lt_pp6_3_s0:Z O
*I vs_14_6:A I
*CAP
1 pgm_pp6_3_s0:1 1.535791e-02
*RES
1 lt_pp6_3_s0:Z pgm_pp6_3_s0:1 1.742788e+01
2 pgm_pp6_3_s0:1 vs_14_6:A 1.000000e-03
*END

*D_NET pgm_pp6_3_s2 6.064902e-03
*CONN
*I lt_pp6_3_s2:Z O
*I vs_38_6:A I
*I vs_36_6:A I
*CAP
1 pgm_pp6_3_s2:1 6.064902e-03
*RES
1 lt_pp6_3_s2:Z pgm_pp6_3_s2:1 3.856934e+00
2 pgm_pp6_3_s2:1 vs_38_6:A 1.000000e-03
3 pgm_pp6_3_s2:1 vs_36_6:A 1.000000e-03
*END

*D_NET pgm_pp6_5_s0 7.400475e-03
*CONN
*I lt_pp6_5_s0:Z O
*I vs_4_6:A I
*I vs_1_6:A I
*CAP
1 pgm_pp6_5_s0:1 7.400475e-03
*RES
1 lt_pp6_5_s0:Z pgm_pp6_5_s0:1 8.397926e+00
2 pgm_pp6_5_s0:1 vs_4_6:A 1.000000e-03
3 pgm_pp6_5_s0:1 vs_1_6:A 1.000000e-03
*END

*D_NET pgm_pp6_5_s3 6.141387e-03
*CONN
*I lt_pp6_5_s3:Z O
*I vs_53_6:A I
*I vs_50_6:A I
*CAP
1 pgm_pp6_5_s3:1 6.141387e-03
*RES
1 lt_pp6_5_s3:Z pgm_pp6_5_s3:1 6.969136e+00
2 pgm_pp6_5_s3:1 vs_53_6:A 1.000000e-03
3 pgm_pp6_5_s3:1 vs_50_6:A 1.000000e-03
*END

*D_NET pgm_pp6_6_s1 9.948276e-03
*CONN
*I lt_pp6_6_s1:Z O
*I vs_30_6:A I
*CAP
1 pgm_pp6_6_s1:1 9.948276e-03
*RES
1 lt_pp6_6_s1:Z pgm_pp6_6_s1:1 1.128913e+01
2 pgm_pp6_6_s1:1 vs_30_6:A 1.000000e-03
*END

*D_NET pgm_pp6_6_s3 4.307562e-03
*CONN
*I lt_pp6_6_s3:Z O
*I vs_58_6:A I
*I vs_57_6:A I
*CAP
1 pgm_pp6_6_s3:1 4.307562e-03
*RES
1 lt_pp6_6_s3:Z pgm_pp6_6_s3:1 4.888144e+00
2 pgm_pp6_6_s3:1 vs_58_6:A 1.000000e-03
3 pgm_pp6_6_s3:1 vs_57_6:A 1.000000e-03
*END

*D_NET pgm_pp6_7_s2 2.150819e-03
*CONN
*I lt_pp6_7_s2:Z O
*I vs_42_6:A I
*CAP
1 pgm_pp6_7_s2:1 2.150819e-03
*RES
1 lt_pp6_7_s2:Z pgm_pp6_7_s2:1 2.440710e+00
2 pgm_pp6_7_s2:1 vs_42_6:A 1.000000e-03
*END

*D_NET pgm_pp6_8_s0 3.241041e-03
*CONN
*I lt_pp6_8_s0:Z O
*I vs_11_6:A I
*CAP
1 pgm_pp6_8_s0:1 3.241041e-03
*RES
1 lt_pp6_8_s0:Z pgm_pp6_8_s0:1 3.677875e+00
2 pgm_pp6_8_s0:1 vs_11_6:A 1.000000e-03
*END

*D_NET pgm_pp6_8_s1 8.070013e-03
*CONN
*I lt_pp6_8_s1:Z O
*I vs_22_6:A I
*I vs_20_6:A I
*CAP
1 pgm_pp6_8_s1:1 8.070013e-03
*RES
1 lt_pp6_8_s1:Z pgm_pp6_8_s1:1 9.157707e+00
2 pgm_pp6_8_s1:1 vs_22_6:A 1.000000e-03
3 pgm_pp6_8_s1:1 vs_20_6:A 1.000000e-03
*END

*D_NET pgm_pp6_8_s3 9.557219e-03
*CONN
*I lt_pp6_8_s3:Z O
*I vs_60_6:A I
*I vs_54_6:A I
*CAP
1 pgm_pp6_8_s3:1 9.557219e-03
*RES
1 lt_pp6_8_s3:Z pgm_pp6_8_s3:1 1.084536e+01
2 pgm_pp6_8_s3:1 vs_60_6:A 1.000000e-03
3 pgm_pp6_8_s3:1 vs_54_6:A 1.000000e-03
*END

*D_NET pgm_pp6_9_s0 1.839750e-03
*CONN
*I lt_pp6_9_s0:Z O
*I vs_10_6:A I
*CAP
1 pgm_pp6_9_s0:1 1.839750e-03
*RES
1 lt_pp6_9_s0:Z pgm_pp6_9_s0:1 2.087715e+00
2 pgm_pp6_9_s0:1 vs_10_6:A 1.000000e-03
*END

*D_NET pgm_pp6_9_s1 2.192294e-03
*CONN
*I lt_pp6_9_s1:Z O
*I vs_28_6:A I
*CAP
1 pgm_pp6_9_s1:1 2.192294e-03
*RES
1 lt_pp6_9_s1:Z pgm_pp6_9_s1:1 2.487776e+00
2 pgm_pp6_9_s1:1 vs_28_6:A 1.000000e-03
*END

*D_NET pgm_pp6_9_s2 1.289456e-02
*CONN
*I lt_pp6_9_s2:Z O
*I vs_46_6:A I
*I vs_40_6:A I
*I vs_39_6:A I
*CAP
1 pgm_pp6_9_s2:1 1.289456e-02
*RES
1 lt_pp6_9_s2:Z pgm_pp6_9_s2:1 1.320432e+01
2 pgm_pp6_9_s2:1 vs_46_6:A 1.000000e-03
3 pgm_pp6_9_s2:1 vs_40_6:A 1.000000e-03
4 pgm_pp6_9_s2:1 vs_39_6:A 1.000000e-03
*END

*D_NET pgm_pp6_9_s3 1.314876e-02
*CONN
*I lt_pp6_9_s3:Z O
*I vs_52_6:A I
*CAP
1 pgm_pp6_9_s3:1 1.314876e-02
*RES
1 lt_pp6_9_s3:Z pgm_pp6_9_s3:1 1.235255e+01
2 pgm_pp6_9_s3:1 vs_52_6:A 1.000000e-03
*END

*D_NET pgm_pp7_0_s1 1.818525e-02
*CONN
*I lt_pp7_0_s1:Z O
*I vs_27_7:A I
*CAP
1 pgm_pp7_0_s1:1 1.818525e-02
*RES
1 lt_pp7_0_s1:Z pgm_pp7_0_s1:1 1.906412e+01
2 pgm_pp7_0_s1:1 vs_27_7:A 1.000000e-03
*END

*D_NET pgm_pp7_10_s0 5.255581e-03
*CONN
*I lt_pp7_10_s0:Z O
*I vs_15_7:A I
*I vs_14_7:A I
*I vs_13_7:A I
*I vs_12_7:A I
*CAP
1 pgm_pp7_10_s0:1 5.255581e-03
*RES
1 lt_pp7_10_s0:Z pgm_pp7_10_s0:1 5.963940e+00
2 pgm_pp7_10_s0:1 vs_15_7:A 1.000000e-03
3 pgm_pp7_10_s0:1 vs_14_7:A 1.000000e-03
4 pgm_pp7_10_s0:1 vs_13_7:A 1.000000e-03
5 pgm_pp7_10_s0:1 vs_12_7:A 1.000000e-03
*END

*D_NET pgm_pp7_10_s2 5.664415e-03
*CONN
*I lt_pp7_10_s2:Z O
*I vs_41_7:A I
*CAP
1 pgm_pp7_10_s2:1 5.664415e-03
*RES
1 lt_pp7_10_s2:Z pgm_pp7_10_s2:1 6.427876e+00
2 pgm_pp7_10_s2:1 vs_41_7:A 1.000000e-03
*END

*D_NET pgm_pp7_11_s1 1.798870e-02
*CONN
*I lt_pp7_11_s1:Z O
*I vs_25_7:A I
*I vs_20_7:A I
*I vs_19_7:A I
*CAP
1 pgm_pp7_11_s1:1 1.798870e-02
*RES
1 lt_pp7_11_s1:Z pgm_pp7_11_s1:1 1.754526e+01
2 pgm_pp7_11_s1:1 vs_25_7:A 1.000000e-03
3 pgm_pp7_11_s1:1 vs_20_7:A 1.000000e-03
4 pgm_pp7_11_s1:1 vs_19_7:A 1.000000e-03
*END

*D_NET pgm_pp7_11_s2 2.027280e-02
*CONN
*I lt_pp7_11_s2:Z O
*I vs_46_7:A I
*I vs_33_7:A I
*CAP
1 pgm_pp7_11_s2:1 2.027280e-02
*RES
1 lt_pp7_11_s2:Z pgm_pp7_11_s2:1 2.300521e+01
2 pgm_pp7_11_s2:1 vs_46_7:A 1.000000e-03
3 pgm_pp7_11_s2:1 vs_33_7:A 1.000000e-03
*END

*D_NET pgm_pp7_11_s3 1.528150e-02
*CONN
*I lt_pp7_11_s3:Z O
*I vs_52_7:A I
*CAP
1 pgm_pp7_11_s3:1 1.528150e-02
*RES
1 lt_pp7_11_s3:Z pgm_pp7_11_s3:1 1.562501e+01
2 pgm_pp7_11_s3:1 vs_52_7:A 1.000000e-03
*END

*D_NET pgm_pp7_12_s1 1.377607e-02
*CONN
*I lt_pp7_12_s1:Z O
*I vs_23_7:A I
*CAP
1 pgm_pp7_12_s1:1 1.377607e-02
*RES
1 lt_pp7_12_s1:Z pgm_pp7_12_s1:1 1.377271e+01
2 pgm_pp7_12_s1:1 vs_23_7:A 1.000000e-03
*END

*D_NET pgm_pp7_12_s2 8.239490e-03
*CONN
*I lt_pp7_12_s2:Z O
*I vs_42_7:A I
*CAP
1 pgm_pp7_12_s2:1 8.239490e-03
*RES
1 lt_pp7_12_s2:Z pgm_pp7_12_s2:1 7.633873e+00
2 pgm_pp7_12_s2:1 vs_42_7:A 1.000000e-03
*END

*D_NET pgm_pp7_12_s3 2.202827e-02
*CONN
*I lt_pp7_12_s3:Z O
*I vs_61_7:A I
*I vs_54_7:A I
*I vs_50_7:A I
*CAP
1 pgm_pp7_12_s3:1 2.202827e-02
*RES
1 lt_pp7_12_s3:Z pgm_pp7_12_s3:1 2.457695e+01
2 pgm_pp7_12_s3:1 vs_61_7:A 1.000000e-03
3 pgm_pp7_12_s3:1 vs_54_7:A 1.000000e-03
4 pgm_pp7_12_s3:1 vs_50_7:A 1.000000e-03
*END

*D_NET pgm_pp7_3_s3 2.068316e-02
*CONN
*I lt_pp7_3_s3:Z O
*I vs_63_7:A I
*CAP
1 pgm_pp7_3_s3:1 2.068316e-02
*RES
1 lt_pp7_3_s3:Z pgm_pp7_3_s3:1 1.917470e+01
2 pgm_pp7_3_s3:1 vs_63_7:A 1.000000e-03
*END

*D_NET pgm_pp7_4_s1 6.538370e-03
*CONN
*I lt_pp7_4_s1:Z O
*I vs_16_7:A I
*CAP
1 pgm_pp7_4_s1:1 6.538370e-03
*RES
1 lt_pp7_4_s1:Z pgm_pp7_4_s1:1 7.419625e+00
2 pgm_pp7_4_s1:1 vs_16_7:A 1.000000e-03
*END

*D_NET pgm_pp7_4_s2 1.465875e-02
*CONN
*I lt_pp7_4_s2:Z O
*I vs_47_7:A I
*CAP
1 pgm_pp7_4_s2:1 1.465875e-02
*RES
1 lt_pp7_4_s2:Z pgm_pp7_4_s2:1 1.663448e+01
2 pgm_pp7_4_s2:1 vs_47_7:A 1.000000e-03
*END

*D_NET pgm_pp7_5_s0 6.719086e-03
*CONN
*I lt_pp7_5_s0:Z O
*I vs_1_7:A I
*CAP
1 pgm_pp7_5_s0:1 6.719086e-03
*RES
1 lt_pp7_5_s0:Z pgm_pp7_5_s0:1 7.624698e+00
2 pgm_pp7_5_s0:1 vs_1_7:A 1.000000e-03
*END

*D_NET pgm_pp7_5_s3 1.481280e-03
*CONN
*I lt_pp7_5_s3:Z O
*I vs_55_7:A I
*CAP
1 pgm_pp7_5_s3:1 1.481280e-03
*RES
1 lt_pp7_5_s3:Z pgm_pp7_5_s3:1 1.680930e+00
2 pgm_pp7_5_s3:1 vs_55_7:A 1.000000e-03
*END

*D_NET pgm_pp7_6_s2 6.997567e-03
*CONN
*I lt_pp7_6_s2:Z O
*I vs_44_7:A I
*CAP
1 pgm_pp7_6_s2:1 6.997567e-03
*RES
1 lt_pp7_6_s2:Z pgm_pp7_6_s2:1 7.940713e+00
2 pgm_pp7_6_s2:1 vs_44_7:A 1.000000e-03
*END

*D_NET pgm_pp7_7_s0 2.373011e-03
*CONN
*I lt_pp7_7_s0:Z O
*I vs_7_7:A I
*CAP
1 pgm_pp7_7_s0:1 2.373011e-03
*RES
1 lt_pp7_7_s0:Z pgm_pp7_7_s0:1 2.692850e+00
2 pgm_pp7_7_s0:1 vs_7_7:A 1.000000e-03
*END

*D_NET pgm_pp7_7_s1 7.678956e-03
*CONN
*I lt_pp7_7_s1:Z O
*I vs_29_7:A I
*CAP
1 pgm_pp7_7_s1:1 7.678956e-03
*RES
1 lt_pp7_7_s1:Z pgm_pp7_7_s1:1 8.713941e+00
2 pgm_pp7_7_s1:1 vs_29_7:A 1.000000e-03
*END

*D_NET pgm_pp7_7_s2 9.601657e-03
*CONN
*I lt_pp7_7_s2:Z O
*I vs_34_7:A I
*CAP
1 pgm_pp7_7_s2:1 9.601657e-03
*RES
1 lt_pp7_7_s2:Z pgm_pp7_7_s2:1 1.089579e+01
2 pgm_pp7_7_s2:1 vs_34_7:A 1.000000e-03
*END

*D_NET pgm_pp7_9_s0 1.129328e-02
*CONN
*I lt_pp7_9_s0:Z O
*I vs_3_7:A I
*CAP
1 pgm_pp7_9_s0:1 1.129328e-02
*RES
1 lt_pp7_9_s0:Z pgm_pp7_9_s0:1 1.281541e+01
2 pgm_pp7_9_s0:1 vs_3_7:A 1.000000e-03
*END

*D_NET pgm_pp7_9_s1 5.215740e-03
*CONN
*I lt_pp7_9_s1:Z O
*I vs_30_7:A I
*CAP
1 pgm_pp7_9_s1:1 5.215740e-03
*RES
1 lt_pp7_9_s1:Z pgm_pp7_9_s1:1 5.498390e+00
2 pgm_pp7_9_s1:1 vs_30_7:A 1.000000e-03
*END

*D_NET pgm_pp7_9_s2 1.833232e-02
*CONN
*I lt_pp7_9_s2:Z O
*I vs_36_7:A I
*I vs_32_7:A I
*CAP
1 pgm_pp7_9_s2:1 1.833232e-02
*RES
1 lt_pp7_9_s2:Z pgm_pp7_9_s2:1 2.080319e+01
2 pgm_pp7_9_s2:1 vs_36_7:A 1.000000e-03
3 pgm_pp7_9_s2:1 vs_32_7:A 1.000000e-03
*END

*D_NET pgm_pp7_9_s3 2.372302e-02
*CONN
*I lt_pp7_9_s3:Z O
*I vs_62_7:A I
*I vs_59_7:A I
*I vs_56_7:A I
*I vs_48_7:A I
*CAP
1 pgm_pp7_9_s3:1 2.372302e-02
*RES
1 lt_pp7_9_s3:Z pgm_pp7_9_s3:1 2.408377e+01
2 pgm_pp7_9_s3:1 vs_62_7:A 1.000000e-03
3 pgm_pp7_9_s3:1 vs_59_7:A 1.000000e-03
4 pgm_pp7_9_s3:1 vs_56_7:A 1.000000e-03
5 pgm_pp7_9_s3:1 vs_48_7:A 1.000000e-03
*END

*D_NET pgm_pp8_10_s0 3.643949e-03
*CONN
*I lt_pp8_10_s0:Z O
*I vs_14_8:A I
*CAP
1 pgm_pp8_10_s0:1 3.643949e-03
*RES
1 lt_pp8_10_s0:Z pgm_pp8_10_s0:1 4.135088e+00
2 pgm_pp8_10_s0:1 vs_14_8:A 1.000000e-03
*END

*D_NET pgm_pp8_10_s1 1.625281e-02
*CONN
*I lt_pp8_10_s1:Z O
*I vs_25_8:A I
*I vs_18_8:A I
*CAP
1 pgm_pp8_10_s1:1 1.625281e-02
*RES
1 lt_pp8_10_s1:Z pgm_pp8_10_s1:1 1.642676e+01
2 pgm_pp8_10_s1:1 vs_25_8:A 1.000000e-03
3 pgm_pp8_10_s1:1 vs_18_8:A 1.000000e-03
*END

*D_NET pgm_pp8_10_s3 2.055424e-02
*CONN
*I lt_pp8_10_s3:Z O
*I vs_61_8:A I
*I vs_59_8:A I
*I vs_54_8:A I
*I vs_48_8:A I
*CAP
1 pgm_pp8_10_s3:1 2.055424e-02
*RES
1 lt_pp8_10_s3:Z pgm_pp8_10_s3:1 2.332458e+01
2 pgm_pp8_10_s3:1 vs_61_8:A 1.000000e-03
3 pgm_pp8_10_s3:1 vs_59_8:A 1.000000e-03
4 pgm_pp8_10_s3:1 vs_54_8:A 1.000000e-03
5 pgm_pp8_10_s3:1 vs_48_8:A 1.000000e-03
*END

*D_NET pgm_pp8_11_s0 1.431880e-02
*CONN
*I lt_pp8_11_s0:Z O
*I vs_4_8:A I
*CAP
1 pgm_pp8_11_s0:1 1.431880e-02
*RES
1 lt_pp8_11_s0:Z pgm_pp8_11_s0:1 1.554042e+01
2 pgm_pp8_11_s0:1 vs_4_8:A 1.000000e-03
*END

*D_NET pgm_pp8_11_s1 1.021722e-02
*CONN
*I lt_pp8_11_s1:Z O
*I vs_24_8:A I
*CAP
1 pgm_pp8_11_s1:1 1.021722e-02
*RES
1 lt_pp8_11_s1:Z pgm_pp8_11_s1:1 9.677846e+00
2 pgm_pp8_11_s1:1 vs_24_8:A 1.000000e-03
*END

*D_NET pgm_pp8_11_s2 2.050834e-02
*CONN
*I lt_pp8_11_s2:Z O
*I vs_38_8:A I
*I vs_32_8:A I
*CAP
1 pgm_pp8_11_s2:1 2.050834e-02
*RES
1 lt_pp8_11_s2:Z pgm_pp8_11_s2:1 2.184430e+01
2 pgm_pp8_11_s2:1 vs_38_8:A 1.000000e-03
3 pgm_pp8_11_s2:1 vs_32_8:A 1.000000e-03
*END

*D_NET pgm_pp8_11_s3 8.355610e-03
*CONN
*I lt_pp8_11_s3:Z O
*I vs_57_8:A I
*CAP
1 pgm_pp8_11_s3:1 8.355610e-03
*RES
1 lt_pp8_11_s3:Z pgm_pp8_11_s3:1 8.917479e+00
2 pgm_pp8_11_s3:1 vs_57_8:A 1.000000e-03
*END

*D_NET pgm_pp8_12_s0 2.098204e-02
*CONN
*I lt_pp8_12_s0:Z O
*I vs_15_8:A I
*I vs_12_8:A I
*I vs_9_8:A I
*I vs_8_8:A I
*I vs_3_8:A I
*CAP
1 pgm_pp8_12_s0:1 2.098204e-02
*RES
1 lt_pp8_12_s0:Z pgm_pp8_12_s0:1 2.324573e+01
2 pgm_pp8_12_s0:1 vs_15_8:A 1.000000e-03
3 pgm_pp8_12_s0:1 vs_12_8:A 1.000000e-03
4 pgm_pp8_12_s0:1 vs_9_8:A 1.000000e-03
5 pgm_pp8_12_s0:1 vs_8_8:A 1.000000e-03
6 pgm_pp8_12_s0:1 vs_3_8:A 1.000000e-03
*END

*D_NET pgm_pp8_12_s1 7.483595e-03
*CONN
*I lt_pp8_12_s1:Z O
*I vs_26_8:A I
*CAP
1 pgm_pp8_12_s1:1 7.483595e-03
*RES
1 lt_pp8_12_s1:Z pgm_pp8_12_s1:1 6.632117e+00
2 pgm_pp8_12_s1:1 vs_26_8:A 1.000000e-03
*END

*D_NET pgm_pp8_12_s2 1.059708e-02
*CONN
*I lt_pp8_12_s2:Z O
*I vs_47_8:A I
*I vs_41_8:A I
*CAP
1 pgm_pp8_12_s2:1 1.059708e-02
*RES
1 lt_pp8_12_s2:Z pgm_pp8_12_s2:1 1.202537e+01
2 pgm_pp8_12_s2:1 vs_47_8:A 1.000000e-03
3 pgm_pp8_12_s2:1 vs_41_8:A 1.000000e-03
*END

*D_NET pgm_pp8_12_s3 1.789063e-02
*CONN
*I lt_pp8_12_s3:Z O
*I vs_53_8:A I
*I vs_51_8:A I
*CAP
1 pgm_pp8_12_s3:1 1.789063e-02
*RES
1 lt_pp8_12_s3:Z pgm_pp8_12_s3:1 1.829785e+01
2 pgm_pp8_12_s3:1 vs_53_8:A 1.000000e-03
3 pgm_pp8_12_s3:1 vs_51_8:A 1.000000e-03
*END

*D_NET pgm_pp8_3_s0 1.084001e-02
*CONN
*I lt_pp8_3_s0:Z O
*I vs_11_8:A I
*CAP
1 pgm_pp8_3_s0:1 1.084001e-02
*RES
1 lt_pp8_3_s0:Z pgm_pp8_3_s0:1 1.230105e+01
2 pgm_pp8_3_s0:1 vs_11_8:A 1.000000e-03
*END

*D_NET pgm_pp8_3_s1 5.652564e-03
*CONN
*I lt_pp8_3_s1:Z O
*I vs_23_8:A I
*CAP
1 pgm_pp8_3_s1:1 5.652564e-03
*RES
1 lt_pp8_3_s1:Z pgm_pp8_3_s1:1 6.414429e+00
2 pgm_pp8_3_s1:1 vs_23_8:A 1.000000e-03
*END

*D_NET pgm_pp8_3_s3 2.695930e-03
*CONN
*I lt_pp8_3_s3:Z O
*I vs_50_8:A I
*CAP
1 pgm_pp8_3_s3:1 2.695930e-03
*RES
1 lt_pp8_3_s3:Z pgm_pp8_3_s3:1 3.059293e+00
2 pgm_pp8_3_s3:1 vs_50_8:A 1.000000e-03
*END

*D_NET pgm_pp8_5_s2 2.906271e-03
*CONN
*I lt_pp8_5_s2:Z O
*I vs_36_8:A I
*CAP
1 pgm_pp8_5_s2:1 2.906271e-03
*RES
1 lt_pp8_5_s2:Z pgm_pp8_5_s2:1 3.297985e+00
2 pgm_pp8_5_s2:1 vs_36_8:A 1.000000e-03
*END

*D_NET pgm_pp8_5_s3 2.906271e-03
*CONN
*I lt_pp8_5_s3:Z O
*I vs_52_8:A I
*CAP
1 pgm_pp8_5_s3:1 2.906271e-03
*RES
1 lt_pp8_5_s3:Z pgm_pp8_5_s3:1 3.297985e+00
2 pgm_pp8_5_s3:1 vs_52_8:A 1.000000e-03
*END

*D_NET pgm_pp8_7_s1 5.602201e-03
*CONN
*I lt_pp8_7_s1:Z O
*I vs_28_8:A I
*CAP
1 pgm_pp8_7_s1:1 5.602201e-03
*RES
1 lt_pp8_7_s1:Z pgm_pp8_7_s1:1 6.357277e+00
2 pgm_pp8_7_s1:1 vs_28_8:A 1.000000e-03
*END

*D_NET pgm_pp8_7_s2 9.420941e-04
*CONN
*I lt_pp8_7_s2:Z O
*I vs_40_8:A I
*CAP
1 pgm_pp8_7_s2:1 9.420941e-04
*RES
1 lt_pp8_7_s2:Z pgm_pp8_7_s2:1 1.069071e+00
2 pgm_pp8_7_s2:1 vs_40_8:A 1.000000e-03
*END

*D_NET pgm_pp8_7_s3 1.000872e-02
*CONN
*I lt_pp8_7_s3:Z O
*I vs_62_8:A I
*CAP
1 pgm_pp8_7_s3:1 1.000872e-02
*RES
1 lt_pp8_7_s3:Z pgm_pp8_7_s3:1 1.079340e+01
2 pgm_pp8_7_s3:1 vs_62_8:A 1.000000e-03
*END

*D_NET pgm_pp8_8_s2 1.075409e-02
*CONN
*I lt_pp8_8_s2:Z O
*I vs_34_8:A I
*CAP
1 pgm_pp8_8_s2:1 1.075409e-02
*RES
1 lt_pp8_8_s2:Z pgm_pp8_8_s2:1 1.220355e+01
2 pgm_pp8_8_s2:1 vs_34_8:A 1.000000e-03
*END

*D_NET pgm_pp8_9_s0 6.005109e-03
*CONN
*I lt_pp8_9_s0:Z O
*I vs_7_8:A I
*CAP
1 pgm_pp8_9_s0:1 6.005109e-03
*RES
1 lt_pp8_9_s0:Z pgm_pp8_9_s0:1 6.814490e+00
2 pgm_pp8_9_s0:1 vs_7_8:A 1.000000e-03
*END

*D_NET pgm_pp8_9_s1 5.335571e-03
*CONN
*I lt_pp8_9_s1:Z O
*I vs_30_8:A I
*I vs_27_8:A I
*CAP
1 pgm_pp8_9_s1:1 5.335571e-03
*RES
1 lt_pp8_9_s1:Z pgm_pp8_9_s1:1 6.054710e+00
2 pgm_pp8_9_s1:1 vs_30_8:A 1.000000e-03
3 pgm_pp8_9_s1:1 vs_27_8:A 1.000000e-03
*END

*D_NET pgm_pp8_9_s2 1.419955e-02
*CONN
*I lt_pp8_9_s2:Z O
*I vs_33_8:A I
*CAP
1 pgm_pp8_9_s2:1 1.419955e-02
*RES
1 lt_pp8_9_s2:Z pgm_pp8_9_s2:1 1.611339e+01
2 pgm_pp8_9_s2:1 vs_33_8:A 1.000000e-03
*END

*D_NET pgm_pp8_9_s3 1.603324e-02
*CONN
*I lt_pp8_9_s3:Z O
*I vs_58_8:A I
*I vs_49_8:A I
*CAP
1 pgm_pp8_9_s3:1 1.603324e-02
*RES
1 lt_pp8_9_s3:Z pgm_pp8_9_s3:1 1.719797e+01
2 pgm_pp8_9_s3:1 vs_58_8:A 1.000000e-03
3 pgm_pp8_9_s3:1 vs_49_8:A 1.000000e-03
*END

*D_NET pgm_pp9_0_s2 1.705266e-02
*CONN
*I lt_pp9_0_s2:Z O
*I vs_43_9:A I
*CAP
1 pgm_pp9_0_s2:1 1.705266e-02
*RES
1 lt_pp9_0_s2:Z pgm_pp9_0_s2:1 1.749092e+01
2 pgm_pp9_0_s2:1 vs_43_9:A 1.000000e-03
*END

*D_NET pgm_pp9_0_s3 8.834079e-03
*CONN
*I lt_pp9_0_s3:Z O
*I vs_53_9:A I
*CAP
1 pgm_pp9_0_s3:1 8.834079e-03
*RES
1 lt_pp9_0_s3:Z pgm_pp9_0_s3:1 8.020643e+00
2 pgm_pp9_0_s3:1 vs_53_9:A 1.000000e-03
*END

*D_NET pgm_pp9_10_s0 1.937514e-02
*CONN
*I lt_pp9_10_s0:Z O
*I vs_14_9:A I
*I vs_1_9:A I
*CAP
1 pgm_pp9_10_s0:1 1.937514e-02
*RES
1 lt_pp9_10_s0:Z pgm_pp9_10_s0:1 2.198656e+01
2 pgm_pp9_10_s0:1 vs_14_9:A 1.000000e-03
3 pgm_pp9_10_s0:1 vs_1_9:A 1.000000e-03
*END

*D_NET pgm_pp9_10_s2 2.349310e-03
*CONN
*I lt_pp9_10_s2:Z O
*I vs_45_9:A I
*CAP
1 pgm_pp9_10_s2:1 2.349310e-03
*RES
1 lt_pp9_10_s2:Z pgm_pp9_10_s2:1 2.665955e+00
2 pgm_pp9_10_s2:1 vs_45_9:A 1.000000e-03
*END

*D_NET pgm_pp9_10_s3 1.640904e-02
*CONN
*I lt_pp9_10_s3:Z O
*I vs_60_9:A I
*I vs_51_9:A I
*CAP
1 pgm_pp9_10_s3:1 1.640904e-02
*RES
1 lt_pp9_10_s3:Z pgm_pp9_10_s3:1 1.748045e+01
2 pgm_pp9_10_s3:1 vs_60_9:A 1.000000e-03
3 pgm_pp9_10_s3:1 vs_51_9:A 1.000000e-03
*END

*D_NET pgm_pp9_11_s0 1.404996e-02
*CONN
*I lt_pp9_11_s0:Z O
*I vs_4_9:A I
*CAP
1 pgm_pp9_11_s0:1 1.404996e-02
*RES
1 lt_pp9_11_s0:Z pgm_pp9_11_s0:1 1.451544e+01
2 pgm_pp9_11_s0:1 vs_4_9:A 1.000000e-03
*END

*D_NET pgm_pp9_11_s1 4.262032e-03
*CONN
*I lt_pp9_11_s1:Z O
*I vs_27_9:A I
*CAP
1 pgm_pp9_11_s1:1 4.262032e-03
*RES
1 lt_pp9_11_s1:Z pgm_pp9_11_s1:1 2.776026e+00
2 pgm_pp9_11_s1:1 vs_27_9:A 1.000000e-03
*END

*D_NET pgm_pp9_11_s2 1.960326e-02
*CONN
*I lt_pp9_11_s2:Z O
*I vs_33_9:A I
*CAP
1 pgm_pp9_11_s2:1 1.960326e-02
*RES
1 lt_pp9_11_s2:Z pgm_pp9_11_s2:1 2.224543e+01
2 pgm_pp9_11_s2:1 vs_33_9:A 1.000000e-03
*END

*D_NET pgm_pp9_11_s3 1.798246e-02
*CONN
*I lt_pp9_11_s3:Z O
*I vs_57_9:A I
*I vs_52_9:A I
*I vs_50_9:A I
*CAP
1 pgm_pp9_11_s3:1 1.798246e-02
*RES
1 lt_pp9_11_s3:Z pgm_pp9_11_s3:1 1.840207e+01
2 pgm_pp9_11_s3:1 vs_57_9:A 1.000000e-03
3 pgm_pp9_11_s3:1 vs_52_9:A 1.000000e-03
4 pgm_pp9_11_s3:1 vs_50_9:A 1.000000e-03
*END

*D_NET pgm_pp9_12_s0 1.510670e-02
*CONN
*I lt_pp9_12_s0:Z O
*I vs_12_9:A I
*I vs_10_9:A I
*I vs_8_9:A I
*I vs_6_9:A I
*CAP
1 pgm_pp9_12_s0:1 1.510670e-02
*RES
1 lt_pp9_12_s0:Z pgm_pp9_12_s0:1 1.542666e+01
2 pgm_pp9_12_s0:1 vs_12_9:A 1.000000e-03
3 pgm_pp9_12_s0:1 vs_10_9:A 1.000000e-03
4 pgm_pp9_12_s0:1 vs_8_9:A 1.000000e-03
5 pgm_pp9_12_s0:1 vs_6_9:A 1.000000e-03
*END

*D_NET pgm_pp9_12_s1 1.513425e-02
*CONN
*I lt_pp9_12_s1:Z O
*I vs_23_9:A I
*I vs_21_9:A I
*CAP
1 pgm_pp9_12_s1:1 1.513425e-02
*RES
1 lt_pp9_12_s1:Z pgm_pp9_12_s1:1 1.574589e+01
2 pgm_pp9_12_s1:1 vs_23_9:A 1.000000e-03
3 pgm_pp9_12_s1:1 vs_21_9:A 1.000000e-03
*END

*D_NET pgm_pp9_12_s2 1.213229e-02
*CONN
*I lt_pp9_12_s2:Z O
*I vs_41_9:A I
*I vs_39_9:A I
*CAP
1 pgm_pp9_12_s2:1 1.213229e-02
*RES
1 lt_pp9_12_s2:Z pgm_pp9_12_s2:1 1.205136e+01
2 pgm_pp9_12_s2:1 vs_41_9:A 1.000000e-03
3 pgm_pp9_12_s2:1 vs_39_9:A 1.000000e-03
*END

*D_NET pgm_pp9_3_s3 1.930942e-02
*CONN
*I lt_pp9_3_s3:Z O
*I vs_59_9:A I
*I vs_49_9:A I
*CAP
1 pgm_pp9_3_s3:1 1.930942e-02
*RES
1 lt_pp9_3_s3:Z pgm_pp9_3_s3:1 1.790956e+01
2 pgm_pp9_3_s3:1 vs_59_9:A 1.000000e-03
3 pgm_pp9_3_s3:1 vs_49_9:A 1.000000e-03
*END

*D_NET pgm_pp9_5_s0 6.650947e-03
*CONN
*I lt_pp9_5_s0:Z O
*I vs_2_9:A I
*CAP
1 pgm_pp9_5_s0:1 6.650947e-03
*RES
1 lt_pp9_5_s0:Z pgm_pp9_5_s0:1 7.547376e+00
2 pgm_pp9_5_s0:1 vs_2_9:A 1.000000e-03
*END

*D_NET pgm_pp9_6_s0 7.276047e-03
*CONN
*I lt_pp9_6_s0:Z O
*I vs_3_9:A I
*CAP
1 pgm_pp9_6_s0:1 7.276047e-03
*RES
1 lt_pp9_6_s0:Z pgm_pp9_6_s0:1 8.256728e+00
2 pgm_pp9_6_s0:1 vs_3_9:A 1.000000e-03
*END

*D_NET pgm_pp9_6_s2 7.003492e-03
*CONN
*I lt_pp9_6_s2:Z O
*I vs_35_9:A I
*CAP
1 pgm_pp9_6_s2:1 7.003492e-03
*RES
1 lt_pp9_6_s2:Z pgm_pp9_6_s2:1 7.947437e+00
2 pgm_pp9_6_s2:1 vs_35_9:A 1.000000e-03
*END

*D_NET pgm_pp9_7_s3 3.818740e-03
*CONN
*I lt_pp9_7_s3:Z O
*I vs_54_9:A I
*CAP
1 pgm_pp9_7_s3:1 3.818740e-03
*RES
1 lt_pp9_7_s3:Z pgm_pp9_7_s3:1 4.333438e+00
2 pgm_pp9_7_s3:1 vs_54_9:A 1.000000e-03
*END

*D_NET pgm_pp9_9_s1 2.129488e-02
*CONN
*I lt_pp9_9_s1:Z O
*I vs_30_9:A I
*I vs_26_9:A I
*I vs_16_9:A I
*CAP
1 pgm_pp9_9_s1:1 2.129488e-02
*RES
1 lt_pp9_9_s1:Z pgm_pp9_9_s1:1 2.416505e+01
2 pgm_pp9_9_s1:1 vs_30_9:A 1.000000e-03
3 pgm_pp9_9_s1:1 vs_26_9:A 1.000000e-03
4 pgm_pp9_9_s1:1 vs_16_9:A 1.000000e-03
*END

*D_NET pgm_pp9_9_s2 2.079545e-03
*CONN
*I lt_pp9_9_s2:Z O
*I vs_44_9:A I
*CAP
1 pgm_pp9_9_s2:1 2.079545e-03
*RES
1 lt_pp9_9_s2:Z pgm_pp9_9_s2:1 9.754564e-01
2 pgm_pp9_9_s2:1 vs_44_9:A 1.000000e-03
*END

