*SPEF "ieee 1481-1999"
*DESIGN "top"
*DATE "r3"
*VENDOR "r3_prog_spef"
*PROGRAM "r3_prog_spef.py"
*VERSION "1"
*DESIGN_FLOW "NAME_SCOPE LOCAL" "PIN_CAP NONE"
*DIVIDER /
*DELIMITER :
*BUS_DELIMITER []
*T_UNIT 1 NS
*C_UNIT 1 PF
*R_UNIT 1 OHM
*L_UNIT 1 HENRY

*D_NET pgm_pn0_10_s0 2.192294e-02
*CONN
*I lt_pn0_10_s0:Z O
*I vs_15_0:A I
*I vs_14_0:A I
*I vs_13_0:A I
*I vs_12_0:A I
*I vs_11_0:A I
*I vs_10_0:A I
*I vs_9_0:A I
*I vs_8_0:A I
*I vs_7_0:A I
*I vs_6_0:A I
*I vs_5_0:A I
*I vs_4_0:A I
*I vs_3_0:A I
*I vs_2_0:A I
*I vs_1_0:A I
*I vs_0_0:A I
*CAP
1 pgm_pn0_10_s0:1 2.192294e-02
*RES
1 lt_pn0_10_s0:Z pgm_pn0_10_s0:1 2.487776e+01
2 pgm_pn0_10_s0:1 vs_15_0:A 1.000000e-03
3 pgm_pn0_10_s0:1 vs_14_0:A 1.000000e-03
4 pgm_pn0_10_s0:1 vs_13_0:A 1.000000e-03
5 pgm_pn0_10_s0:1 vs_12_0:A 1.000000e-03
6 pgm_pn0_10_s0:1 vs_11_0:A 1.000000e-03
7 pgm_pn0_10_s0:1 vs_10_0:A 1.000000e-03
8 pgm_pn0_10_s0:1 vs_9_0:A 1.000000e-03
9 pgm_pn0_10_s0:1 vs_8_0:A 1.000000e-03
10 pgm_pn0_10_s0:1 vs_7_0:A 1.000000e-03
11 pgm_pn0_10_s0:1 vs_6_0:A 1.000000e-03
12 pgm_pn0_10_s0:1 vs_5_0:A 1.000000e-03
13 pgm_pn0_10_s0:1 vs_4_0:A 1.000000e-03
14 pgm_pn0_10_s0:1 vs_3_0:A 1.000000e-03
15 pgm_pn0_10_s0:1 vs_2_0:A 1.000000e-03
16 pgm_pn0_10_s0:1 vs_1_0:A 1.000000e-03
17 pgm_pn0_10_s0:1 vs_0_0:A 1.000000e-03
*END

*D_NET pgm_pn0_10_s1 2.236140e-02
*CONN
*I lt_pn0_10_s1:Z O
*I vs_31_0:A I
*I vs_30_0:A I
*I vs_29_0:A I
*I vs_28_0:A I
*I vs_27_0:A I
*I vs_26_0:A I
*I vs_25_0:A I
*I vs_24_0:A I
*I vs_23_0:A I
*I vs_22_0:A I
*I vs_21_0:A I
*I vs_20_0:A I
*I vs_19_0:A I
*I vs_18_0:A I
*I vs_17_0:A I
*I vs_16_0:A I
*CAP
1 pgm_pn0_10_s1:1 2.236140e-02
*RES
1 lt_pn0_10_s1:Z pgm_pn0_10_s1:1 2.537532e+01
2 pgm_pn0_10_s1:1 vs_31_0:A 1.000000e-03
3 pgm_pn0_10_s1:1 vs_30_0:A 1.000000e-03
4 pgm_pn0_10_s1:1 vs_29_0:A 1.000000e-03
5 pgm_pn0_10_s1:1 vs_28_0:A 1.000000e-03
6 pgm_pn0_10_s1:1 vs_27_0:A 1.000000e-03
7 pgm_pn0_10_s1:1 vs_26_0:A 1.000000e-03
8 pgm_pn0_10_s1:1 vs_25_0:A 1.000000e-03
9 pgm_pn0_10_s1:1 vs_24_0:A 1.000000e-03
10 pgm_pn0_10_s1:1 vs_23_0:A 1.000000e-03
11 pgm_pn0_10_s1:1 vs_22_0:A 1.000000e-03
12 pgm_pn0_10_s1:1 vs_21_0:A 1.000000e-03
13 pgm_pn0_10_s1:1 vs_20_0:A 1.000000e-03
14 pgm_pn0_10_s1:1 vs_19_0:A 1.000000e-03
15 pgm_pn0_10_s1:1 vs_18_0:A 1.000000e-03
16 pgm_pn0_10_s1:1 vs_17_0:A 1.000000e-03
17 pgm_pn0_10_s1:1 vs_16_0:A 1.000000e-03
*END

*D_NET pgm_pn0_10_s2 2.219550e-02
*CONN
*I lt_pn0_10_s2:Z O
*I vs_47_0:A I
*I vs_46_0:A I
*I vs_45_0:A I
*I vs_44_0:A I
*I vs_43_0:A I
*I vs_42_0:A I
*I vs_41_0:A I
*I vs_40_0:A I
*I vs_39_0:A I
*I vs_38_0:A I
*I vs_37_0:A I
*I vs_36_0:A I
*I vs_35_0:A I
*I vs_34_0:A I
*I vs_33_0:A I
*I vs_32_0:A I
*CAP
1 pgm_pn0_10_s2:1 2.219550e-02
*RES
1 lt_pn0_10_s2:Z pgm_pn0_10_s2:1 2.518706e+01
2 pgm_pn0_10_s2:1 vs_47_0:A 1.000000e-03
3 pgm_pn0_10_s2:1 vs_46_0:A 1.000000e-03
4 pgm_pn0_10_s2:1 vs_45_0:A 1.000000e-03
5 pgm_pn0_10_s2:1 vs_44_0:A 1.000000e-03
6 pgm_pn0_10_s2:1 vs_43_0:A 1.000000e-03
7 pgm_pn0_10_s2:1 vs_42_0:A 1.000000e-03
8 pgm_pn0_10_s2:1 vs_41_0:A 1.000000e-03
9 pgm_pn0_10_s2:1 vs_40_0:A 1.000000e-03
10 pgm_pn0_10_s2:1 vs_39_0:A 1.000000e-03
11 pgm_pn0_10_s2:1 vs_38_0:A 1.000000e-03
12 pgm_pn0_10_s2:1 vs_37_0:A 1.000000e-03
13 pgm_pn0_10_s2:1 vs_36_0:A 1.000000e-03
14 pgm_pn0_10_s2:1 vs_35_0:A 1.000000e-03
15 pgm_pn0_10_s2:1 vs_34_0:A 1.000000e-03
16 pgm_pn0_10_s2:1 vs_33_0:A 1.000000e-03
17 pgm_pn0_10_s2:1 vs_32_0:A 1.000000e-03
*END

*D_NET pgm_pn0_10_s3 2.210959e-02
*CONN
*I lt_pn0_10_s3:Z O
*I vs_63_0:A I
*I vs_62_0:A I
*I vs_61_0:A I
*I vs_60_0:A I
*I vs_59_0:A I
*I vs_58_0:A I
*I vs_57_0:A I
*I vs_56_0:A I
*I vs_55_0:A I
*I vs_54_0:A I
*I vs_53_0:A I
*I vs_52_0:A I
*I vs_51_0:A I
*I vs_50_0:A I
*I vs_49_0:A I
*I vs_48_0:A I
*CAP
1 pgm_pn0_10_s3:1 2.210959e-02
*RES
1 lt_pn0_10_s3:Z pgm_pn0_10_s3:1 2.508956e+01
2 pgm_pn0_10_s3:1 vs_63_0:A 1.000000e-03
3 pgm_pn0_10_s3:1 vs_62_0:A 1.000000e-03
4 pgm_pn0_10_s3:1 vs_61_0:A 1.000000e-03
5 pgm_pn0_10_s3:1 vs_60_0:A 1.000000e-03
6 pgm_pn0_10_s3:1 vs_59_0:A 1.000000e-03
7 pgm_pn0_10_s3:1 vs_58_0:A 1.000000e-03
8 pgm_pn0_10_s3:1 vs_57_0:A 1.000000e-03
9 pgm_pn0_10_s3:1 vs_56_0:A 1.000000e-03
10 pgm_pn0_10_s3:1 vs_55_0:A 1.000000e-03
11 pgm_pn0_10_s3:1 vs_54_0:A 1.000000e-03
12 pgm_pn0_10_s3:1 vs_53_0:A 1.000000e-03
13 pgm_pn0_10_s3:1 vs_52_0:A 1.000000e-03
14 pgm_pn0_10_s3:1 vs_51_0:A 1.000000e-03
15 pgm_pn0_10_s3:1 vs_50_0:A 1.000000e-03
16 pgm_pn0_10_s3:1 vs_49_0:A 1.000000e-03
17 pgm_pn0_10_s3:1 vs_48_0:A 1.000000e-03
*END

*D_NET pgm_pn12_5_s0 2.119119e-02
*CONN
*I lt_pn12_5_s0:Z O
*I vs_15_12:A I
*I vs_14_12:A I
*I vs_13_12:A I
*I vs_12_12:A I
*I vs_11_12:A I
*I vs_10_12:A I
*I vs_9_12:A I
*I vs_8_12:A I
*I vs_7_12:A I
*I vs_6_12:A I
*I vs_5_12:A I
*I vs_4_12:A I
*I vs_3_12:A I
*I vs_2_12:A I
*I vs_1_12:A I
*I vs_0_12:A I
*CAP
1 pgm_pn12_5_s0:1 2.119119e-02
*RES
1 lt_pn12_5_s0:Z pgm_pn12_5_s0:1 2.404738e+01
2 pgm_pn12_5_s0:1 vs_15_12:A 1.000000e-03
3 pgm_pn12_5_s0:1 vs_14_12:A 1.000000e-03
4 pgm_pn12_5_s0:1 vs_13_12:A 1.000000e-03
5 pgm_pn12_5_s0:1 vs_12_12:A 1.000000e-03
6 pgm_pn12_5_s0:1 vs_11_12:A 1.000000e-03
7 pgm_pn12_5_s0:1 vs_10_12:A 1.000000e-03
8 pgm_pn12_5_s0:1 vs_9_12:A 1.000000e-03
9 pgm_pn12_5_s0:1 vs_8_12:A 1.000000e-03
10 pgm_pn12_5_s0:1 vs_7_12:A 1.000000e-03
11 pgm_pn12_5_s0:1 vs_6_12:A 1.000000e-03
12 pgm_pn12_5_s0:1 vs_5_12:A 1.000000e-03
13 pgm_pn12_5_s0:1 vs_4_12:A 1.000000e-03
14 pgm_pn12_5_s0:1 vs_3_12:A 1.000000e-03
15 pgm_pn12_5_s0:1 vs_2_12:A 1.000000e-03
16 pgm_pn12_5_s0:1 vs_1_12:A 1.000000e-03
17 pgm_pn12_5_s0:1 vs_0_12:A 1.000000e-03
*END

*D_NET pgm_pn12_5_s1 2.073199e-02
*CONN
*I lt_pn12_5_s1:Z O
*I vs_31_12:A I
*I vs_30_12:A I
*I vs_29_12:A I
*I vs_28_12:A I
*I vs_27_12:A I
*I vs_26_12:A I
*I vs_25_12:A I
*I vs_24_12:A I
*I vs_23_12:A I
*I vs_22_12:A I
*I vs_21_12:A I
*I vs_20_12:A I
*I vs_19_12:A I
*I vs_18_12:A I
*I vs_17_12:A I
*I vs_16_12:A I
*CAP
1 pgm_pn12_5_s1:1 2.073199e-02
*RES
1 lt_pn12_5_s1:Z pgm_pn12_5_s1:1 2.352630e+01
2 pgm_pn12_5_s1:1 vs_31_12:A 1.000000e-03
3 pgm_pn12_5_s1:1 vs_30_12:A 1.000000e-03
4 pgm_pn12_5_s1:1 vs_29_12:A 1.000000e-03
5 pgm_pn12_5_s1:1 vs_28_12:A 1.000000e-03
6 pgm_pn12_5_s1:1 vs_27_12:A 1.000000e-03
7 pgm_pn12_5_s1:1 vs_26_12:A 1.000000e-03
8 pgm_pn12_5_s1:1 vs_25_12:A 1.000000e-03
9 pgm_pn12_5_s1:1 vs_24_12:A 1.000000e-03
10 pgm_pn12_5_s1:1 vs_23_12:A 1.000000e-03
11 pgm_pn12_5_s1:1 vs_22_12:A 1.000000e-03
12 pgm_pn12_5_s1:1 vs_21_12:A 1.000000e-03
13 pgm_pn12_5_s1:1 vs_20_12:A 1.000000e-03
14 pgm_pn12_5_s1:1 vs_19_12:A 1.000000e-03
15 pgm_pn12_5_s1:1 vs_18_12:A 1.000000e-03
16 pgm_pn12_5_s1:1 vs_17_12:A 1.000000e-03
17 pgm_pn12_5_s1:1 vs_16_12:A 1.000000e-03
*END

*D_NET pgm_pn12_5_s2 2.119119e-02
*CONN
*I lt_pn12_5_s2:Z O
*I vs_47_12:A I
*I vs_46_12:A I
*I vs_45_12:A I
*I vs_44_12:A I
*I vs_43_12:A I
*I vs_42_12:A I
*I vs_41_12:A I
*I vs_40_12:A I
*I vs_39_12:A I
*I vs_38_12:A I
*I vs_37_12:A I
*I vs_36_12:A I
*I vs_35_12:A I
*I vs_34_12:A I
*I vs_33_12:A I
*I vs_32_12:A I
*CAP
1 pgm_pn12_5_s2:1 2.119119e-02
*RES
1 lt_pn12_5_s2:Z pgm_pn12_5_s2:1 2.404738e+01
2 pgm_pn12_5_s2:1 vs_47_12:A 1.000000e-03
3 pgm_pn12_5_s2:1 vs_46_12:A 1.000000e-03
4 pgm_pn12_5_s2:1 vs_45_12:A 1.000000e-03
5 pgm_pn12_5_s2:1 vs_44_12:A 1.000000e-03
6 pgm_pn12_5_s2:1 vs_43_12:A 1.000000e-03
7 pgm_pn12_5_s2:1 vs_42_12:A 1.000000e-03
8 pgm_pn12_5_s2:1 vs_41_12:A 1.000000e-03
9 pgm_pn12_5_s2:1 vs_40_12:A 1.000000e-03
10 pgm_pn12_5_s2:1 vs_39_12:A 1.000000e-03
11 pgm_pn12_5_s2:1 vs_38_12:A 1.000000e-03
12 pgm_pn12_5_s2:1 vs_37_12:A 1.000000e-03
13 pgm_pn12_5_s2:1 vs_36_12:A 1.000000e-03
14 pgm_pn12_5_s2:1 vs_35_12:A 1.000000e-03
15 pgm_pn12_5_s2:1 vs_34_12:A 1.000000e-03
16 pgm_pn12_5_s2:1 vs_33_12:A 1.000000e-03
17 pgm_pn12_5_s2:1 vs_32_12:A 1.000000e-03
*END

*D_NET pgm_pn12_5_s3 2.156447e-02
*CONN
*I lt_pn12_5_s3:Z O
*I vs_63_12:A I
*I vs_62_12:A I
*I vs_61_12:A I
*I vs_60_12:A I
*I vs_59_12:A I
*I vs_58_12:A I
*I vs_57_12:A I
*I vs_56_12:A I
*I vs_55_12:A I
*I vs_54_12:A I
*I vs_53_12:A I
*I vs_52_12:A I
*I vs_51_12:A I
*I vs_50_12:A I
*I vs_49_12:A I
*I vs_48_12:A I
*CAP
1 pgm_pn12_5_s3:1 2.156447e-02
*RES
1 lt_pn12_5_s3:Z pgm_pn12_5_s3:1 2.447098e+01
2 pgm_pn12_5_s3:1 vs_63_12:A 1.000000e-03
3 pgm_pn12_5_s3:1 vs_62_12:A 1.000000e-03
4 pgm_pn12_5_s3:1 vs_61_12:A 1.000000e-03
5 pgm_pn12_5_s3:1 vs_60_12:A 1.000000e-03
6 pgm_pn12_5_s3:1 vs_59_12:A 1.000000e-03
7 pgm_pn12_5_s3:1 vs_58_12:A 1.000000e-03
8 pgm_pn12_5_s3:1 vs_57_12:A 1.000000e-03
9 pgm_pn12_5_s3:1 vs_56_12:A 1.000000e-03
10 pgm_pn12_5_s3:1 vs_55_12:A 1.000000e-03
11 pgm_pn12_5_s3:1 vs_54_12:A 1.000000e-03
12 pgm_pn12_5_s3:1 vs_53_12:A 1.000000e-03
13 pgm_pn12_5_s3:1 vs_52_12:A 1.000000e-03
14 pgm_pn12_5_s3:1 vs_51_12:A 1.000000e-03
15 pgm_pn12_5_s3:1 vs_50_12:A 1.000000e-03
16 pgm_pn12_5_s3:1 vs_49_12:A 1.000000e-03
17 pgm_pn12_5_s3:1 vs_48_12:A 1.000000e-03
*END

*D_NET pgm_pn15_4_s0 2.210366e-02
*CONN
*I lt_pn15_4_s0:Z O
*I vs_15_15:A I
*I vs_14_15:A I
*I vs_13_15:A I
*I vs_12_15:A I
*I vs_11_15:A I
*I vs_10_15:A I
*I vs_9_15:A I
*I vs_8_15:A I
*I vs_7_15:A I
*I vs_6_15:A I
*I vs_5_15:A I
*I vs_4_15:A I
*I vs_3_15:A I
*I vs_2_15:A I
*I vs_1_15:A I
*I vs_0_15:A I
*CAP
1 pgm_pn15_4_s0:1 2.210366e-02
*RES
1 lt_pn15_4_s0:Z pgm_pn15_4_s0:1 2.508284e+01
2 pgm_pn15_4_s0:1 vs_15_15:A 1.000000e-03
3 pgm_pn15_4_s0:1 vs_14_15:A 1.000000e-03
4 pgm_pn15_4_s0:1 vs_13_15:A 1.000000e-03
5 pgm_pn15_4_s0:1 vs_12_15:A 1.000000e-03
6 pgm_pn15_4_s0:1 vs_11_15:A 1.000000e-03
7 pgm_pn15_4_s0:1 vs_10_15:A 1.000000e-03
8 pgm_pn15_4_s0:1 vs_9_15:A 1.000000e-03
9 pgm_pn15_4_s0:1 vs_8_15:A 1.000000e-03
10 pgm_pn15_4_s0:1 vs_7_15:A 1.000000e-03
11 pgm_pn15_4_s0:1 vs_6_15:A 1.000000e-03
12 pgm_pn15_4_s0:1 vs_5_15:A 1.000000e-03
13 pgm_pn15_4_s0:1 vs_4_15:A 1.000000e-03
14 pgm_pn15_4_s0:1 vs_3_15:A 1.000000e-03
15 pgm_pn15_4_s0:1 vs_2_15:A 1.000000e-03
16 pgm_pn15_4_s0:1 vs_1_15:A 1.000000e-03
17 pgm_pn15_4_s0:1 vs_0_15:A 1.000000e-03
*END

*D_NET pgm_pn15_4_s1 2.127711e-02
*CONN
*I lt_pn15_4_s1:Z O
*I vs_31_15:A I
*I vs_30_15:A I
*I vs_29_15:A I
*I vs_28_15:A I
*I vs_27_15:A I
*I vs_26_15:A I
*I vs_25_15:A I
*I vs_24_15:A I
*I vs_23_15:A I
*I vs_22_15:A I
*I vs_21_15:A I
*I vs_20_15:A I
*I vs_19_15:A I
*I vs_18_15:A I
*I vs_17_15:A I
*I vs_16_15:A I
*CAP
1 pgm_pn15_4_s1:1 2.127711e-02
*RES
1 lt_pn15_4_s1:Z pgm_pn15_4_s1:1 2.414488e+01
2 pgm_pn15_4_s1:1 vs_31_15:A 1.000000e-03
3 pgm_pn15_4_s1:1 vs_30_15:A 1.000000e-03
4 pgm_pn15_4_s1:1 vs_29_15:A 1.000000e-03
5 pgm_pn15_4_s1:1 vs_28_15:A 1.000000e-03
6 pgm_pn15_4_s1:1 vs_27_15:A 1.000000e-03
7 pgm_pn15_4_s1:1 vs_26_15:A 1.000000e-03
8 pgm_pn15_4_s1:1 vs_25_15:A 1.000000e-03
9 pgm_pn15_4_s1:1 vs_24_15:A 1.000000e-03
10 pgm_pn15_4_s1:1 vs_23_15:A 1.000000e-03
11 pgm_pn15_4_s1:1 vs_22_15:A 1.000000e-03
12 pgm_pn15_4_s1:1 vs_21_15:A 1.000000e-03
13 pgm_pn15_4_s1:1 vs_20_15:A 1.000000e-03
14 pgm_pn15_4_s1:1 vs_19_15:A 1.000000e-03
15 pgm_pn15_4_s1:1 vs_18_15:A 1.000000e-03
16 pgm_pn15_4_s1:1 vs_17_15:A 1.000000e-03
17 pgm_pn15_4_s1:1 vs_16_15:A 1.000000e-03
*END

*D_NET pgm_pn15_4_s2 2.254212e-02
*CONN
*I lt_pn15_4_s2:Z O
*I vs_47_15:A I
*I vs_46_15:A I
*I vs_45_15:A I
*I vs_44_15:A I
*I vs_43_15:A I
*I vs_42_15:A I
*I vs_41_15:A I
*I vs_40_15:A I
*I vs_39_15:A I
*I vs_38_15:A I
*I vs_37_15:A I
*I vs_36_15:A I
*I vs_35_15:A I
*I vs_34_15:A I
*I vs_33_15:A I
*I vs_32_15:A I
*CAP
1 pgm_pn15_4_s2:1 2.254212e-02
*RES
1 lt_pn15_4_s2:Z pgm_pn15_4_s2:1 2.558039e+01
2 pgm_pn15_4_s2:1 vs_47_15:A 1.000000e-03
3 pgm_pn15_4_s2:1 vs_46_15:A 1.000000e-03
4 pgm_pn15_4_s2:1 vs_45_15:A 1.000000e-03
5 pgm_pn15_4_s2:1 vs_44_15:A 1.000000e-03
6 pgm_pn15_4_s2:1 vs_43_15:A 1.000000e-03
7 pgm_pn15_4_s2:1 vs_42_15:A 1.000000e-03
8 pgm_pn15_4_s2:1 vs_41_15:A 1.000000e-03
9 pgm_pn15_4_s2:1 vs_40_15:A 1.000000e-03
10 pgm_pn15_4_s2:1 vs_39_15:A 1.000000e-03
11 pgm_pn15_4_s2:1 vs_38_15:A 1.000000e-03
12 pgm_pn15_4_s2:1 vs_37_15:A 1.000000e-03
13 pgm_pn15_4_s2:1 vs_36_15:A 1.000000e-03
14 pgm_pn15_4_s2:1 vs_35_15:A 1.000000e-03
15 pgm_pn15_4_s2:1 vs_34_15:A 1.000000e-03
16 pgm_pn15_4_s2:1 vs_33_15:A 1.000000e-03
17 pgm_pn15_4_s2:1 vs_32_15:A 1.000000e-03
*END

*D_NET pgm_pn15_4_s3 2.210959e-02
*CONN
*I lt_pn15_4_s3:Z O
*I vs_63_15:A I
*I vs_62_15:A I
*I vs_61_15:A I
*I vs_60_15:A I
*I vs_59_15:A I
*I vs_58_15:A I
*I vs_57_15:A I
*I vs_56_15:A I
*I vs_55_15:A I
*I vs_54_15:A I
*I vs_53_15:A I
*I vs_52_15:A I
*I vs_51_15:A I
*I vs_50_15:A I
*I vs_49_15:A I
*I vs_48_15:A I
*CAP
1 pgm_pn15_4_s3:1 2.210959e-02
*RES
1 lt_pn15_4_s3:Z pgm_pn15_4_s3:1 2.508956e+01
2 pgm_pn15_4_s3:1 vs_63_15:A 1.000000e-03
3 pgm_pn15_4_s3:1 vs_62_15:A 1.000000e-03
4 pgm_pn15_4_s3:1 vs_61_15:A 1.000000e-03
5 pgm_pn15_4_s3:1 vs_60_15:A 1.000000e-03
6 pgm_pn15_4_s3:1 vs_59_15:A 1.000000e-03
7 pgm_pn15_4_s3:1 vs_58_15:A 1.000000e-03
8 pgm_pn15_4_s3:1 vs_57_15:A 1.000000e-03
9 pgm_pn15_4_s3:1 vs_56_15:A 1.000000e-03
10 pgm_pn15_4_s3:1 vs_55_15:A 1.000000e-03
11 pgm_pn15_4_s3:1 vs_54_15:A 1.000000e-03
12 pgm_pn15_4_s3:1 vs_53_15:A 1.000000e-03
13 pgm_pn15_4_s3:1 vs_52_15:A 1.000000e-03
14 pgm_pn15_4_s3:1 vs_51_15:A 1.000000e-03
15 pgm_pn15_4_s3:1 vs_50_15:A 1.000000e-03
16 pgm_pn15_4_s3:1 vs_49_15:A 1.000000e-03
17 pgm_pn15_4_s3:1 vs_48_15:A 1.000000e-03
*END

*D_NET pgm_pn16_2_s0 2.178667e-02
*CONN
*I lt_pn16_2_s0:Z O
*I vs_15_16:A I
*I vs_14_16:A I
*I vs_13_16:A I
*I vs_12_16:A I
*I vs_11_16:A I
*I vs_10_16:A I
*I vs_9_16:A I
*I vs_8_16:A I
*I vs_7_16:A I
*I vs_6_16:A I
*I vs_5_16:A I
*I vs_4_16:A I
*I vs_3_16:A I
*I vs_2_16:A I
*I vs_1_16:A I
*I vs_0_16:A I
*CAP
1 pgm_pn16_2_s0:1 2.178667e-02
*RES
1 lt_pn16_2_s0:Z pgm_pn16_2_s0:1 2.472312e+01
2 pgm_pn16_2_s0:1 vs_15_16:A 1.000000e-03
3 pgm_pn16_2_s0:1 vs_14_16:A 1.000000e-03
4 pgm_pn16_2_s0:1 vs_13_16:A 1.000000e-03
5 pgm_pn16_2_s0:1 vs_12_16:A 1.000000e-03
6 pgm_pn16_2_s0:1 vs_11_16:A 1.000000e-03
7 pgm_pn16_2_s0:1 vs_10_16:A 1.000000e-03
8 pgm_pn16_2_s0:1 vs_9_16:A 1.000000e-03
9 pgm_pn16_2_s0:1 vs_8_16:A 1.000000e-03
10 pgm_pn16_2_s0:1 vs_7_16:A 1.000000e-03
11 pgm_pn16_2_s0:1 vs_6_16:A 1.000000e-03
12 pgm_pn16_2_s0:1 vs_5_16:A 1.000000e-03
13 pgm_pn16_2_s0:1 vs_4_16:A 1.000000e-03
14 pgm_pn16_2_s0:1 vs_3_16:A 1.000000e-03
15 pgm_pn16_2_s0:1 vs_2_16:A 1.000000e-03
16 pgm_pn16_2_s0:1 vs_1_16:A 1.000000e-03
17 pgm_pn16_2_s0:1 vs_0_16:A 1.000000e-03
*END

*D_NET pgm_pn16_2_s1 2.168594e-02
*CONN
*I lt_pn16_2_s1:Z O
*I vs_31_16:A I
*I vs_30_16:A I
*I vs_29_16:A I
*I vs_28_16:A I
*I vs_27_16:A I
*I vs_26_16:A I
*I vs_25_16:A I
*I vs_24_16:A I
*I vs_23_16:A I
*I vs_22_16:A I
*I vs_21_16:A I
*I vs_20_16:A I
*I vs_19_16:A I
*I vs_18_16:A I
*I vs_17_16:A I
*I vs_16_16:A I
*CAP
1 pgm_pn16_2_s1:1 2.168594e-02
*RES
1 lt_pn16_2_s1:Z pgm_pn16_2_s1:1 2.460882e+01
2 pgm_pn16_2_s1:1 vs_31_16:A 1.000000e-03
3 pgm_pn16_2_s1:1 vs_30_16:A 1.000000e-03
4 pgm_pn16_2_s1:1 vs_29_16:A 1.000000e-03
5 pgm_pn16_2_s1:1 vs_28_16:A 1.000000e-03
6 pgm_pn16_2_s1:1 vs_27_16:A 1.000000e-03
7 pgm_pn16_2_s1:1 vs_26_16:A 1.000000e-03
8 pgm_pn16_2_s1:1 vs_25_16:A 1.000000e-03
9 pgm_pn16_2_s1:1 vs_24_16:A 1.000000e-03
10 pgm_pn16_2_s1:1 vs_23_16:A 1.000000e-03
11 pgm_pn16_2_s1:1 vs_22_16:A 1.000000e-03
12 pgm_pn16_2_s1:1 vs_21_16:A 1.000000e-03
13 pgm_pn16_2_s1:1 vs_20_16:A 1.000000e-03
14 pgm_pn16_2_s1:1 vs_19_16:A 1.000000e-03
15 pgm_pn16_2_s1:1 vs_18_16:A 1.000000e-03
16 pgm_pn16_2_s1:1 vs_17_16:A 1.000000e-03
17 pgm_pn16_2_s1:1 vs_16_16:A 1.000000e-03
*END

*D_NET pgm_pn16_2_s2 2.275542e-02
*CONN
*I lt_pn16_2_s2:Z O
*I vs_47_16:A I
*I vs_46_16:A I
*I vs_45_16:A I
*I vs_44_16:A I
*I vs_43_16:A I
*I vs_42_16:A I
*I vs_41_16:A I
*I vs_40_16:A I
*I vs_39_16:A I
*I vs_38_16:A I
*I vs_37_16:A I
*I vs_36_16:A I
*I vs_35_16:A I
*I vs_34_16:A I
*I vs_33_16:A I
*I vs_32_16:A I
*CAP
1 pgm_pn16_2_s2:1 2.275542e-02
*RES
1 lt_pn16_2_s2:Z pgm_pn16_2_s2:1 2.582245e+01
2 pgm_pn16_2_s2:1 vs_47_16:A 1.000000e-03
3 pgm_pn16_2_s2:1 vs_46_16:A 1.000000e-03
4 pgm_pn16_2_s2:1 vs_45_16:A 1.000000e-03
5 pgm_pn16_2_s2:1 vs_44_16:A 1.000000e-03
6 pgm_pn16_2_s2:1 vs_43_16:A 1.000000e-03
7 pgm_pn16_2_s2:1 vs_42_16:A 1.000000e-03
8 pgm_pn16_2_s2:1 vs_41_16:A 1.000000e-03
9 pgm_pn16_2_s2:1 vs_40_16:A 1.000000e-03
10 pgm_pn16_2_s2:1 vs_39_16:A 1.000000e-03
11 pgm_pn16_2_s2:1 vs_38_16:A 1.000000e-03
12 pgm_pn16_2_s2:1 vs_37_16:A 1.000000e-03
13 pgm_pn16_2_s2:1 vs_36_16:A 1.000000e-03
14 pgm_pn16_2_s2:1 vs_35_16:A 1.000000e-03
15 pgm_pn16_2_s2:1 vs_34_16:A 1.000000e-03
16 pgm_pn16_2_s2:1 vs_33_16:A 1.000000e-03
17 pgm_pn16_2_s2:1 vs_32_16:A 1.000000e-03
*END

*D_NET pgm_pn16_2_s3 2.197331e-02
*CONN
*I lt_pn16_2_s3:Z O
*I vs_63_16:A I
*I vs_62_16:A I
*I vs_61_16:A I
*I vs_60_16:A I
*I vs_59_16:A I
*I vs_58_16:A I
*I vs_57_16:A I
*I vs_56_16:A I
*I vs_55_16:A I
*I vs_54_16:A I
*I vs_53_16:A I
*I vs_52_16:A I
*I vs_51_16:A I
*I vs_50_16:A I
*I vs_49_16:A I
*I vs_48_16:A I
*CAP
1 pgm_pn16_2_s3:1 2.197331e-02
*RES
1 lt_pn16_2_s3:Z pgm_pn16_2_s3:1 2.493492e+01
2 pgm_pn16_2_s3:1 vs_63_16:A 1.000000e-03
3 pgm_pn16_2_s3:1 vs_62_16:A 1.000000e-03
4 pgm_pn16_2_s3:1 vs_61_16:A 1.000000e-03
5 pgm_pn16_2_s3:1 vs_60_16:A 1.000000e-03
6 pgm_pn16_2_s3:1 vs_59_16:A 1.000000e-03
7 pgm_pn16_2_s3:1 vs_58_16:A 1.000000e-03
8 pgm_pn16_2_s3:1 vs_57_16:A 1.000000e-03
9 pgm_pn16_2_s3:1 vs_56_16:A 1.000000e-03
10 pgm_pn16_2_s3:1 vs_55_16:A 1.000000e-03
11 pgm_pn16_2_s3:1 vs_54_16:A 1.000000e-03
12 pgm_pn16_2_s3:1 vs_53_16:A 1.000000e-03
13 pgm_pn16_2_s3:1 vs_52_16:A 1.000000e-03
14 pgm_pn16_2_s3:1 vs_51_16:A 1.000000e-03
15 pgm_pn16_2_s3:1 vs_50_16:A 1.000000e-03
16 pgm_pn16_2_s3:1 vs_49_16:A 1.000000e-03
17 pgm_pn16_2_s3:1 vs_48_16:A 1.000000e-03
*END

*D_NET pgm_pn17_6_s0 2.137783e-02
*CONN
*I lt_pn17_6_s0:Z O
*I vs_15_17:A I
*I vs_14_17:A I
*I vs_13_17:A I
*I vs_12_17:A I
*I vs_11_17:A I
*I vs_10_17:A I
*I vs_9_17:A I
*I vs_8_17:A I
*I vs_7_17:A I
*I vs_6_17:A I
*I vs_5_17:A I
*I vs_4_17:A I
*I vs_3_17:A I
*I vs_2_17:A I
*I vs_1_17:A I
*I vs_0_17:A I
*CAP
1 pgm_pn17_6_s0:1 2.137783e-02
*RES
1 lt_pn17_6_s0:Z pgm_pn17_6_s0:1 2.425918e+01
2 pgm_pn17_6_s0:1 vs_15_17:A 1.000000e-03
3 pgm_pn17_6_s0:1 vs_14_17:A 1.000000e-03
4 pgm_pn17_6_s0:1 vs_13_17:A 1.000000e-03
5 pgm_pn17_6_s0:1 vs_12_17:A 1.000000e-03
6 pgm_pn17_6_s0:1 vs_11_17:A 1.000000e-03
7 pgm_pn17_6_s0:1 vs_10_17:A 1.000000e-03
8 pgm_pn17_6_s0:1 vs_9_17:A 1.000000e-03
9 pgm_pn17_6_s0:1 vs_8_17:A 1.000000e-03
10 pgm_pn17_6_s0:1 vs_7_17:A 1.000000e-03
11 pgm_pn17_6_s0:1 vs_6_17:A 1.000000e-03
12 pgm_pn17_6_s0:1 vs_5_17:A 1.000000e-03
13 pgm_pn17_6_s0:1 vs_4_17:A 1.000000e-03
14 pgm_pn17_6_s0:1 vs_3_17:A 1.000000e-03
15 pgm_pn17_6_s0:1 vs_2_17:A 1.000000e-03
16 pgm_pn17_6_s0:1 vs_1_17:A 1.000000e-03
17 pgm_pn17_6_s0:1 vs_0_17:A 1.000000e-03
*END

*D_NET pgm_pn17_6_s1 2.068163e-02
*CONN
*I lt_pn17_6_s1:Z O
*I vs_31_17:A I
*I vs_30_17:A I
*I vs_29_17:A I
*I vs_28_17:A I
*I vs_27_17:A I
*I vs_26_17:A I
*I vs_25_17:A I
*I vs_24_17:A I
*I vs_23_17:A I
*I vs_22_17:A I
*I vs_21_17:A I
*I vs_20_17:A I
*I vs_19_17:A I
*I vs_18_17:A I
*I vs_17_17:A I
*I vs_16_17:A I
*CAP
1 pgm_pn17_6_s1:1 2.068163e-02
*RES
1 lt_pn17_6_s1:Z pgm_pn17_6_s1:1 2.346914e+01
2 pgm_pn17_6_s1:1 vs_31_17:A 1.000000e-03
3 pgm_pn17_6_s1:1 vs_30_17:A 1.000000e-03
4 pgm_pn17_6_s1:1 vs_29_17:A 1.000000e-03
5 pgm_pn17_6_s1:1 vs_28_17:A 1.000000e-03
6 pgm_pn17_6_s1:1 vs_27_17:A 1.000000e-03
7 pgm_pn17_6_s1:1 vs_26_17:A 1.000000e-03
8 pgm_pn17_6_s1:1 vs_25_17:A 1.000000e-03
9 pgm_pn17_6_s1:1 vs_24_17:A 1.000000e-03
10 pgm_pn17_6_s1:1 vs_23_17:A 1.000000e-03
11 pgm_pn17_6_s1:1 vs_22_17:A 1.000000e-03
12 pgm_pn17_6_s1:1 vs_21_17:A 1.000000e-03
13 pgm_pn17_6_s1:1 vs_20_17:A 1.000000e-03
14 pgm_pn17_6_s1:1 vs_19_17:A 1.000000e-03
15 pgm_pn17_6_s1:1 vs_18_17:A 1.000000e-03
16 pgm_pn17_6_s1:1 vs_17_17:A 1.000000e-03
17 pgm_pn17_6_s1:1 vs_16_17:A 1.000000e-03
*END

*D_NET pgm_pn17_6_s2 2.137783e-02
*CONN
*I lt_pn17_6_s2:Z O
*I vs_47_17:A I
*I vs_46_17:A I
*I vs_45_17:A I
*I vs_44_17:A I
*I vs_43_17:A I
*I vs_42_17:A I
*I vs_41_17:A I
*I vs_40_17:A I
*I vs_39_17:A I
*I vs_38_17:A I
*I vs_37_17:A I
*I vs_36_17:A I
*I vs_35_17:A I
*I vs_34_17:A I
*I vs_33_17:A I
*I vs_32_17:A I
*CAP
1 pgm_pn17_6_s2:1 2.137783e-02
*RES
1 lt_pn17_6_s2:Z pgm_pn17_6_s2:1 2.425918e+01
2 pgm_pn17_6_s2:1 vs_47_17:A 1.000000e-03
3 pgm_pn17_6_s2:1 vs_46_17:A 1.000000e-03
4 pgm_pn17_6_s2:1 vs_45_17:A 1.000000e-03
5 pgm_pn17_6_s2:1 vs_44_17:A 1.000000e-03
6 pgm_pn17_6_s2:1 vs_43_17:A 1.000000e-03
7 pgm_pn17_6_s2:1 vs_42_17:A 1.000000e-03
8 pgm_pn17_6_s2:1 vs_41_17:A 1.000000e-03
9 pgm_pn17_6_s2:1 vs_40_17:A 1.000000e-03
10 pgm_pn17_6_s2:1 vs_39_17:A 1.000000e-03
11 pgm_pn17_6_s2:1 vs_38_17:A 1.000000e-03
12 pgm_pn17_6_s2:1 vs_37_17:A 1.000000e-03
13 pgm_pn17_6_s2:1 vs_36_17:A 1.000000e-03
14 pgm_pn17_6_s2:1 vs_35_17:A 1.000000e-03
15 pgm_pn17_6_s2:1 vs_34_17:A 1.000000e-03
16 pgm_pn17_6_s2:1 vs_33_17:A 1.000000e-03
17 pgm_pn17_6_s2:1 vs_32_17:A 1.000000e-03
*END

*D_NET pgm_pn17_6_s3 2.137783e-02
*CONN
*I lt_pn17_6_s3:Z O
*I vs_63_17:A I
*I vs_62_17:A I
*I vs_61_17:A I
*I vs_60_17:A I
*I vs_59_17:A I
*I vs_58_17:A I
*I vs_57_17:A I
*I vs_56_17:A I
*I vs_55_17:A I
*I vs_54_17:A I
*I vs_53_17:A I
*I vs_52_17:A I
*I vs_51_17:A I
*I vs_50_17:A I
*I vs_49_17:A I
*I vs_48_17:A I
*CAP
1 pgm_pn17_6_s3:1 2.137783e-02
*RES
1 lt_pn17_6_s3:Z pgm_pn17_6_s3:1 2.425918e+01
2 pgm_pn17_6_s3:1 vs_63_17:A 1.000000e-03
3 pgm_pn17_6_s3:1 vs_62_17:A 1.000000e-03
4 pgm_pn17_6_s3:1 vs_61_17:A 1.000000e-03
5 pgm_pn17_6_s3:1 vs_60_17:A 1.000000e-03
6 pgm_pn17_6_s3:1 vs_59_17:A 1.000000e-03
7 pgm_pn17_6_s3:1 vs_58_17:A 1.000000e-03
8 pgm_pn17_6_s3:1 vs_57_17:A 1.000000e-03
9 pgm_pn17_6_s3:1 vs_56_17:A 1.000000e-03
10 pgm_pn17_6_s3:1 vs_55_17:A 1.000000e-03
11 pgm_pn17_6_s3:1 vs_54_17:A 1.000000e-03
12 pgm_pn17_6_s3:1 vs_53_17:A 1.000000e-03
13 pgm_pn17_6_s3:1 vs_52_17:A 1.000000e-03
14 pgm_pn17_6_s3:1 vs_51_17:A 1.000000e-03
15 pgm_pn17_6_s3:1 vs_50_17:A 1.000000e-03
16 pgm_pn17_6_s3:1 vs_49_17:A 1.000000e-03
17 pgm_pn17_6_s3:1 vs_48_17:A 1.000000e-03
*END

*D_NET pgm_pn18_2_s0 2.246806e-02
*CONN
*I lt_pn18_2_s0:Z O
*I vs_15_18:A I
*I vs_14_18:A I
*I vs_13_18:A I
*I vs_12_18:A I
*I vs_11_18:A I
*I vs_10_18:A I
*I vs_9_18:A I
*I vs_8_18:A I
*I vs_7_18:A I
*I vs_6_18:A I
*I vs_5_18:A I
*I vs_4_18:A I
*I vs_3_18:A I
*I vs_2_18:A I
*I vs_1_18:A I
*I vs_0_18:A I
*CAP
1 pgm_pn18_2_s0:1 2.246806e-02
*RES
1 lt_pn18_2_s0:Z pgm_pn18_2_s0:1 2.549635e+01
2 pgm_pn18_2_s0:1 vs_15_18:A 1.000000e-03
3 pgm_pn18_2_s0:1 vs_14_18:A 1.000000e-03
4 pgm_pn18_2_s0:1 vs_13_18:A 1.000000e-03
5 pgm_pn18_2_s0:1 vs_12_18:A 1.000000e-03
6 pgm_pn18_2_s0:1 vs_11_18:A 1.000000e-03
7 pgm_pn18_2_s0:1 vs_10_18:A 1.000000e-03
8 pgm_pn18_2_s0:1 vs_9_18:A 1.000000e-03
9 pgm_pn18_2_s0:1 vs_8_18:A 1.000000e-03
10 pgm_pn18_2_s0:1 vs_7_18:A 1.000000e-03
11 pgm_pn18_2_s0:1 vs_6_18:A 1.000000e-03
12 pgm_pn18_2_s0:1 vs_5_18:A 1.000000e-03
13 pgm_pn18_2_s0:1 vs_4_18:A 1.000000e-03
14 pgm_pn18_2_s0:1 vs_3_18:A 1.000000e-03
15 pgm_pn18_2_s0:1 vs_2_18:A 1.000000e-03
16 pgm_pn18_2_s0:1 vs_1_18:A 1.000000e-03
17 pgm_pn18_2_s0:1 vs_0_18:A 1.000000e-03
*END

*D_NET pgm_pn18_2_s1 2.168594e-02
*CONN
*I lt_pn18_2_s1:Z O
*I vs_31_18:A I
*I vs_30_18:A I
*I vs_29_18:A I
*I vs_28_18:A I
*I vs_27_18:A I
*I vs_26_18:A I
*I vs_25_18:A I
*I vs_24_18:A I
*I vs_23_18:A I
*I vs_22_18:A I
*I vs_21_18:A I
*I vs_20_18:A I
*I vs_19_18:A I
*I vs_18_18:A I
*I vs_17_18:A I
*I vs_16_18:A I
*CAP
1 pgm_pn18_2_s1:1 2.168594e-02
*RES
1 lt_pn18_2_s1:Z pgm_pn18_2_s1:1 2.460882e+01
2 pgm_pn18_2_s1:1 vs_31_18:A 1.000000e-03
3 pgm_pn18_2_s1:1 vs_30_18:A 1.000000e-03
4 pgm_pn18_2_s1:1 vs_29_18:A 1.000000e-03
5 pgm_pn18_2_s1:1 vs_28_18:A 1.000000e-03
6 pgm_pn18_2_s1:1 vs_27_18:A 1.000000e-03
7 pgm_pn18_2_s1:1 vs_26_18:A 1.000000e-03
8 pgm_pn18_2_s1:1 vs_25_18:A 1.000000e-03
9 pgm_pn18_2_s1:1 vs_24_18:A 1.000000e-03
10 pgm_pn18_2_s1:1 vs_23_18:A 1.000000e-03
11 pgm_pn18_2_s1:1 vs_22_18:A 1.000000e-03
12 pgm_pn18_2_s1:1 vs_21_18:A 1.000000e-03
13 pgm_pn18_2_s1:1 vs_20_18:A 1.000000e-03
14 pgm_pn18_2_s1:1 vs_19_18:A 1.000000e-03
15 pgm_pn18_2_s1:1 vs_18_18:A 1.000000e-03
16 pgm_pn18_2_s1:1 vs_17_18:A 1.000000e-03
17 pgm_pn18_2_s1:1 vs_16_18:A 1.000000e-03
*END

*D_NET pgm_pn18_2_s2 2.219550e-02
*CONN
*I lt_pn18_2_s2:Z O
*I vs_47_18:A I
*I vs_46_18:A I
*I vs_45_18:A I
*I vs_44_18:A I
*I vs_43_18:A I
*I vs_42_18:A I
*I vs_41_18:A I
*I vs_40_18:A I
*I vs_39_18:A I
*I vs_38_18:A I
*I vs_37_18:A I
*I vs_36_18:A I
*I vs_35_18:A I
*I vs_34_18:A I
*I vs_33_18:A I
*I vs_32_18:A I
*CAP
1 pgm_pn18_2_s2:1 2.219550e-02
*RES
1 lt_pn18_2_s2:Z pgm_pn18_2_s2:1 2.518706e+01
2 pgm_pn18_2_s2:1 vs_47_18:A 1.000000e-03
3 pgm_pn18_2_s2:1 vs_46_18:A 1.000000e-03
4 pgm_pn18_2_s2:1 vs_45_18:A 1.000000e-03
5 pgm_pn18_2_s2:1 vs_44_18:A 1.000000e-03
6 pgm_pn18_2_s2:1 vs_43_18:A 1.000000e-03
7 pgm_pn18_2_s2:1 vs_42_18:A 1.000000e-03
8 pgm_pn18_2_s2:1 vs_41_18:A 1.000000e-03
9 pgm_pn18_2_s2:1 vs_40_18:A 1.000000e-03
10 pgm_pn18_2_s2:1 vs_39_18:A 1.000000e-03
11 pgm_pn18_2_s2:1 vs_38_18:A 1.000000e-03
12 pgm_pn18_2_s2:1 vs_37_18:A 1.000000e-03
13 pgm_pn18_2_s2:1 vs_36_18:A 1.000000e-03
14 pgm_pn18_2_s2:1 vs_35_18:A 1.000000e-03
15 pgm_pn18_2_s2:1 vs_34_18:A 1.000000e-03
16 pgm_pn18_2_s2:1 vs_33_18:A 1.000000e-03
17 pgm_pn18_2_s2:1 vs_32_18:A 1.000000e-03
*END

*D_NET pgm_pn18_2_s3 2.251842e-02
*CONN
*I lt_pn18_2_s3:Z O
*I vs_63_18:A I
*I vs_62_18:A I
*I vs_61_18:A I
*I vs_60_18:A I
*I vs_59_18:A I
*I vs_58_18:A I
*I vs_57_18:A I
*I vs_56_18:A I
*I vs_55_18:A I
*I vs_54_18:A I
*I vs_53_18:A I
*I vs_52_18:A I
*I vs_51_18:A I
*I vs_50_18:A I
*I vs_49_18:A I
*I vs_48_18:A I
*CAP
1 pgm_pn18_2_s3:1 2.251842e-02
*RES
1 lt_pn18_2_s3:Z pgm_pn18_2_s3:1 2.555350e+01
2 pgm_pn18_2_s3:1 vs_63_18:A 1.000000e-03
3 pgm_pn18_2_s3:1 vs_62_18:A 1.000000e-03
4 pgm_pn18_2_s3:1 vs_61_18:A 1.000000e-03
5 pgm_pn18_2_s3:1 vs_60_18:A 1.000000e-03
6 pgm_pn18_2_s3:1 vs_59_18:A 1.000000e-03
7 pgm_pn18_2_s3:1 vs_58_18:A 1.000000e-03
8 pgm_pn18_2_s3:1 vs_57_18:A 1.000000e-03
9 pgm_pn18_2_s3:1 vs_56_18:A 1.000000e-03
10 pgm_pn18_2_s3:1 vs_55_18:A 1.000000e-03
11 pgm_pn18_2_s3:1 vs_54_18:A 1.000000e-03
12 pgm_pn18_2_s3:1 vs_53_18:A 1.000000e-03
13 pgm_pn18_2_s3:1 vs_52_18:A 1.000000e-03
14 pgm_pn18_2_s3:1 vs_51_18:A 1.000000e-03
15 pgm_pn18_2_s3:1 vs_50_18:A 1.000000e-03
16 pgm_pn18_2_s3:1 vs_49_18:A 1.000000e-03
17 pgm_pn18_2_s3:1 vs_48_18:A 1.000000e-03
*END

*D_NET pgm_pn19_3_s0 2.219550e-02
*CONN
*I lt_pn19_3_s0:Z O
*I vs_15_19:A I
*I vs_14_19:A I
*I vs_13_19:A I
*I vs_12_19:A I
*I vs_11_19:A I
*I vs_10_19:A I
*I vs_9_19:A I
*I vs_8_19:A I
*I vs_7_19:A I
*I vs_6_19:A I
*I vs_5_19:A I
*I vs_4_19:A I
*I vs_3_19:A I
*I vs_2_19:A I
*I vs_1_19:A I
*I vs_0_19:A I
*CAP
1 pgm_pn19_3_s0:1 2.219550e-02
*RES
1 lt_pn19_3_s0:Z pgm_pn19_3_s0:1 2.518706e+01
2 pgm_pn19_3_s0:1 vs_15_19:A 1.000000e-03
3 pgm_pn19_3_s0:1 vs_14_19:A 1.000000e-03
4 pgm_pn19_3_s0:1 vs_13_19:A 1.000000e-03
5 pgm_pn19_3_s0:1 vs_12_19:A 1.000000e-03
6 pgm_pn19_3_s0:1 vs_11_19:A 1.000000e-03
7 pgm_pn19_3_s0:1 vs_10_19:A 1.000000e-03
8 pgm_pn19_3_s0:1 vs_9_19:A 1.000000e-03
9 pgm_pn19_3_s0:1 vs_8_19:A 1.000000e-03
10 pgm_pn19_3_s0:1 vs_7_19:A 1.000000e-03
11 pgm_pn19_3_s0:1 vs_6_19:A 1.000000e-03
12 pgm_pn19_3_s0:1 vs_5_19:A 1.000000e-03
13 pgm_pn19_3_s0:1 vs_4_19:A 1.000000e-03
14 pgm_pn19_3_s0:1 vs_3_19:A 1.000000e-03
15 pgm_pn19_3_s0:1 vs_2_19:A 1.000000e-03
16 pgm_pn19_3_s0:1 vs_1_19:A 1.000000e-03
17 pgm_pn19_3_s0:1 vs_0_19:A 1.000000e-03
*END

*D_NET pgm_pn19_3_s1 2.141338e-02
*CONN
*I lt_pn19_3_s1:Z O
*I vs_31_19:A I
*I vs_30_19:A I
*I vs_29_19:A I
*I vs_28_19:A I
*I vs_27_19:A I
*I vs_26_19:A I
*I vs_25_19:A I
*I vs_24_19:A I
*I vs_23_19:A I
*I vs_22_19:A I
*I vs_21_19:A I
*I vs_20_19:A I
*I vs_19_19:A I
*I vs_18_19:A I
*I vs_17_19:A I
*I vs_16_19:A I
*CAP
1 pgm_pn19_3_s1:1 2.141338e-02
*RES
1 lt_pn19_3_s1:Z pgm_pn19_3_s1:1 2.429952e+01
2 pgm_pn19_3_s1:1 vs_31_19:A 1.000000e-03
3 pgm_pn19_3_s1:1 vs_30_19:A 1.000000e-03
4 pgm_pn19_3_s1:1 vs_29_19:A 1.000000e-03
5 pgm_pn19_3_s1:1 vs_28_19:A 1.000000e-03
6 pgm_pn19_3_s1:1 vs_27_19:A 1.000000e-03
7 pgm_pn19_3_s1:1 vs_26_19:A 1.000000e-03
8 pgm_pn19_3_s1:1 vs_25_19:A 1.000000e-03
9 pgm_pn19_3_s1:1 vs_24_19:A 1.000000e-03
10 pgm_pn19_3_s1:1 vs_23_19:A 1.000000e-03
11 pgm_pn19_3_s1:1 vs_22_19:A 1.000000e-03
12 pgm_pn19_3_s1:1 vs_21_19:A 1.000000e-03
13 pgm_pn19_3_s1:1 vs_20_19:A 1.000000e-03
14 pgm_pn19_3_s1:1 vs_19_19:A 1.000000e-03
15 pgm_pn19_3_s1:1 vs_18_19:A 1.000000e-03
16 pgm_pn19_3_s1:1 vs_17_19:A 1.000000e-03
17 pgm_pn19_3_s1:1 vs_16_19:A 1.000000e-03
*END

*D_NET pgm_pn19_3_s2 2.213921e-02
*CONN
*I lt_pn19_3_s2:Z O
*I vs_47_19:A I
*I vs_46_19:A I
*I vs_45_19:A I
*I vs_44_19:A I
*I vs_43_19:A I
*I vs_42_19:A I
*I vs_41_19:A I
*I vs_40_19:A I
*I vs_39_19:A I
*I vs_38_19:A I
*I vs_37_19:A I
*I vs_36_19:A I
*I vs_35_19:A I
*I vs_34_19:A I
*I vs_33_19:A I
*I vs_32_19:A I
*CAP
1 pgm_pn19_3_s2:1 2.213921e-02
*RES
1 lt_pn19_3_s2:Z pgm_pn19_3_s2:1 2.512318e+01
2 pgm_pn19_3_s2:1 vs_47_19:A 1.000000e-03
3 pgm_pn19_3_s2:1 vs_46_19:A 1.000000e-03
4 pgm_pn19_3_s2:1 vs_45_19:A 1.000000e-03
5 pgm_pn19_3_s2:1 vs_44_19:A 1.000000e-03
6 pgm_pn19_3_s2:1 vs_43_19:A 1.000000e-03
7 pgm_pn19_3_s2:1 vs_42_19:A 1.000000e-03
8 pgm_pn19_3_s2:1 vs_41_19:A 1.000000e-03
9 pgm_pn19_3_s2:1 vs_40_19:A 1.000000e-03
10 pgm_pn19_3_s2:1 vs_39_19:A 1.000000e-03
11 pgm_pn19_3_s2:1 vs_38_19:A 1.000000e-03
12 pgm_pn19_3_s2:1 vs_37_19:A 1.000000e-03
13 pgm_pn19_3_s2:1 vs_36_19:A 1.000000e-03
14 pgm_pn19_3_s2:1 vs_35_19:A 1.000000e-03
15 pgm_pn19_3_s2:1 vs_34_19:A 1.000000e-03
16 pgm_pn19_3_s2:1 vs_33_19:A 1.000000e-03
17 pgm_pn19_3_s2:1 vs_32_19:A 1.000000e-03
*END

*D_NET pgm_pn19_3_s3 2.251249e-02
*CONN
*I lt_pn19_3_s3:Z O
*I vs_63_19:A I
*I vs_62_19:A I
*I vs_61_19:A I
*I vs_60_19:A I
*I vs_59_19:A I
*I vs_58_19:A I
*I vs_57_19:A I
*I vs_56_19:A I
*I vs_55_19:A I
*I vs_54_19:A I
*I vs_53_19:A I
*I vs_52_19:A I
*I vs_51_19:A I
*I vs_50_19:A I
*I vs_49_19:A I
*I vs_48_19:A I
*CAP
1 pgm_pn19_3_s3:1 2.251249e-02
*RES
1 lt_pn19_3_s3:Z pgm_pn19_3_s3:1 2.554677e+01
2 pgm_pn19_3_s3:1 vs_63_19:A 1.000000e-03
3 pgm_pn19_3_s3:1 vs_62_19:A 1.000000e-03
4 pgm_pn19_3_s3:1 vs_61_19:A 1.000000e-03
5 pgm_pn19_3_s3:1 vs_60_19:A 1.000000e-03
6 pgm_pn19_3_s3:1 vs_59_19:A 1.000000e-03
7 pgm_pn19_3_s3:1 vs_58_19:A 1.000000e-03
8 pgm_pn19_3_s3:1 vs_57_19:A 1.000000e-03
9 pgm_pn19_3_s3:1 vs_56_19:A 1.000000e-03
10 pgm_pn19_3_s3:1 vs_55_19:A 1.000000e-03
11 pgm_pn19_3_s3:1 vs_54_19:A 1.000000e-03
12 pgm_pn19_3_s3:1 vs_53_19:A 1.000000e-03
13 pgm_pn19_3_s3:1 vs_52_19:A 1.000000e-03
14 pgm_pn19_3_s3:1 vs_51_19:A 1.000000e-03
15 pgm_pn19_3_s3:1 vs_50_19:A 1.000000e-03
16 pgm_pn19_3_s3:1 vs_49_19:A 1.000000e-03
17 pgm_pn19_3_s3:1 vs_48_19:A 1.000000e-03
*END

*D_NET pgm_pn21_0_s0 2.237622e-02
*CONN
*I lt_pn21_0_s0:Z O
*I vs_15_21:A I
*I vs_14_21:A I
*I vs_13_21:A I
*I vs_12_21:A I
*I vs_11_21:A I
*I vs_10_21:A I
*I vs_9_21:A I
*I vs_8_21:A I
*I vs_7_21:A I
*I vs_6_21:A I
*I vs_5_21:A I
*I vs_4_21:A I
*I vs_3_21:A I
*I vs_2_21:A I
*I vs_1_21:A I
*I vs_0_21:A I
*CAP
1 pgm_pn21_0_s0:1 2.237622e-02
*RES
1 lt_pn21_0_s0:Z pgm_pn21_0_s0:1 2.539213e+01
2 pgm_pn21_0_s0:1 vs_15_21:A 1.000000e-03
3 pgm_pn21_0_s0:1 vs_14_21:A 1.000000e-03
4 pgm_pn21_0_s0:1 vs_13_21:A 1.000000e-03
5 pgm_pn21_0_s0:1 vs_12_21:A 1.000000e-03
6 pgm_pn21_0_s0:1 vs_11_21:A 1.000000e-03
7 pgm_pn21_0_s0:1 vs_10_21:A 1.000000e-03
8 pgm_pn21_0_s0:1 vs_9_21:A 1.000000e-03
9 pgm_pn21_0_s0:1 vs_8_21:A 1.000000e-03
10 pgm_pn21_0_s0:1 vs_7_21:A 1.000000e-03
11 pgm_pn21_0_s0:1 vs_6_21:A 1.000000e-03
12 pgm_pn21_0_s0:1 vs_5_21:A 1.000000e-03
13 pgm_pn21_0_s0:1 vs_4_21:A 1.000000e-03
14 pgm_pn21_0_s0:1 vs_3_21:A 1.000000e-03
15 pgm_pn21_0_s0:1 vs_2_21:A 1.000000e-03
16 pgm_pn21_0_s0:1 vs_1_21:A 1.000000e-03
17 pgm_pn21_0_s0:1 vs_0_21:A 1.000000e-03
*END

*D_NET pgm_pn21_0_s1 2.154966e-02
*CONN
*I lt_pn21_0_s1:Z O
*I vs_31_21:A I
*I vs_30_21:A I
*I vs_29_21:A I
*I vs_28_21:A I
*I vs_27_21:A I
*I vs_26_21:A I
*I vs_25_21:A I
*I vs_24_21:A I
*I vs_23_21:A I
*I vs_22_21:A I
*I vs_21_21:A I
*I vs_20_21:A I
*I vs_19_21:A I
*I vs_18_21:A I
*I vs_17_21:A I
*I vs_16_21:A I
*CAP
1 pgm_pn21_0_s1:1 2.154966e-02
*RES
1 lt_pn21_0_s1:Z pgm_pn21_0_s1:1 2.445417e+01
2 pgm_pn21_0_s1:1 vs_31_21:A 1.000000e-03
3 pgm_pn21_0_s1:1 vs_30_21:A 1.000000e-03
4 pgm_pn21_0_s1:1 vs_29_21:A 1.000000e-03
5 pgm_pn21_0_s1:1 vs_28_21:A 1.000000e-03
6 pgm_pn21_0_s1:1 vs_27_21:A 1.000000e-03
7 pgm_pn21_0_s1:1 vs_26_21:A 1.000000e-03
8 pgm_pn21_0_s1:1 vs_25_21:A 1.000000e-03
9 pgm_pn21_0_s1:1 vs_24_21:A 1.000000e-03
10 pgm_pn21_0_s1:1 vs_23_21:A 1.000000e-03
11 pgm_pn21_0_s1:1 vs_22_21:A 1.000000e-03
12 pgm_pn21_0_s1:1 vs_21_21:A 1.000000e-03
13 pgm_pn21_0_s1:1 vs_20_21:A 1.000000e-03
14 pgm_pn21_0_s1:1 vs_19_21:A 1.000000e-03
15 pgm_pn21_0_s1:1 vs_18_21:A 1.000000e-03
16 pgm_pn21_0_s1:1 vs_17_21:A 1.000000e-03
17 pgm_pn21_0_s1:1 vs_16_21:A 1.000000e-03
*END

*D_NET pgm_pn21_0_s2 2.227549e-02
*CONN
*I lt_pn21_0_s2:Z O
*I vs_47_21:A I
*I vs_46_21:A I
*I vs_45_21:A I
*I vs_44_21:A I
*I vs_43_21:A I
*I vs_42_21:A I
*I vs_41_21:A I
*I vs_40_21:A I
*I vs_39_21:A I
*I vs_38_21:A I
*I vs_37_21:A I
*I vs_36_21:A I
*I vs_35_21:A I
*I vs_34_21:A I
*I vs_33_21:A I
*I vs_32_21:A I
*CAP
1 pgm_pn21_0_s2:1 2.227549e-02
*RES
1 lt_pn21_0_s2:Z pgm_pn21_0_s2:1 2.527783e+01
2 pgm_pn21_0_s2:1 vs_47_21:A 1.000000e-03
3 pgm_pn21_0_s2:1 vs_46_21:A 1.000000e-03
4 pgm_pn21_0_s2:1 vs_45_21:A 1.000000e-03
5 pgm_pn21_0_s2:1 vs_44_21:A 1.000000e-03
6 pgm_pn21_0_s2:1 vs_43_21:A 1.000000e-03
7 pgm_pn21_0_s2:1 vs_42_21:A 1.000000e-03
8 pgm_pn21_0_s2:1 vs_41_21:A 1.000000e-03
9 pgm_pn21_0_s2:1 vs_40_21:A 1.000000e-03
10 pgm_pn21_0_s2:1 vs_39_21:A 1.000000e-03
11 pgm_pn21_0_s2:1 vs_38_21:A 1.000000e-03
12 pgm_pn21_0_s2:1 vs_37_21:A 1.000000e-03
13 pgm_pn21_0_s2:1 vs_36_21:A 1.000000e-03
14 pgm_pn21_0_s2:1 vs_35_21:A 1.000000e-03
15 pgm_pn21_0_s2:1 vs_34_21:A 1.000000e-03
16 pgm_pn21_0_s2:1 vs_33_21:A 1.000000e-03
17 pgm_pn21_0_s2:1 vs_32_21:A 1.000000e-03
*END

*D_NET pgm_pn21_0_s3 2.224586e-02
*CONN
*I lt_pn21_0_s3:Z O
*I vs_63_21:A I
*I vs_62_21:A I
*I vs_61_21:A I
*I vs_60_21:A I
*I vs_59_21:A I
*I vs_58_21:A I
*I vs_57_21:A I
*I vs_56_21:A I
*I vs_55_21:A I
*I vs_54_21:A I
*I vs_53_21:A I
*I vs_52_21:A I
*I vs_51_21:A I
*I vs_50_21:A I
*I vs_49_21:A I
*I vs_48_21:A I
*CAP
1 pgm_pn21_0_s3:1 2.224586e-02
*RES
1 lt_pn21_0_s3:Z pgm_pn21_0_s3:1 2.524421e+01
2 pgm_pn21_0_s3:1 vs_63_21:A 1.000000e-03
3 pgm_pn21_0_s3:1 vs_62_21:A 1.000000e-03
4 pgm_pn21_0_s3:1 vs_61_21:A 1.000000e-03
5 pgm_pn21_0_s3:1 vs_60_21:A 1.000000e-03
6 pgm_pn21_0_s3:1 vs_59_21:A 1.000000e-03
7 pgm_pn21_0_s3:1 vs_58_21:A 1.000000e-03
8 pgm_pn21_0_s3:1 vs_57_21:A 1.000000e-03
9 pgm_pn21_0_s3:1 vs_56_21:A 1.000000e-03
10 pgm_pn21_0_s3:1 vs_55_21:A 1.000000e-03
11 pgm_pn21_0_s3:1 vs_54_21:A 1.000000e-03
12 pgm_pn21_0_s3:1 vs_53_21:A 1.000000e-03
13 pgm_pn21_0_s3:1 vs_52_21:A 1.000000e-03
14 pgm_pn21_0_s3:1 vs_51_21:A 1.000000e-03
15 pgm_pn21_0_s3:1 vs_50_21:A 1.000000e-03
16 pgm_pn21_0_s3:1 vs_49_21:A 1.000000e-03
17 pgm_pn21_0_s3:1 vs_48_21:A 1.000000e-03
*END

*D_NET pgm_pn2_5_s0 2.119119e-02
*CONN
*I lt_pn2_5_s0:Z O
*I vs_15_2:A I
*I vs_14_2:A I
*I vs_13_2:A I
*I vs_12_2:A I
*I vs_11_2:A I
*I vs_10_2:A I
*I vs_9_2:A I
*I vs_8_2:A I
*I vs_7_2:A I
*I vs_6_2:A I
*I vs_5_2:A I
*I vs_4_2:A I
*I vs_3_2:A I
*I vs_2_2:A I
*I vs_1_2:A I
*I vs_0_2:A I
*CAP
1 pgm_pn2_5_s0:1 2.119119e-02
*RES
1 lt_pn2_5_s0:Z pgm_pn2_5_s0:1 2.404738e+01
2 pgm_pn2_5_s0:1 vs_15_2:A 1.000000e-03
3 pgm_pn2_5_s0:1 vs_14_2:A 1.000000e-03
4 pgm_pn2_5_s0:1 vs_13_2:A 1.000000e-03
5 pgm_pn2_5_s0:1 vs_12_2:A 1.000000e-03
6 pgm_pn2_5_s0:1 vs_11_2:A 1.000000e-03
7 pgm_pn2_5_s0:1 vs_10_2:A 1.000000e-03
8 pgm_pn2_5_s0:1 vs_9_2:A 1.000000e-03
9 pgm_pn2_5_s0:1 vs_8_2:A 1.000000e-03
10 pgm_pn2_5_s0:1 vs_7_2:A 1.000000e-03
11 pgm_pn2_5_s0:1 vs_6_2:A 1.000000e-03
12 pgm_pn2_5_s0:1 vs_5_2:A 1.000000e-03
13 pgm_pn2_5_s0:1 vs_4_2:A 1.000000e-03
14 pgm_pn2_5_s0:1 vs_3_2:A 1.000000e-03
15 pgm_pn2_5_s0:1 vs_2_2:A 1.000000e-03
16 pgm_pn2_5_s0:1 vs_1_2:A 1.000000e-03
17 pgm_pn2_5_s0:1 vs_0_2:A 1.000000e-03
*END

*D_NET pgm_pn2_5_s1 2.073199e-02
*CONN
*I lt_pn2_5_s1:Z O
*I vs_31_2:A I
*I vs_30_2:A I
*I vs_29_2:A I
*I vs_28_2:A I
*I vs_27_2:A I
*I vs_26_2:A I
*I vs_25_2:A I
*I vs_24_2:A I
*I vs_23_2:A I
*I vs_22_2:A I
*I vs_21_2:A I
*I vs_20_2:A I
*I vs_19_2:A I
*I vs_18_2:A I
*I vs_17_2:A I
*I vs_16_2:A I
*CAP
1 pgm_pn2_5_s1:1 2.073199e-02
*RES
1 lt_pn2_5_s1:Z pgm_pn2_5_s1:1 2.352630e+01
2 pgm_pn2_5_s1:1 vs_31_2:A 1.000000e-03
3 pgm_pn2_5_s1:1 vs_30_2:A 1.000000e-03
4 pgm_pn2_5_s1:1 vs_29_2:A 1.000000e-03
5 pgm_pn2_5_s1:1 vs_28_2:A 1.000000e-03
6 pgm_pn2_5_s1:1 vs_27_2:A 1.000000e-03
7 pgm_pn2_5_s1:1 vs_26_2:A 1.000000e-03
8 pgm_pn2_5_s1:1 vs_25_2:A 1.000000e-03
9 pgm_pn2_5_s1:1 vs_24_2:A 1.000000e-03
10 pgm_pn2_5_s1:1 vs_23_2:A 1.000000e-03
11 pgm_pn2_5_s1:1 vs_22_2:A 1.000000e-03
12 pgm_pn2_5_s1:1 vs_21_2:A 1.000000e-03
13 pgm_pn2_5_s1:1 vs_20_2:A 1.000000e-03
14 pgm_pn2_5_s1:1 vs_19_2:A 1.000000e-03
15 pgm_pn2_5_s1:1 vs_18_2:A 1.000000e-03
16 pgm_pn2_5_s1:1 vs_17_2:A 1.000000e-03
17 pgm_pn2_5_s1:1 vs_16_2:A 1.000000e-03
*END

*D_NET pgm_pn2_5_s2 2.119119e-02
*CONN
*I lt_pn2_5_s2:Z O
*I vs_47_2:A I
*I vs_46_2:A I
*I vs_45_2:A I
*I vs_44_2:A I
*I vs_43_2:A I
*I vs_42_2:A I
*I vs_41_2:A I
*I vs_40_2:A I
*I vs_39_2:A I
*I vs_38_2:A I
*I vs_37_2:A I
*I vs_36_2:A I
*I vs_35_2:A I
*I vs_34_2:A I
*I vs_33_2:A I
*I vs_32_2:A I
*CAP
1 pgm_pn2_5_s2:1 2.119119e-02
*RES
1 lt_pn2_5_s2:Z pgm_pn2_5_s2:1 2.404738e+01
2 pgm_pn2_5_s2:1 vs_47_2:A 1.000000e-03
3 pgm_pn2_5_s2:1 vs_46_2:A 1.000000e-03
4 pgm_pn2_5_s2:1 vs_45_2:A 1.000000e-03
5 pgm_pn2_5_s2:1 vs_44_2:A 1.000000e-03
6 pgm_pn2_5_s2:1 vs_43_2:A 1.000000e-03
7 pgm_pn2_5_s2:1 vs_42_2:A 1.000000e-03
8 pgm_pn2_5_s2:1 vs_41_2:A 1.000000e-03
9 pgm_pn2_5_s2:1 vs_40_2:A 1.000000e-03
10 pgm_pn2_5_s2:1 vs_39_2:A 1.000000e-03
11 pgm_pn2_5_s2:1 vs_38_2:A 1.000000e-03
12 pgm_pn2_5_s2:1 vs_37_2:A 1.000000e-03
13 pgm_pn2_5_s2:1 vs_36_2:A 1.000000e-03
14 pgm_pn2_5_s2:1 vs_35_2:A 1.000000e-03
15 pgm_pn2_5_s2:1 vs_34_2:A 1.000000e-03
16 pgm_pn2_5_s2:1 vs_33_2:A 1.000000e-03
17 pgm_pn2_5_s2:1 vs_32_2:A 1.000000e-03
*END

*D_NET pgm_pn2_5_s3 2.156447e-02
*CONN
*I lt_pn2_5_s3:Z O
*I vs_63_2:A I
*I vs_62_2:A I
*I vs_61_2:A I
*I vs_60_2:A I
*I vs_59_2:A I
*I vs_58_2:A I
*I vs_57_2:A I
*I vs_56_2:A I
*I vs_55_2:A I
*I vs_54_2:A I
*I vs_53_2:A I
*I vs_52_2:A I
*I vs_51_2:A I
*I vs_50_2:A I
*I vs_49_2:A I
*I vs_48_2:A I
*CAP
1 pgm_pn2_5_s3:1 2.156447e-02
*RES
1 lt_pn2_5_s3:Z pgm_pn2_5_s3:1 2.447098e+01
2 pgm_pn2_5_s3:1 vs_63_2:A 1.000000e-03
3 pgm_pn2_5_s3:1 vs_62_2:A 1.000000e-03
4 pgm_pn2_5_s3:1 vs_61_2:A 1.000000e-03
5 pgm_pn2_5_s3:1 vs_60_2:A 1.000000e-03
6 pgm_pn2_5_s3:1 vs_59_2:A 1.000000e-03
7 pgm_pn2_5_s3:1 vs_58_2:A 1.000000e-03
8 pgm_pn2_5_s3:1 vs_57_2:A 1.000000e-03
9 pgm_pn2_5_s3:1 vs_56_2:A 1.000000e-03
10 pgm_pn2_5_s3:1 vs_55_2:A 1.000000e-03
11 pgm_pn2_5_s3:1 vs_54_2:A 1.000000e-03
12 pgm_pn2_5_s3:1 vs_53_2:A 1.000000e-03
13 pgm_pn2_5_s3:1 vs_52_2:A 1.000000e-03
14 pgm_pn2_5_s3:1 vs_51_2:A 1.000000e-03
15 pgm_pn2_5_s3:1 vs_50_2:A 1.000000e-03
16 pgm_pn2_5_s3:1 vs_49_2:A 1.000000e-03
17 pgm_pn2_5_s3:1 vs_48_2:A 1.000000e-03
*END

*D_NET pgm_pn7_9_s0 2.205922e-02
*CONN
*I lt_pn7_9_s0:Z O
*I vs_15_7:A I
*I vs_14_7:A I
*I vs_13_7:A I
*I vs_12_7:A I
*I vs_11_7:A I
*I vs_10_7:A I
*I vs_9_7:A I
*I vs_8_7:A I
*I vs_7_7:A I
*I vs_6_7:A I
*I vs_5_7:A I
*I vs_4_7:A I
*I vs_3_7:A I
*I vs_2_7:A I
*I vs_1_7:A I
*I vs_0_7:A I
*CAP
1 pgm_pn7_9_s0:1 2.205922e-02
*RES
1 lt_pn7_9_s0:Z pgm_pn7_9_s0:1 2.503241e+01
2 pgm_pn7_9_s0:1 vs_15_7:A 1.000000e-03
3 pgm_pn7_9_s0:1 vs_14_7:A 1.000000e-03
4 pgm_pn7_9_s0:1 vs_13_7:A 1.000000e-03
5 pgm_pn7_9_s0:1 vs_12_7:A 1.000000e-03
6 pgm_pn7_9_s0:1 vs_11_7:A 1.000000e-03
7 pgm_pn7_9_s0:1 vs_10_7:A 1.000000e-03
8 pgm_pn7_9_s0:1 vs_9_7:A 1.000000e-03
9 pgm_pn7_9_s0:1 vs_8_7:A 1.000000e-03
10 pgm_pn7_9_s0:1 vs_7_7:A 1.000000e-03
11 pgm_pn7_9_s0:1 vs_6_7:A 1.000000e-03
12 pgm_pn7_9_s0:1 vs_5_7:A 1.000000e-03
13 pgm_pn7_9_s0:1 vs_4_7:A 1.000000e-03
14 pgm_pn7_9_s0:1 vs_3_7:A 1.000000e-03
15 pgm_pn7_9_s0:1 vs_2_7:A 1.000000e-03
16 pgm_pn7_9_s0:1 vs_1_7:A 1.000000e-03
17 pgm_pn7_9_s0:1 vs_0_7:A 1.000000e-03
*END

*D_NET pgm_pn7_9_s1 2.168594e-02
*CONN
*I lt_pn7_9_s1:Z O
*I vs_31_7:A I
*I vs_30_7:A I
*I vs_29_7:A I
*I vs_28_7:A I
*I vs_27_7:A I
*I vs_26_7:A I
*I vs_25_7:A I
*I vs_24_7:A I
*I vs_23_7:A I
*I vs_22_7:A I
*I vs_21_7:A I
*I vs_20_7:A I
*I vs_19_7:A I
*I vs_18_7:A I
*I vs_17_7:A I
*I vs_16_7:A I
*CAP
1 pgm_pn7_9_s1:1 2.168594e-02
*RES
1 lt_pn7_9_s1:Z pgm_pn7_9_s1:1 2.460882e+01
2 pgm_pn7_9_s1:1 vs_31_7:A 1.000000e-03
3 pgm_pn7_9_s1:1 vs_30_7:A 1.000000e-03
4 pgm_pn7_9_s1:1 vs_29_7:A 1.000000e-03
5 pgm_pn7_9_s1:1 vs_28_7:A 1.000000e-03
6 pgm_pn7_9_s1:1 vs_27_7:A 1.000000e-03
7 pgm_pn7_9_s1:1 vs_26_7:A 1.000000e-03
8 pgm_pn7_9_s1:1 vs_25_7:A 1.000000e-03
9 pgm_pn7_9_s1:1 vs_24_7:A 1.000000e-03
10 pgm_pn7_9_s1:1 vs_23_7:A 1.000000e-03
11 pgm_pn7_9_s1:1 vs_22_7:A 1.000000e-03
12 pgm_pn7_9_s1:1 vs_21_7:A 1.000000e-03
13 pgm_pn7_9_s1:1 vs_20_7:A 1.000000e-03
14 pgm_pn7_9_s1:1 vs_19_7:A 1.000000e-03
15 pgm_pn7_9_s1:1 vs_18_7:A 1.000000e-03
16 pgm_pn7_9_s1:1 vs_17_7:A 1.000000e-03
17 pgm_pn7_9_s1:1 vs_16_7:A 1.000000e-03
*END

*D_NET pgm_pn7_9_s2 2.241177e-02
*CONN
*I lt_pn7_9_s2:Z O
*I vs_47_7:A I
*I vs_46_7:A I
*I vs_45_7:A I
*I vs_44_7:A I
*I vs_43_7:A I
*I vs_42_7:A I
*I vs_41_7:A I
*I vs_40_7:A I
*I vs_39_7:A I
*I vs_38_7:A I
*I vs_37_7:A I
*I vs_36_7:A I
*I vs_35_7:A I
*I vs_34_7:A I
*I vs_33_7:A I
*I vs_32_7:A I
*CAP
1 pgm_pn7_9_s2:1 2.241177e-02
*RES
1 lt_pn7_9_s2:Z pgm_pn7_9_s2:1 2.543247e+01
2 pgm_pn7_9_s2:1 vs_47_7:A 1.000000e-03
3 pgm_pn7_9_s2:1 vs_46_7:A 1.000000e-03
4 pgm_pn7_9_s2:1 vs_45_7:A 1.000000e-03
5 pgm_pn7_9_s2:1 vs_44_7:A 1.000000e-03
6 pgm_pn7_9_s2:1 vs_43_7:A 1.000000e-03
7 pgm_pn7_9_s2:1 vs_42_7:A 1.000000e-03
8 pgm_pn7_9_s2:1 vs_41_7:A 1.000000e-03
9 pgm_pn7_9_s2:1 vs_40_7:A 1.000000e-03
10 pgm_pn7_9_s2:1 vs_39_7:A 1.000000e-03
11 pgm_pn7_9_s2:1 vs_38_7:A 1.000000e-03
12 pgm_pn7_9_s2:1 vs_37_7:A 1.000000e-03
13 pgm_pn7_9_s2:1 vs_36_7:A 1.000000e-03
14 pgm_pn7_9_s2:1 vs_35_7:A 1.000000e-03
15 pgm_pn7_9_s2:1 vs_34_7:A 1.000000e-03
16 pgm_pn7_9_s2:1 vs_33_7:A 1.000000e-03
17 pgm_pn7_9_s2:1 vs_32_7:A 1.000000e-03
*END

*D_NET pgm_pn7_9_s3 2.251842e-02
*CONN
*I lt_pn7_9_s3:Z O
*I vs_63_7:A I
*I vs_62_7:A I
*I vs_61_7:A I
*I vs_60_7:A I
*I vs_59_7:A I
*I vs_58_7:A I
*I vs_57_7:A I
*I vs_56_7:A I
*I vs_55_7:A I
*I vs_54_7:A I
*I vs_53_7:A I
*I vs_52_7:A I
*I vs_51_7:A I
*I vs_50_7:A I
*I vs_49_7:A I
*I vs_48_7:A I
*CAP
1 pgm_pn7_9_s3:1 2.251842e-02
*RES
1 lt_pn7_9_s3:Z pgm_pn7_9_s3:1 2.555350e+01
2 pgm_pn7_9_s3:1 vs_63_7:A 1.000000e-03
3 pgm_pn7_9_s3:1 vs_62_7:A 1.000000e-03
4 pgm_pn7_9_s3:1 vs_61_7:A 1.000000e-03
5 pgm_pn7_9_s3:1 vs_60_7:A 1.000000e-03
6 pgm_pn7_9_s3:1 vs_59_7:A 1.000000e-03
7 pgm_pn7_9_s3:1 vs_58_7:A 1.000000e-03
8 pgm_pn7_9_s3:1 vs_57_7:A 1.000000e-03
9 pgm_pn7_9_s3:1 vs_56_7:A 1.000000e-03
10 pgm_pn7_9_s3:1 vs_55_7:A 1.000000e-03
11 pgm_pn7_9_s3:1 vs_54_7:A 1.000000e-03
12 pgm_pn7_9_s3:1 vs_53_7:A 1.000000e-03
13 pgm_pn7_9_s3:1 vs_52_7:A 1.000000e-03
14 pgm_pn7_9_s3:1 vs_51_7:A 1.000000e-03
15 pgm_pn7_9_s3:1 vs_50_7:A 1.000000e-03
16 pgm_pn7_9_s3:1 vs_49_7:A 1.000000e-03
17 pgm_pn7_9_s3:1 vs_48_7:A 1.000000e-03
*END

*D_NET pgm_pn8_7_s0 2.151411e-02
*CONN
*I lt_pn8_7_s0:Z O
*I vs_15_8:A I
*I vs_14_8:A I
*I vs_13_8:A I
*I vs_12_8:A I
*I vs_11_8:A I
*I vs_10_8:A I
*I vs_9_8:A I
*I vs_8_8:A I
*I vs_7_8:A I
*I vs_6_8:A I
*I vs_5_8:A I
*I vs_4_8:A I
*I vs_3_8:A I
*I vs_2_8:A I
*I vs_1_8:A I
*I vs_0_8:A I
*CAP
1 pgm_pn8_7_s0:1 2.151411e-02
*RES
1 lt_pn8_7_s0:Z pgm_pn8_7_s0:1 2.441383e+01
2 pgm_pn8_7_s0:1 vs_15_8:A 1.000000e-03
3 pgm_pn8_7_s0:1 vs_14_8:A 1.000000e-03
4 pgm_pn8_7_s0:1 vs_13_8:A 1.000000e-03
5 pgm_pn8_7_s0:1 vs_12_8:A 1.000000e-03
6 pgm_pn8_7_s0:1 vs_11_8:A 1.000000e-03
7 pgm_pn8_7_s0:1 vs_10_8:A 1.000000e-03
8 pgm_pn8_7_s0:1 vs_9_8:A 1.000000e-03
9 pgm_pn8_7_s0:1 vs_8_8:A 1.000000e-03
10 pgm_pn8_7_s0:1 vs_7_8:A 1.000000e-03
11 pgm_pn8_7_s0:1 vs_6_8:A 1.000000e-03
12 pgm_pn8_7_s0:1 vs_5_8:A 1.000000e-03
13 pgm_pn8_7_s0:1 vs_4_8:A 1.000000e-03
14 pgm_pn8_7_s0:1 vs_3_8:A 1.000000e-03
15 pgm_pn8_7_s0:1 vs_2_8:A 1.000000e-03
16 pgm_pn8_7_s0:1 vs_1_8:A 1.000000e-03
17 pgm_pn8_7_s0:1 vs_0_8:A 1.000000e-03
*END

*D_NET pgm_pn8_7_s1 2.127118e-02
*CONN
*I lt_pn8_7_s1:Z O
*I vs_31_8:A I
*I vs_30_8:A I
*I vs_29_8:A I
*I vs_28_8:A I
*I vs_27_8:A I
*I vs_26_8:A I
*I vs_25_8:A I
*I vs_24_8:A I
*I vs_23_8:A I
*I vs_22_8:A I
*I vs_21_8:A I
*I vs_20_8:A I
*I vs_19_8:A I
*I vs_18_8:A I
*I vs_17_8:A I
*I vs_16_8:A I
*CAP
1 pgm_pn8_7_s1:1 2.127118e-02
*RES
1 lt_pn8_7_s1:Z pgm_pn8_7_s1:1 2.413815e+01
2 pgm_pn8_7_s1:1 vs_31_8:A 1.000000e-03
3 pgm_pn8_7_s1:1 vs_30_8:A 1.000000e-03
4 pgm_pn8_7_s1:1 vs_29_8:A 1.000000e-03
5 pgm_pn8_7_s1:1 vs_28_8:A 1.000000e-03
6 pgm_pn8_7_s1:1 vs_27_8:A 1.000000e-03
7 pgm_pn8_7_s1:1 vs_26_8:A 1.000000e-03
8 pgm_pn8_7_s1:1 vs_25_8:A 1.000000e-03
9 pgm_pn8_7_s1:1 vs_24_8:A 1.000000e-03
10 pgm_pn8_7_s1:1 vs_23_8:A 1.000000e-03
11 pgm_pn8_7_s1:1 vs_22_8:A 1.000000e-03
12 pgm_pn8_7_s1:1 vs_21_8:A 1.000000e-03
13 pgm_pn8_7_s1:1 vs_20_8:A 1.000000e-03
14 pgm_pn8_7_s1:1 vs_19_8:A 1.000000e-03
15 pgm_pn8_7_s1:1 vs_18_8:A 1.000000e-03
16 pgm_pn8_7_s1:1 vs_17_8:A 1.000000e-03
17 pgm_pn8_7_s1:1 vs_16_8:A 1.000000e-03
*END

*D_NET pgm_pn8_7_s2 2.110528e-02
*CONN
*I lt_pn8_7_s2:Z O
*I vs_47_8:A I
*I vs_46_8:A I
*I vs_45_8:A I
*I vs_44_8:A I
*I vs_43_8:A I
*I vs_42_8:A I
*I vs_41_8:A I
*I vs_40_8:A I
*I vs_39_8:A I
*I vs_38_8:A I
*I vs_37_8:A I
*I vs_36_8:A I
*I vs_35_8:A I
*I vs_34_8:A I
*I vs_33_8:A I
*I vs_32_8:A I
*CAP
1 pgm_pn8_7_s2:1 2.110528e-02
*RES
1 lt_pn8_7_s2:Z pgm_pn8_7_s2:1 2.394989e+01
2 pgm_pn8_7_s2:1 vs_47_8:A 1.000000e-03
3 pgm_pn8_7_s2:1 vs_46_8:A 1.000000e-03
4 pgm_pn8_7_s2:1 vs_45_8:A 1.000000e-03
5 pgm_pn8_7_s2:1 vs_44_8:A 1.000000e-03
6 pgm_pn8_7_s2:1 vs_43_8:A 1.000000e-03
7 pgm_pn8_7_s2:1 vs_42_8:A 1.000000e-03
8 pgm_pn8_7_s2:1 vs_41_8:A 1.000000e-03
9 pgm_pn8_7_s2:1 vs_40_8:A 1.000000e-03
10 pgm_pn8_7_s2:1 vs_39_8:A 1.000000e-03
11 pgm_pn8_7_s2:1 vs_38_8:A 1.000000e-03
12 pgm_pn8_7_s2:1 vs_37_8:A 1.000000e-03
13 pgm_pn8_7_s2:1 vs_36_8:A 1.000000e-03
14 pgm_pn8_7_s2:1 vs_35_8:A 1.000000e-03
15 pgm_pn8_7_s2:1 vs_34_8:A 1.000000e-03
16 pgm_pn8_7_s2:1 vs_33_8:A 1.000000e-03
17 pgm_pn8_7_s2:1 vs_32_8:A 1.000000e-03
*END

*D_NET pgm_pn8_7_s3 2.142820e-02
*CONN
*I lt_pn8_7_s3:Z O
*I vs_63_8:A I
*I vs_62_8:A I
*I vs_61_8:A I
*I vs_60_8:A I
*I vs_59_8:A I
*I vs_58_8:A I
*I vs_57_8:A I
*I vs_56_8:A I
*I vs_55_8:A I
*I vs_54_8:A I
*I vs_53_8:A I
*I vs_52_8:A I
*I vs_51_8:A I
*I vs_50_8:A I
*I vs_49_8:A I
*I vs_48_8:A I
*CAP
1 pgm_pn8_7_s3:1 2.142820e-02
*RES
1 lt_pn8_7_s3:Z pgm_pn8_7_s3:1 2.431633e+01
2 pgm_pn8_7_s3:1 vs_63_8:A 1.000000e-03
3 pgm_pn8_7_s3:1 vs_62_8:A 1.000000e-03
4 pgm_pn8_7_s3:1 vs_61_8:A 1.000000e-03
5 pgm_pn8_7_s3:1 vs_60_8:A 1.000000e-03
6 pgm_pn8_7_s3:1 vs_59_8:A 1.000000e-03
7 pgm_pn8_7_s3:1 vs_58_8:A 1.000000e-03
8 pgm_pn8_7_s3:1 vs_57_8:A 1.000000e-03
9 pgm_pn8_7_s3:1 vs_56_8:A 1.000000e-03
10 pgm_pn8_7_s3:1 vs_55_8:A 1.000000e-03
11 pgm_pn8_7_s3:1 vs_54_8:A 1.000000e-03
12 pgm_pn8_7_s3:1 vs_53_8:A 1.000000e-03
13 pgm_pn8_7_s3:1 vs_52_8:A 1.000000e-03
14 pgm_pn8_7_s3:1 vs_51_8:A 1.000000e-03
15 pgm_pn8_7_s3:1 vs_50_8:A 1.000000e-03
16 pgm_pn8_7_s3:1 vs_49_8:A 1.000000e-03
17 pgm_pn8_7_s3:1 vs_48_8:A 1.000000e-03
*END

*D_NET pgm_pp10_2_s0 2.260433e-02
*CONN
*I lt_pp10_2_s0:Z O
*I vs_15_10:A I
*I vs_14_10:A I
*I vs_13_10:A I
*I vs_12_10:A I
*I vs_11_10:A I
*I vs_10_10:A I
*I vs_9_10:A I
*I vs_8_10:A I
*I vs_7_10:A I
*I vs_6_10:A I
*I vs_5_10:A I
*I vs_4_10:A I
*I vs_3_10:A I
*I vs_2_10:A I
*I vs_1_10:A I
*I vs_0_10:A I
*CAP
1 pgm_pp10_2_s0:1 2.260433e-02
*RES
1 lt_pp10_2_s0:Z pgm_pp10_2_s0:1 2.565099e+01
2 pgm_pp10_2_s0:1 vs_15_10:A 1.000000e-03
3 pgm_pp10_2_s0:1 vs_14_10:A 1.000000e-03
4 pgm_pp10_2_s0:1 vs_13_10:A 1.000000e-03
5 pgm_pp10_2_s0:1 vs_12_10:A 1.000000e-03
6 pgm_pp10_2_s0:1 vs_11_10:A 1.000000e-03
7 pgm_pp10_2_s0:1 vs_10_10:A 1.000000e-03
8 pgm_pp10_2_s0:1 vs_9_10:A 1.000000e-03
9 pgm_pp10_2_s0:1 vs_8_10:A 1.000000e-03
10 pgm_pp10_2_s0:1 vs_7_10:A 1.000000e-03
11 pgm_pp10_2_s0:1 vs_6_10:A 1.000000e-03
12 pgm_pp10_2_s0:1 vs_5_10:A 1.000000e-03
13 pgm_pp10_2_s0:1 vs_4_10:A 1.000000e-03
14 pgm_pp10_2_s0:1 vs_3_10:A 1.000000e-03
15 pgm_pp10_2_s0:1 vs_2_10:A 1.000000e-03
16 pgm_pp10_2_s0:1 vs_1_10:A 1.000000e-03
17 pgm_pp10_2_s0:1 vs_0_10:A 1.000000e-03
*END

*D_NET pgm_pp10_2_s1 2.222513e-02
*CONN
*I lt_pp10_2_s1:Z O
*I vs_31_10:A I
*I vs_30_10:A I
*I vs_29_10:A I
*I vs_28_10:A I
*I vs_27_10:A I
*I vs_26_10:A I
*I vs_25_10:A I
*I vs_24_10:A I
*I vs_23_10:A I
*I vs_22_10:A I
*I vs_21_10:A I
*I vs_20_10:A I
*I vs_19_10:A I
*I vs_18_10:A I
*I vs_17_10:A I
*I vs_16_10:A I
*CAP
1 pgm_pp10_2_s1:1 2.222513e-02
*RES
1 lt_pp10_2_s1:Z pgm_pp10_2_s1:1 2.522067e+01
2 pgm_pp10_2_s1:1 vs_31_10:A 1.000000e-03
3 pgm_pp10_2_s1:1 vs_30_10:A 1.000000e-03
4 pgm_pp10_2_s1:1 vs_29_10:A 1.000000e-03
5 pgm_pp10_2_s1:1 vs_28_10:A 1.000000e-03
6 pgm_pp10_2_s1:1 vs_27_10:A 1.000000e-03
7 pgm_pp10_2_s1:1 vs_26_10:A 1.000000e-03
8 pgm_pp10_2_s1:1 vs_25_10:A 1.000000e-03
9 pgm_pp10_2_s1:1 vs_24_10:A 1.000000e-03
10 pgm_pp10_2_s1:1 vs_23_10:A 1.000000e-03
11 pgm_pp10_2_s1:1 vs_22_10:A 1.000000e-03
12 pgm_pp10_2_s1:1 vs_21_10:A 1.000000e-03
13 pgm_pp10_2_s1:1 vs_20_10:A 1.000000e-03
14 pgm_pp10_2_s1:1 vs_19_10:A 1.000000e-03
15 pgm_pp10_2_s1:1 vs_18_10:A 1.000000e-03
16 pgm_pp10_2_s1:1 vs_17_10:A 1.000000e-03
17 pgm_pp10_2_s1:1 vs_16_10:A 1.000000e-03
*END

*D_NET pgm_pp10_2_s2 2.233178e-02
*CONN
*I lt_pp10_2_s2:Z O
*I vs_47_10:A I
*I vs_46_10:A I
*I vs_45_10:A I
*I vs_44_10:A I
*I vs_43_10:A I
*I vs_42_10:A I
*I vs_41_10:A I
*I vs_40_10:A I
*I vs_39_10:A I
*I vs_38_10:A I
*I vs_37_10:A I
*I vs_36_10:A I
*I vs_35_10:A I
*I vs_34_10:A I
*I vs_33_10:A I
*I vs_32_10:A I
*CAP
1 pgm_pp10_2_s2:1 2.233178e-02
*RES
1 lt_pp10_2_s2:Z pgm_pp10_2_s2:1 2.534170e+01
2 pgm_pp10_2_s2:1 vs_47_10:A 1.000000e-03
3 pgm_pp10_2_s2:1 vs_46_10:A 1.000000e-03
4 pgm_pp10_2_s2:1 vs_45_10:A 1.000000e-03
5 pgm_pp10_2_s2:1 vs_44_10:A 1.000000e-03
6 pgm_pp10_2_s2:1 vs_43_10:A 1.000000e-03
7 pgm_pp10_2_s2:1 vs_42_10:A 1.000000e-03
8 pgm_pp10_2_s2:1 vs_41_10:A 1.000000e-03
9 pgm_pp10_2_s2:1 vs_40_10:A 1.000000e-03
10 pgm_pp10_2_s2:1 vs_39_10:A 1.000000e-03
11 pgm_pp10_2_s2:1 vs_38_10:A 1.000000e-03
12 pgm_pp10_2_s2:1 vs_37_10:A 1.000000e-03
13 pgm_pp10_2_s2:1 vs_36_10:A 1.000000e-03
14 pgm_pp10_2_s2:1 vs_35_10:A 1.000000e-03
15 pgm_pp10_2_s2:1 vs_34_10:A 1.000000e-03
16 pgm_pp10_2_s2:1 vs_33_10:A 1.000000e-03
17 pgm_pp10_2_s2:1 vs_32_10:A 1.000000e-03
*END

*D_NET pgm_pp10_2_s3 2.279097e-02
*CONN
*I lt_pp10_2_s3:Z O
*I vs_63_10:A I
*I vs_62_10:A I
*I vs_61_10:A I
*I vs_60_10:A I
*I vs_59_10:A I
*I vs_58_10:A I
*I vs_57_10:A I
*I vs_56_10:A I
*I vs_55_10:A I
*I vs_54_10:A I
*I vs_53_10:A I
*I vs_52_10:A I
*I vs_51_10:A I
*I vs_50_10:A I
*I vs_49_10:A I
*I vs_48_10:A I
*CAP
1 pgm_pp10_2_s3:1 2.279097e-02
*RES
1 lt_pp10_2_s3:Z pgm_pp10_2_s3:1 2.586279e+01
2 pgm_pp10_2_s3:1 vs_63_10:A 1.000000e-03
3 pgm_pp10_2_s3:1 vs_62_10:A 1.000000e-03
4 pgm_pp10_2_s3:1 vs_61_10:A 1.000000e-03
5 pgm_pp10_2_s3:1 vs_60_10:A 1.000000e-03
6 pgm_pp10_2_s3:1 vs_59_10:A 1.000000e-03
7 pgm_pp10_2_s3:1 vs_58_10:A 1.000000e-03
8 pgm_pp10_2_s3:1 vs_57_10:A 1.000000e-03
9 pgm_pp10_2_s3:1 vs_56_10:A 1.000000e-03
10 pgm_pp10_2_s3:1 vs_55_10:A 1.000000e-03
11 pgm_pp10_2_s3:1 vs_54_10:A 1.000000e-03
12 pgm_pp10_2_s3:1 vs_53_10:A 1.000000e-03
13 pgm_pp10_2_s3:1 vs_52_10:A 1.000000e-03
14 pgm_pp10_2_s3:1 vs_51_10:A 1.000000e-03
15 pgm_pp10_2_s3:1 vs_50_10:A 1.000000e-03
16 pgm_pp10_2_s3:1 vs_49_10:A 1.000000e-03
17 pgm_pp10_2_s3:1 vs_48_10:A 1.000000e-03
*END

*D_NET pgm_pp11_0_s0 2.426353e-02
*CONN
*I lt_pp11_0_s0:Z O
*I vs_15_11:A I
*I vs_14_11:A I
*I vs_13_11:A I
*I vs_12_11:A I
*I vs_11_11:A I
*I vs_10_11:A I
*I vs_9_11:A I
*I vs_8_11:A I
*I vs_7_11:A I
*I vs_6_11:A I
*I vs_5_11:A I
*I vs_4_11:A I
*I vs_3_11:A I
*I vs_2_11:A I
*I vs_1_11:A I
*I vs_0_11:A I
*CAP
1 pgm_pp11_0_s0:1 2.426353e-02
*RES
1 lt_pp11_0_s0:Z pgm_pp11_0_s0:1 2.567369e+01
2 pgm_pp11_0_s0:1 vs_15_11:A 1.000000e-03
3 pgm_pp11_0_s0:1 vs_14_11:A 1.000000e-03
4 pgm_pp11_0_s0:1 vs_13_11:A 1.000000e-03
5 pgm_pp11_0_s0:1 vs_12_11:A 1.000000e-03
6 pgm_pp11_0_s0:1 vs_11_11:A 1.000000e-03
7 pgm_pp11_0_s0:1 vs_10_11:A 1.000000e-03
8 pgm_pp11_0_s0:1 vs_9_11:A 1.000000e-03
9 pgm_pp11_0_s0:1 vs_8_11:A 1.000000e-03
10 pgm_pp11_0_s0:1 vs_7_11:A 1.000000e-03
11 pgm_pp11_0_s0:1 vs_6_11:A 1.000000e-03
12 pgm_pp11_0_s0:1 vs_5_11:A 1.000000e-03
13 pgm_pp11_0_s0:1 vs_4_11:A 1.000000e-03
14 pgm_pp11_0_s0:1 vs_3_11:A 1.000000e-03
15 pgm_pp11_0_s0:1 vs_2_11:A 1.000000e-03
16 pgm_pp11_0_s0:1 vs_1_11:A 1.000000e-03
17 pgm_pp11_0_s0:1 vs_0_11:A 1.000000e-03
*END

*D_NET pgm_pp11_0_s1 2.295688e-02
*CONN
*I lt_pp11_0_s1:Z O
*I vs_31_11:A I
*I vs_30_11:A I
*I vs_29_11:A I
*I vs_28_11:A I
*I vs_27_11:A I
*I vs_26_11:A I
*I vs_25_11:A I
*I vs_24_11:A I
*I vs_23_11:A I
*I vs_22_11:A I
*I vs_21_11:A I
*I vs_20_11:A I
*I vs_19_11:A I
*I vs_18_11:A I
*I vs_17_11:A I
*I vs_16_11:A I
*CAP
1 pgm_pp11_0_s1:1 2.295688e-02
*RES
1 lt_pp11_0_s1:Z pgm_pp11_0_s1:1 2.605105e+01
2 pgm_pp11_0_s1:1 vs_31_11:A 1.000000e-03
3 pgm_pp11_0_s1:1 vs_30_11:A 1.000000e-03
4 pgm_pp11_0_s1:1 vs_29_11:A 1.000000e-03
5 pgm_pp11_0_s1:1 vs_28_11:A 1.000000e-03
6 pgm_pp11_0_s1:1 vs_27_11:A 1.000000e-03
7 pgm_pp11_0_s1:1 vs_26_11:A 1.000000e-03
8 pgm_pp11_0_s1:1 vs_25_11:A 1.000000e-03
9 pgm_pp11_0_s1:1 vs_24_11:A 1.000000e-03
10 pgm_pp11_0_s1:1 vs_23_11:A 1.000000e-03
11 pgm_pp11_0_s1:1 vs_22_11:A 1.000000e-03
12 pgm_pp11_0_s1:1 vs_21_11:A 1.000000e-03
13 pgm_pp11_0_s1:1 vs_20_11:A 1.000000e-03
14 pgm_pp11_0_s1:1 vs_19_11:A 1.000000e-03
15 pgm_pp11_0_s1:1 vs_18_11:A 1.000000e-03
16 pgm_pp11_0_s1:1 vs_17_11:A 1.000000e-03
17 pgm_pp11_0_s1:1 vs_16_11:A 1.000000e-03
*END

*D_NET pgm_pp11_0_s2 2.358807e-02
*CONN
*I lt_pp11_0_s2:Z O
*I vs_47_11:A I
*I vs_46_11:A I
*I vs_45_11:A I
*I vs_44_11:A I
*I vs_43_11:A I
*I vs_42_11:A I
*I vs_41_11:A I
*I vs_40_11:A I
*I vs_39_11:A I
*I vs_38_11:A I
*I vs_37_11:A I
*I vs_36_11:A I
*I vs_35_11:A I
*I vs_34_11:A I
*I vs_33_11:A I
*I vs_32_11:A I
*CAP
1 pgm_pp11_0_s2:1 2.358807e-02
*RES
1 lt_pp11_0_s2:Z pgm_pp11_0_s2:1 2.490719e+01
2 pgm_pp11_0_s2:1 vs_47_11:A 1.000000e-03
3 pgm_pp11_0_s2:1 vs_46_11:A 1.000000e-03
4 pgm_pp11_0_s2:1 vs_45_11:A 1.000000e-03
5 pgm_pp11_0_s2:1 vs_44_11:A 1.000000e-03
6 pgm_pp11_0_s2:1 vs_43_11:A 1.000000e-03
7 pgm_pp11_0_s2:1 vs_42_11:A 1.000000e-03
8 pgm_pp11_0_s2:1 vs_41_11:A 1.000000e-03
9 pgm_pp11_0_s2:1 vs_40_11:A 1.000000e-03
10 pgm_pp11_0_s2:1 vs_39_11:A 1.000000e-03
11 pgm_pp11_0_s2:1 vs_38_11:A 1.000000e-03
12 pgm_pp11_0_s2:1 vs_37_11:A 1.000000e-03
13 pgm_pp11_0_s2:1 vs_36_11:A 1.000000e-03
14 pgm_pp11_0_s2:1 vs_35_11:A 1.000000e-03
15 pgm_pp11_0_s2:1 vs_34_11:A 1.000000e-03
16 pgm_pp11_0_s2:1 vs_33_11:A 1.000000e-03
17 pgm_pp11_0_s2:1 vs_32_11:A 1.000000e-03
*END

*D_NET pgm_pp11_0_s3 2.319981e-02
*CONN
*I lt_pp11_0_s3:Z O
*I vs_63_11:A I
*I vs_62_11:A I
*I vs_61_11:A I
*I vs_60_11:A I
*I vs_59_11:A I
*I vs_58_11:A I
*I vs_57_11:A I
*I vs_56_11:A I
*I vs_55_11:A I
*I vs_54_11:A I
*I vs_53_11:A I
*I vs_52_11:A I
*I vs_51_11:A I
*I vs_50_11:A I
*I vs_49_11:A I
*I vs_48_11:A I
*CAP
1 pgm_pp11_0_s3:1 2.319981e-02
*RES
1 lt_pp11_0_s3:Z pgm_pp11_0_s3:1 2.632673e+01
2 pgm_pp11_0_s3:1 vs_63_11:A 1.000000e-03
3 pgm_pp11_0_s3:1 vs_62_11:A 1.000000e-03
4 pgm_pp11_0_s3:1 vs_61_11:A 1.000000e-03
5 pgm_pp11_0_s3:1 vs_60_11:A 1.000000e-03
6 pgm_pp11_0_s3:1 vs_59_11:A 1.000000e-03
7 pgm_pp11_0_s3:1 vs_58_11:A 1.000000e-03
8 pgm_pp11_0_s3:1 vs_57_11:A 1.000000e-03
9 pgm_pp11_0_s3:1 vs_56_11:A 1.000000e-03
10 pgm_pp11_0_s3:1 vs_55_11:A 1.000000e-03
11 pgm_pp11_0_s3:1 vs_54_11:A 1.000000e-03
12 pgm_pp11_0_s3:1 vs_53_11:A 1.000000e-03
13 pgm_pp11_0_s3:1 vs_52_11:A 1.000000e-03
14 pgm_pp11_0_s3:1 vs_51_11:A 1.000000e-03
15 pgm_pp11_0_s3:1 vs_50_11:A 1.000000e-03
16 pgm_pp11_0_s3:1 vs_49_11:A 1.000000e-03
17 pgm_pp11_0_s3:1 vs_48_11:A 1.000000e-03
*END

*D_NET pgm_pp13_9_s0 2.254804e-02
*CONN
*I lt_pp13_9_s0:Z O
*I vs_15_13:A I
*I vs_14_13:A I
*I vs_13_13:A I
*I vs_12_13:A I
*I vs_11_13:A I
*I vs_10_13:A I
*I vs_9_13:A I
*I vs_8_13:A I
*I vs_7_13:A I
*I vs_6_13:A I
*I vs_5_13:A I
*I vs_4_13:A I
*I vs_3_13:A I
*I vs_2_13:A I
*I vs_1_13:A I
*I vs_0_13:A I
*CAP
1 pgm_pp13_9_s0:1 2.254804e-02
*RES
1 lt_pp13_9_s0:Z pgm_pp13_9_s0:1 2.558712e+01
2 pgm_pp13_9_s0:1 vs_15_13:A 1.000000e-03
3 pgm_pp13_9_s0:1 vs_14_13:A 1.000000e-03
4 pgm_pp13_9_s0:1 vs_13_13:A 1.000000e-03
5 pgm_pp13_9_s0:1 vs_12_13:A 1.000000e-03
6 pgm_pp13_9_s0:1 vs_11_13:A 1.000000e-03
7 pgm_pp13_9_s0:1 vs_10_13:A 1.000000e-03
8 pgm_pp13_9_s0:1 vs_9_13:A 1.000000e-03
9 pgm_pp13_9_s0:1 vs_8_13:A 1.000000e-03
10 pgm_pp13_9_s0:1 vs_7_13:A 1.000000e-03
11 pgm_pp13_9_s0:1 vs_6_13:A 1.000000e-03
12 pgm_pp13_9_s0:1 vs_5_13:A 1.000000e-03
13 pgm_pp13_9_s0:1 vs_4_13:A 1.000000e-03
14 pgm_pp13_9_s0:1 vs_3_13:A 1.000000e-03
15 pgm_pp13_9_s0:1 vs_2_13:A 1.000000e-03
16 pgm_pp13_9_s0:1 vs_1_13:A 1.000000e-03
17 pgm_pp13_9_s0:1 vs_0_13:A 1.000000e-03
*END

*D_NET pgm_pp13_9_s1 2.190221e-02
*CONN
*I lt_pp13_9_s1:Z O
*I vs_31_13:A I
*I vs_30_13:A I
*I vs_29_13:A I
*I vs_28_13:A I
*I vs_27_13:A I
*I vs_26_13:A I
*I vs_25_13:A I
*I vs_24_13:A I
*I vs_23_13:A I
*I vs_22_13:A I
*I vs_21_13:A I
*I vs_20_13:A I
*I vs_19_13:A I
*I vs_18_13:A I
*I vs_17_13:A I
*I vs_16_13:A I
*CAP
1 pgm_pp13_9_s1:1 2.190221e-02
*RES
1 lt_pp13_9_s1:Z pgm_pp13_9_s1:1 2.485423e+01
2 pgm_pp13_9_s1:1 vs_31_13:A 1.000000e-03
3 pgm_pp13_9_s1:1 vs_30_13:A 1.000000e-03
4 pgm_pp13_9_s1:1 vs_29_13:A 1.000000e-03
5 pgm_pp13_9_s1:1 vs_28_13:A 1.000000e-03
6 pgm_pp13_9_s1:1 vs_27_13:A 1.000000e-03
7 pgm_pp13_9_s1:1 vs_26_13:A 1.000000e-03
8 pgm_pp13_9_s1:1 vs_25_13:A 1.000000e-03
9 pgm_pp13_9_s1:1 vs_24_13:A 1.000000e-03
10 pgm_pp13_9_s1:1 vs_23_13:A 1.000000e-03
11 pgm_pp13_9_s1:1 vs_22_13:A 1.000000e-03
12 pgm_pp13_9_s1:1 vs_21_13:A 1.000000e-03
13 pgm_pp13_9_s1:1 vs_20_13:A 1.000000e-03
14 pgm_pp13_9_s1:1 vs_19_13:A 1.000000e-03
15 pgm_pp13_9_s1:1 vs_18_13:A 1.000000e-03
16 pgm_pp13_9_s1:1 vs_17_13:A 1.000000e-03
17 pgm_pp13_9_s1:1 vs_16_13:A 1.000000e-03
*END

*D_NET pgm_pp13_9_s2 2.205922e-02
*CONN
*I lt_pp13_9_s2:Z O
*I vs_47_13:A I
*I vs_46_13:A I
*I vs_45_13:A I
*I vs_44_13:A I
*I vs_43_13:A I
*I vs_42_13:A I
*I vs_41_13:A I
*I vs_40_13:A I
*I vs_39_13:A I
*I vs_38_13:A I
*I vs_37_13:A I
*I vs_36_13:A I
*I vs_35_13:A I
*I vs_34_13:A I
*I vs_33_13:A I
*I vs_32_13:A I
*CAP
1 pgm_pp13_9_s2:1 2.205922e-02
*RES
1 lt_pp13_9_s2:Z pgm_pp13_9_s2:1 2.503241e+01
2 pgm_pp13_9_s2:1 vs_47_13:A 1.000000e-03
3 pgm_pp13_9_s2:1 vs_46_13:A 1.000000e-03
4 pgm_pp13_9_s2:1 vs_45_13:A 1.000000e-03
5 pgm_pp13_9_s2:1 vs_44_13:A 1.000000e-03
6 pgm_pp13_9_s2:1 vs_43_13:A 1.000000e-03
7 pgm_pp13_9_s2:1 vs_42_13:A 1.000000e-03
8 pgm_pp13_9_s2:1 vs_41_13:A 1.000000e-03
9 pgm_pp13_9_s2:1 vs_40_13:A 1.000000e-03
10 pgm_pp13_9_s2:1 vs_39_13:A 1.000000e-03
11 pgm_pp13_9_s2:1 vs_38_13:A 1.000000e-03
12 pgm_pp13_9_s2:1 vs_37_13:A 1.000000e-03
13 pgm_pp13_9_s2:1 vs_36_13:A 1.000000e-03
14 pgm_pp13_9_s2:1 vs_35_13:A 1.000000e-03
15 pgm_pp13_9_s2:1 vs_34_13:A 1.000000e-03
16 pgm_pp13_9_s2:1 vs_33_13:A 1.000000e-03
17 pgm_pp13_9_s2:1 vs_32_13:A 1.000000e-03
*END

*D_NET pgm_pp13_9_s3 2.224586e-02
*CONN
*I lt_pp13_9_s3:Z O
*I vs_63_13:A I
*I vs_62_13:A I
*I vs_61_13:A I
*I vs_60_13:A I
*I vs_59_13:A I
*I vs_58_13:A I
*I vs_57_13:A I
*I vs_56_13:A I
*I vs_55_13:A I
*I vs_54_13:A I
*I vs_53_13:A I
*I vs_52_13:A I
*I vs_51_13:A I
*I vs_50_13:A I
*I vs_49_13:A I
*I vs_48_13:A I
*CAP
1 pgm_pp13_9_s3:1 2.224586e-02
*RES
1 lt_pp13_9_s3:Z pgm_pp13_9_s3:1 2.524421e+01
2 pgm_pp13_9_s3:1 vs_63_13:A 1.000000e-03
3 pgm_pp13_9_s3:1 vs_62_13:A 1.000000e-03
4 pgm_pp13_9_s3:1 vs_61_13:A 1.000000e-03
5 pgm_pp13_9_s3:1 vs_60_13:A 1.000000e-03
6 pgm_pp13_9_s3:1 vs_59_13:A 1.000000e-03
7 pgm_pp13_9_s3:1 vs_58_13:A 1.000000e-03
8 pgm_pp13_9_s3:1 vs_57_13:A 1.000000e-03
9 pgm_pp13_9_s3:1 vs_56_13:A 1.000000e-03
10 pgm_pp13_9_s3:1 vs_55_13:A 1.000000e-03
11 pgm_pp13_9_s3:1 vs_54_13:A 1.000000e-03
12 pgm_pp13_9_s3:1 vs_53_13:A 1.000000e-03
13 pgm_pp13_9_s3:1 vs_52_13:A 1.000000e-03
14 pgm_pp13_9_s3:1 vs_51_13:A 1.000000e-03
15 pgm_pp13_9_s3:1 vs_50_13:A 1.000000e-03
16 pgm_pp13_9_s3:1 vs_49_13:A 1.000000e-03
17 pgm_pp13_9_s3:1 vs_48_13:A 1.000000e-03
*END

*D_NET pgm_pp14_0_s0 2.368863e-02
*CONN
*I lt_pp14_0_s0:Z O
*I vs_15_14:A I
*I vs_14_14:A I
*I vs_13_14:A I
*I vs_12_14:A I
*I vs_11_14:A I
*I vs_10_14:A I
*I vs_9_14:A I
*I vs_8_14:A I
*I vs_7_14:A I
*I vs_6_14:A I
*I vs_5_14:A I
*I vs_4_14:A I
*I vs_3_14:A I
*I vs_2_14:A I
*I vs_1_14:A I
*I vs_0_14:A I
*CAP
1 pgm_pp14_0_s0:1 2.368863e-02
*RES
1 lt_pp14_0_s0:Z pgm_pp14_0_s0:1 2.688143e+01
2 pgm_pp14_0_s0:1 vs_15_14:A 1.000000e-03
3 pgm_pp14_0_s0:1 vs_14_14:A 1.000000e-03
4 pgm_pp14_0_s0:1 vs_13_14:A 1.000000e-03
5 pgm_pp14_0_s0:1 vs_12_14:A 1.000000e-03
6 pgm_pp14_0_s0:1 vs_11_14:A 1.000000e-03
7 pgm_pp14_0_s0:1 vs_10_14:A 1.000000e-03
8 pgm_pp14_0_s0:1 vs_9_14:A 1.000000e-03
9 pgm_pp14_0_s0:1 vs_8_14:A 1.000000e-03
10 pgm_pp14_0_s0:1 vs_7_14:A 1.000000e-03
11 pgm_pp14_0_s0:1 vs_6_14:A 1.000000e-03
12 pgm_pp14_0_s0:1 vs_5_14:A 1.000000e-03
13 pgm_pp14_0_s0:1 vs_4_14:A 1.000000e-03
14 pgm_pp14_0_s0:1 vs_3_14:A 1.000000e-03
15 pgm_pp14_0_s0:1 vs_2_14:A 1.000000e-03
16 pgm_pp14_0_s0:1 vs_1_14:A 1.000000e-03
17 pgm_pp14_0_s0:1 vs_0_14:A 1.000000e-03
*END

*D_NET pgm_pp14_0_s1 2.295688e-02
*CONN
*I lt_pp14_0_s1:Z O
*I vs_31_14:A I
*I vs_30_14:A I
*I vs_29_14:A I
*I vs_28_14:A I
*I vs_27_14:A I
*I vs_26_14:A I
*I vs_25_14:A I
*I vs_24_14:A I
*I vs_23_14:A I
*I vs_22_14:A I
*I vs_21_14:A I
*I vs_20_14:A I
*I vs_19_14:A I
*I vs_18_14:A I
*I vs_17_14:A I
*I vs_16_14:A I
*CAP
1 pgm_pp14_0_s1:1 2.295688e-02
*RES
1 lt_pp14_0_s1:Z pgm_pp14_0_s1:1 2.605105e+01
2 pgm_pp14_0_s1:1 vs_31_14:A 1.000000e-03
3 pgm_pp14_0_s1:1 vs_30_14:A 1.000000e-03
4 pgm_pp14_0_s1:1 vs_29_14:A 1.000000e-03
5 pgm_pp14_0_s1:1 vs_28_14:A 1.000000e-03
6 pgm_pp14_0_s1:1 vs_27_14:A 1.000000e-03
7 pgm_pp14_0_s1:1 vs_26_14:A 1.000000e-03
8 pgm_pp14_0_s1:1 vs_25_14:A 1.000000e-03
9 pgm_pp14_0_s1:1 vs_24_14:A 1.000000e-03
10 pgm_pp14_0_s1:1 vs_23_14:A 1.000000e-03
11 pgm_pp14_0_s1:1 vs_22_14:A 1.000000e-03
12 pgm_pp14_0_s1:1 vs_21_14:A 1.000000e-03
13 pgm_pp14_0_s1:1 vs_20_14:A 1.000000e-03
14 pgm_pp14_0_s1:1 vs_19_14:A 1.000000e-03
15 pgm_pp14_0_s1:1 vs_18_14:A 1.000000e-03
16 pgm_pp14_0_s1:1 vs_17_14:A 1.000000e-03
17 pgm_pp14_0_s1:1 vs_16_14:A 1.000000e-03
*END

*D_NET pgm_pp14_0_s2 2.287689e-02
*CONN
*I lt_pp14_0_s2:Z O
*I vs_47_14:A I
*I vs_46_14:A I
*I vs_45_14:A I
*I vs_44_14:A I
*I vs_43_14:A I
*I vs_42_14:A I
*I vs_41_14:A I
*I vs_40_14:A I
*I vs_39_14:A I
*I vs_38_14:A I
*I vs_37_14:A I
*I vs_36_14:A I
*I vs_35_14:A I
*I vs_34_14:A I
*I vs_33_14:A I
*I vs_32_14:A I
*CAP
1 pgm_pp14_0_s2:1 2.287689e-02
*RES
1 lt_pp14_0_s2:Z pgm_pp14_0_s2:1 2.596028e+01
2 pgm_pp14_0_s2:1 vs_47_14:A 1.000000e-03
3 pgm_pp14_0_s2:1 vs_46_14:A 1.000000e-03
4 pgm_pp14_0_s2:1 vs_45_14:A 1.000000e-03
5 pgm_pp14_0_s2:1 vs_44_14:A 1.000000e-03
6 pgm_pp14_0_s2:1 vs_43_14:A 1.000000e-03
7 pgm_pp14_0_s2:1 vs_42_14:A 1.000000e-03
8 pgm_pp14_0_s2:1 vs_41_14:A 1.000000e-03
9 pgm_pp14_0_s2:1 vs_40_14:A 1.000000e-03
10 pgm_pp14_0_s2:1 vs_39_14:A 1.000000e-03
11 pgm_pp14_0_s2:1 vs_38_14:A 1.000000e-03
12 pgm_pp14_0_s2:1 vs_37_14:A 1.000000e-03
13 pgm_pp14_0_s2:1 vs_36_14:A 1.000000e-03
14 pgm_pp14_0_s2:1 vs_35_14:A 1.000000e-03
15 pgm_pp14_0_s2:1 vs_34_14:A 1.000000e-03
16 pgm_pp14_0_s2:1 vs_33_14:A 1.000000e-03
17 pgm_pp14_0_s2:1 vs_32_14:A 1.000000e-03
*END

*D_NET pgm_pp14_0_s3 2.319981e-02
*CONN
*I lt_pp14_0_s3:Z O
*I vs_63_14:A I
*I vs_62_14:A I
*I vs_61_14:A I
*I vs_60_14:A I
*I vs_59_14:A I
*I vs_58_14:A I
*I vs_57_14:A I
*I vs_56_14:A I
*I vs_55_14:A I
*I vs_54_14:A I
*I vs_53_14:A I
*I vs_52_14:A I
*I vs_51_14:A I
*I vs_50_14:A I
*I vs_49_14:A I
*I vs_48_14:A I
*CAP
1 pgm_pp14_0_s3:1 2.319981e-02
*RES
1 lt_pp14_0_s3:Z pgm_pp14_0_s3:1 2.632673e+01
2 pgm_pp14_0_s3:1 vs_63_14:A 1.000000e-03
3 pgm_pp14_0_s3:1 vs_62_14:A 1.000000e-03
4 pgm_pp14_0_s3:1 vs_61_14:A 1.000000e-03
5 pgm_pp14_0_s3:1 vs_60_14:A 1.000000e-03
6 pgm_pp14_0_s3:1 vs_59_14:A 1.000000e-03
7 pgm_pp14_0_s3:1 vs_58_14:A 1.000000e-03
8 pgm_pp14_0_s3:1 vs_57_14:A 1.000000e-03
9 pgm_pp14_0_s3:1 vs_56_14:A 1.000000e-03
10 pgm_pp14_0_s3:1 vs_55_14:A 1.000000e-03
11 pgm_pp14_0_s3:1 vs_54_14:A 1.000000e-03
12 pgm_pp14_0_s3:1 vs_53_14:A 1.000000e-03
13 pgm_pp14_0_s3:1 vs_52_14:A 1.000000e-03
14 pgm_pp14_0_s3:1 vs_51_14:A 1.000000e-03
15 pgm_pp14_0_s3:1 vs_50_14:A 1.000000e-03
16 pgm_pp14_0_s3:1 vs_49_14:A 1.000000e-03
17 pgm_pp14_0_s3:1 vs_48_14:A 1.000000e-03
*END

*D_NET pgm_pp1_4_s0 2.266358e-02
*CONN
*I lt_pp1_4_s0:Z O
*I vs_15_1:A I
*I vs_14_1:A I
*I vs_13_1:A I
*I vs_12_1:A I
*I vs_11_1:A I
*I vs_10_1:A I
*I vs_9_1:A I
*I vs_8_1:A I
*I vs_7_1:A I
*I vs_6_1:A I
*I vs_5_1:A I
*I vs_4_1:A I
*I vs_3_1:A I
*I vs_2_1:A I
*I vs_1_1:A I
*I vs_0_1:A I
*CAP
1 pgm_pp1_4_s0:1 2.266358e-02
*RES
1 lt_pp1_4_s0:Z pgm_pp1_4_s0:1 2.571823e+01
2 pgm_pp1_4_s0:1 vs_15_1:A 1.000000e-03
3 pgm_pp1_4_s0:1 vs_14_1:A 1.000000e-03
4 pgm_pp1_4_s0:1 vs_13_1:A 1.000000e-03
5 pgm_pp1_4_s0:1 vs_12_1:A 1.000000e-03
6 pgm_pp1_4_s0:1 vs_11_1:A 1.000000e-03
7 pgm_pp1_4_s0:1 vs_10_1:A 1.000000e-03
8 pgm_pp1_4_s0:1 vs_9_1:A 1.000000e-03
9 pgm_pp1_4_s0:1 vs_8_1:A 1.000000e-03
10 pgm_pp1_4_s0:1 vs_7_1:A 1.000000e-03
11 pgm_pp1_4_s0:1 vs_6_1:A 1.000000e-03
12 pgm_pp1_4_s0:1 vs_5_1:A 1.000000e-03
13 pgm_pp1_4_s0:1 vs_4_1:A 1.000000e-03
14 pgm_pp1_4_s0:1 vs_3_1:A 1.000000e-03
15 pgm_pp1_4_s0:1 vs_2_1:A 1.000000e-03
16 pgm_pp1_4_s0:1 vs_1_1:A 1.000000e-03
17 pgm_pp1_4_s0:1 vs_0_1:A 1.000000e-03
*END

*D_NET pgm_pp1_4_s1 2.141338e-02
*CONN
*I lt_pp1_4_s1:Z O
*I vs_31_1:A I
*I vs_30_1:A I
*I vs_29_1:A I
*I vs_28_1:A I
*I vs_27_1:A I
*I vs_26_1:A I
*I vs_25_1:A I
*I vs_24_1:A I
*I vs_23_1:A I
*I vs_22_1:A I
*I vs_21_1:A I
*I vs_20_1:A I
*I vs_19_1:A I
*I vs_18_1:A I
*I vs_17_1:A I
*I vs_16_1:A I
*CAP
1 pgm_pp1_4_s1:1 2.141338e-02
*RES
1 lt_pp1_4_s1:Z pgm_pp1_4_s1:1 2.429952e+01
2 pgm_pp1_4_s1:1 vs_31_1:A 1.000000e-03
3 pgm_pp1_4_s1:1 vs_30_1:A 1.000000e-03
4 pgm_pp1_4_s1:1 vs_29_1:A 1.000000e-03
5 pgm_pp1_4_s1:1 vs_28_1:A 1.000000e-03
6 pgm_pp1_4_s1:1 vs_27_1:A 1.000000e-03
7 pgm_pp1_4_s1:1 vs_26_1:A 1.000000e-03
8 pgm_pp1_4_s1:1 vs_25_1:A 1.000000e-03
9 pgm_pp1_4_s1:1 vs_24_1:A 1.000000e-03
10 pgm_pp1_4_s1:1 vs_23_1:A 1.000000e-03
11 pgm_pp1_4_s1:1 vs_22_1:A 1.000000e-03
12 pgm_pp1_4_s1:1 vs_21_1:A 1.000000e-03
13 pgm_pp1_4_s1:1 vs_20_1:A 1.000000e-03
14 pgm_pp1_4_s1:1 vs_19_1:A 1.000000e-03
15 pgm_pp1_4_s1:1 vs_18_1:A 1.000000e-03
16 pgm_pp1_4_s1:1 vs_17_1:A 1.000000e-03
17 pgm_pp1_4_s1:1 vs_16_1:A 1.000000e-03
*END

*D_NET pgm_pp1_4_s2 2.178667e-02
*CONN
*I lt_pp1_4_s2:Z O
*I vs_47_1:A I
*I vs_46_1:A I
*I vs_45_1:A I
*I vs_44_1:A I
*I vs_43_1:A I
*I vs_42_1:A I
*I vs_41_1:A I
*I vs_40_1:A I
*I vs_39_1:A I
*I vs_38_1:A I
*I vs_37_1:A I
*I vs_36_1:A I
*I vs_35_1:A I
*I vs_34_1:A I
*I vs_33_1:A I
*I vs_32_1:A I
*CAP
1 pgm_pp1_4_s2:1 2.178667e-02
*RES
1 lt_pp1_4_s2:Z pgm_pp1_4_s2:1 2.472312e+01
2 pgm_pp1_4_s2:1 vs_47_1:A 1.000000e-03
3 pgm_pp1_4_s2:1 vs_46_1:A 1.000000e-03
4 pgm_pp1_4_s2:1 vs_45_1:A 1.000000e-03
5 pgm_pp1_4_s2:1 vs_44_1:A 1.000000e-03
6 pgm_pp1_4_s2:1 vs_43_1:A 1.000000e-03
7 pgm_pp1_4_s2:1 vs_42_1:A 1.000000e-03
8 pgm_pp1_4_s2:1 vs_41_1:A 1.000000e-03
9 pgm_pp1_4_s2:1 vs_40_1:A 1.000000e-03
10 pgm_pp1_4_s2:1 vs_39_1:A 1.000000e-03
11 pgm_pp1_4_s2:1 vs_38_1:A 1.000000e-03
12 pgm_pp1_4_s2:1 vs_37_1:A 1.000000e-03
13 pgm_pp1_4_s2:1 vs_36_1:A 1.000000e-03
14 pgm_pp1_4_s2:1 vs_35_1:A 1.000000e-03
15 pgm_pp1_4_s2:1 vs_34_1:A 1.000000e-03
16 pgm_pp1_4_s2:1 vs_33_1:A 1.000000e-03
17 pgm_pp1_4_s2:1 vs_32_1:A 1.000000e-03
*END

*D_NET pgm_pp1_4_s3 2.246213e-02
*CONN
*I lt_pp1_4_s3:Z O
*I vs_63_1:A I
*I vs_62_1:A I
*I vs_61_1:A I
*I vs_60_1:A I
*I vs_59_1:A I
*I vs_58_1:A I
*I vs_57_1:A I
*I vs_56_1:A I
*I vs_55_1:A I
*I vs_54_1:A I
*I vs_53_1:A I
*I vs_52_1:A I
*I vs_51_1:A I
*I vs_50_1:A I
*I vs_49_1:A I
*I vs_48_1:A I
*CAP
1 pgm_pp1_4_s3:1 2.246213e-02
*RES
1 lt_pp1_4_s3:Z pgm_pp1_4_s3:1 2.548962e+01
2 pgm_pp1_4_s3:1 vs_63_1:A 1.000000e-03
3 pgm_pp1_4_s3:1 vs_62_1:A 1.000000e-03
4 pgm_pp1_4_s3:1 vs_61_1:A 1.000000e-03
5 pgm_pp1_4_s3:1 vs_60_1:A 1.000000e-03
6 pgm_pp1_4_s3:1 vs_59_1:A 1.000000e-03
7 pgm_pp1_4_s3:1 vs_58_1:A 1.000000e-03
8 pgm_pp1_4_s3:1 vs_57_1:A 1.000000e-03
9 pgm_pp1_4_s3:1 vs_56_1:A 1.000000e-03
10 pgm_pp1_4_s3:1 vs_55_1:A 1.000000e-03
11 pgm_pp1_4_s3:1 vs_54_1:A 1.000000e-03
12 pgm_pp1_4_s3:1 vs_53_1:A 1.000000e-03
13 pgm_pp1_4_s3:1 vs_52_1:A 1.000000e-03
14 pgm_pp1_4_s3:1 vs_51_1:A 1.000000e-03
15 pgm_pp1_4_s3:1 vs_50_1:A 1.000000e-03
16 pgm_pp1_4_s3:1 vs_49_1:A 1.000000e-03
17 pgm_pp1_4_s3:1 vs_48_1:A 1.000000e-03
*END

*D_NET pgm_pp20_11_s0 2.295688e-02
*CONN
*I lt_pp20_11_s0:Z O
*I vs_15_20:A I
*I vs_14_20:A I
*I vs_13_20:A I
*I vs_12_20:A I
*I vs_11_20:A I
*I vs_10_20:A I
*I vs_9_20:A I
*I vs_8_20:A I
*I vs_7_20:A I
*I vs_6_20:A I
*I vs_5_20:A I
*I vs_4_20:A I
*I vs_3_20:A I
*I vs_2_20:A I
*I vs_1_20:A I
*I vs_0_20:A I
*CAP
1 pgm_pp20_11_s0:1 2.295688e-02
*RES
1 lt_pp20_11_s0:Z pgm_pp20_11_s0:1 2.605105e+01
2 pgm_pp20_11_s0:1 vs_15_20:A 1.000000e-03
3 pgm_pp20_11_s0:1 vs_14_20:A 1.000000e-03
4 pgm_pp20_11_s0:1 vs_13_20:A 1.000000e-03
5 pgm_pp20_11_s0:1 vs_12_20:A 1.000000e-03
6 pgm_pp20_11_s0:1 vs_11_20:A 1.000000e-03
7 pgm_pp20_11_s0:1 vs_10_20:A 1.000000e-03
8 pgm_pp20_11_s0:1 vs_9_20:A 1.000000e-03
9 pgm_pp20_11_s0:1 vs_8_20:A 1.000000e-03
10 pgm_pp20_11_s0:1 vs_7_20:A 1.000000e-03
11 pgm_pp20_11_s0:1 vs_6_20:A 1.000000e-03
12 pgm_pp20_11_s0:1 vs_5_20:A 1.000000e-03
13 pgm_pp20_11_s0:1 vs_4_20:A 1.000000e-03
14 pgm_pp20_11_s0:1 vs_3_20:A 1.000000e-03
15 pgm_pp20_11_s0:1 vs_2_20:A 1.000000e-03
16 pgm_pp20_11_s0:1 vs_1_20:A 1.000000e-03
17 pgm_pp20_11_s0:1 vs_0_20:A 1.000000e-03
*END

*D_NET pgm_pp20_11_s1 2.236140e-02
*CONN
*I lt_pp20_11_s1:Z O
*I vs_31_20:A I
*I vs_30_20:A I
*I vs_29_20:A I
*I vs_28_20:A I
*I vs_27_20:A I
*I vs_26_20:A I
*I vs_25_20:A I
*I vs_24_20:A I
*I vs_23_20:A I
*I vs_22_20:A I
*I vs_21_20:A I
*I vs_20_20:A I
*I vs_19_20:A I
*I vs_18_20:A I
*I vs_17_20:A I
*I vs_16_20:A I
*CAP
1 pgm_pp20_11_s1:1 2.236140e-02
*RES
1 lt_pp20_11_s1:Z pgm_pp20_11_s1:1 2.537532e+01
2 pgm_pp20_11_s1:1 vs_31_20:A 1.000000e-03
3 pgm_pp20_11_s1:1 vs_30_20:A 1.000000e-03
4 pgm_pp20_11_s1:1 vs_29_20:A 1.000000e-03
5 pgm_pp20_11_s1:1 vs_28_20:A 1.000000e-03
6 pgm_pp20_11_s1:1 vs_27_20:A 1.000000e-03
7 pgm_pp20_11_s1:1 vs_26_20:A 1.000000e-03
8 pgm_pp20_11_s1:1 vs_25_20:A 1.000000e-03
9 pgm_pp20_11_s1:1 vs_24_20:A 1.000000e-03
10 pgm_pp20_11_s1:1 vs_23_20:A 1.000000e-03
11 pgm_pp20_11_s1:1 vs_22_20:A 1.000000e-03
12 pgm_pp20_11_s1:1 vs_21_20:A 1.000000e-03
13 pgm_pp20_11_s1:1 vs_20_20:A 1.000000e-03
14 pgm_pp20_11_s1:1 vs_19_20:A 1.000000e-03
15 pgm_pp20_11_s1:1 vs_18_20:A 1.000000e-03
16 pgm_pp20_11_s1:1 vs_17_20:A 1.000000e-03
17 pgm_pp20_11_s1:1 vs_16_20:A 1.000000e-03
*END

*D_NET pgm_pp20_11_s2 2.282060e-02
*CONN
*I lt_pp20_11_s2:Z O
*I vs_47_20:A I
*I vs_46_20:A I
*I vs_45_20:A I
*I vs_44_20:A I
*I vs_43_20:A I
*I vs_42_20:A I
*I vs_41_20:A I
*I vs_40_20:A I
*I vs_39_20:A I
*I vs_38_20:A I
*I vs_37_20:A I
*I vs_36_20:A I
*I vs_35_20:A I
*I vs_34_20:A I
*I vs_33_20:A I
*I vs_32_20:A I
*CAP
1 pgm_pp20_11_s2:1 2.282060e-02
*RES
1 lt_pp20_11_s2:Z pgm_pp20_11_s2:1 2.589641e+01
2 pgm_pp20_11_s2:1 vs_47_20:A 1.000000e-03
3 pgm_pp20_11_s2:1 vs_46_20:A 1.000000e-03
4 pgm_pp20_11_s2:1 vs_45_20:A 1.000000e-03
5 pgm_pp20_11_s2:1 vs_44_20:A 1.000000e-03
6 pgm_pp20_11_s2:1 vs_43_20:A 1.000000e-03
7 pgm_pp20_11_s2:1 vs_42_20:A 1.000000e-03
8 pgm_pp20_11_s2:1 vs_41_20:A 1.000000e-03
9 pgm_pp20_11_s2:1 vs_40_20:A 1.000000e-03
10 pgm_pp20_11_s2:1 vs_39_20:A 1.000000e-03
11 pgm_pp20_11_s2:1 vs_38_20:A 1.000000e-03
12 pgm_pp20_11_s2:1 vs_37_20:A 1.000000e-03
13 pgm_pp20_11_s2:1 vs_36_20:A 1.000000e-03
14 pgm_pp20_11_s2:1 vs_35_20:A 1.000000e-03
15 pgm_pp20_11_s2:1 vs_34_20:A 1.000000e-03
16 pgm_pp20_11_s2:1 vs_33_20:A 1.000000e-03
17 pgm_pp20_11_s2:1 vs_32_20:A 1.000000e-03
*END

*D_NET pgm_pp20_11_s3 2.265470e-02
*CONN
*I lt_pp20_11_s3:Z O
*I vs_63_20:A I
*I vs_62_20:A I
*I vs_61_20:A I
*I vs_60_20:A I
*I vs_59_20:A I
*I vs_58_20:A I
*I vs_57_20:A I
*I vs_56_20:A I
*I vs_55_20:A I
*I vs_54_20:A I
*I vs_53_20:A I
*I vs_52_20:A I
*I vs_51_20:A I
*I vs_50_20:A I
*I vs_49_20:A I
*I vs_48_20:A I
*CAP
1 pgm_pp20_11_s3:1 2.265470e-02
*RES
1 lt_pp20_11_s3:Z pgm_pp20_11_s3:1 2.570814e+01
2 pgm_pp20_11_s3:1 vs_63_20:A 1.000000e-03
3 pgm_pp20_11_s3:1 vs_62_20:A 1.000000e-03
4 pgm_pp20_11_s3:1 vs_61_20:A 1.000000e-03
5 pgm_pp20_11_s3:1 vs_60_20:A 1.000000e-03
6 pgm_pp20_11_s3:1 vs_59_20:A 1.000000e-03
7 pgm_pp20_11_s3:1 vs_58_20:A 1.000000e-03
8 pgm_pp20_11_s3:1 vs_57_20:A 1.000000e-03
9 pgm_pp20_11_s3:1 vs_56_20:A 1.000000e-03
10 pgm_pp20_11_s3:1 vs_55_20:A 1.000000e-03
11 pgm_pp20_11_s3:1 vs_54_20:A 1.000000e-03
12 pgm_pp20_11_s3:1 vs_53_20:A 1.000000e-03
13 pgm_pp20_11_s3:1 vs_52_20:A 1.000000e-03
14 pgm_pp20_11_s3:1 vs_51_20:A 1.000000e-03
15 pgm_pp20_11_s3:1 vs_50_20:A 1.000000e-03
16 pgm_pp20_11_s3:1 vs_49_20:A 1.000000e-03
17 pgm_pp20_11_s3:1 vs_48_20:A 1.000000e-03
*END

*D_NET pgm_pp3_3_s0 2.295095e-02
*CONN
*I lt_pp3_3_s0:Z O
*I vs_15_3:A I
*I vs_14_3:A I
*I vs_13_3:A I
*I vs_12_3:A I
*I vs_11_3:A I
*I vs_10_3:A I
*I vs_9_3:A I
*I vs_8_3:A I
*I vs_7_3:A I
*I vs_6_3:A I
*I vs_5_3:A I
*I vs_4_3:A I
*I vs_3_3:A I
*I vs_2_3:A I
*I vs_1_3:A I
*I vs_0_3:A I
*CAP
1 pgm_pp3_3_s0:1 2.295095e-02
*RES
1 lt_pp3_3_s0:Z pgm_pp3_3_s0:1 2.604433e+01
2 pgm_pp3_3_s0:1 vs_15_3:A 1.000000e-03
3 pgm_pp3_3_s0:1 vs_14_3:A 1.000000e-03
4 pgm_pp3_3_s0:1 vs_13_3:A 1.000000e-03
5 pgm_pp3_3_s0:1 vs_12_3:A 1.000000e-03
6 pgm_pp3_3_s0:1 vs_11_3:A 1.000000e-03
7 pgm_pp3_3_s0:1 vs_10_3:A 1.000000e-03
8 pgm_pp3_3_s0:1 vs_9_3:A 1.000000e-03
9 pgm_pp3_3_s0:1 vs_8_3:A 1.000000e-03
10 pgm_pp3_3_s0:1 vs_7_3:A 1.000000e-03
11 pgm_pp3_3_s0:1 vs_6_3:A 1.000000e-03
12 pgm_pp3_3_s0:1 vs_5_3:A 1.000000e-03
13 pgm_pp3_3_s0:1 vs_4_3:A 1.000000e-03
14 pgm_pp3_3_s0:1 vs_3_3:A 1.000000e-03
15 pgm_pp3_3_s0:1 vs_2_3:A 1.000000e-03
16 pgm_pp3_3_s0:1 vs_1_3:A 1.000000e-03
17 pgm_pp3_3_s0:1 vs_0_3:A 1.000000e-03
*END

*D_NET pgm_pp3_3_s1 2.176593e-02
*CONN
*I lt_pp3_3_s1:Z O
*I vs_31_3:A I
*I vs_30_3:A I
*I vs_29_3:A I
*I vs_28_3:A I
*I vs_27_3:A I
*I vs_26_3:A I
*I vs_25_3:A I
*I vs_24_3:A I
*I vs_23_3:A I
*I vs_22_3:A I
*I vs_21_3:A I
*I vs_20_3:A I
*I vs_19_3:A I
*I vs_18_3:A I
*I vs_17_3:A I
*I vs_16_3:A I
*CAP
1 pgm_pp3_3_s1:1 2.176593e-02
*RES
1 lt_pp3_3_s1:Z pgm_pp3_3_s1:1 2.469959e+01
2 pgm_pp3_3_s1:1 vs_31_3:A 1.000000e-03
3 pgm_pp3_3_s1:1 vs_30_3:A 1.000000e-03
4 pgm_pp3_3_s1:1 vs_29_3:A 1.000000e-03
5 pgm_pp3_3_s1:1 vs_28_3:A 1.000000e-03
6 pgm_pp3_3_s1:1 vs_27_3:A 1.000000e-03
7 pgm_pp3_3_s1:1 vs_26_3:A 1.000000e-03
8 pgm_pp3_3_s1:1 vs_25_3:A 1.000000e-03
9 pgm_pp3_3_s1:1 vs_24_3:A 1.000000e-03
10 pgm_pp3_3_s1:1 vs_23_3:A 1.000000e-03
11 pgm_pp3_3_s1:1 vs_22_3:A 1.000000e-03
12 pgm_pp3_3_s1:1 vs_21_3:A 1.000000e-03
13 pgm_pp3_3_s1:1 vs_20_3:A 1.000000e-03
14 pgm_pp3_3_s1:1 vs_19_3:A 1.000000e-03
15 pgm_pp3_3_s1:1 vs_18_3:A 1.000000e-03
16 pgm_pp3_3_s1:1 vs_17_3:A 1.000000e-03
17 pgm_pp3_3_s1:1 vs_16_3:A 1.000000e-03
*END

*D_NET pgm_pp3_3_s2 2.192294e-02
*CONN
*I lt_pp3_3_s2:Z O
*I vs_47_3:A I
*I vs_46_3:A I
*I vs_45_3:A I
*I vs_44_3:A I
*I vs_43_3:A I
*I vs_42_3:A I
*I vs_41_3:A I
*I vs_40_3:A I
*I vs_39_3:A I
*I vs_38_3:A I
*I vs_37_3:A I
*I vs_36_3:A I
*I vs_35_3:A I
*I vs_34_3:A I
*I vs_33_3:A I
*I vs_32_3:A I
*CAP
1 pgm_pp3_3_s2:1 2.192294e-02
*RES
1 lt_pp3_3_s2:Z pgm_pp3_3_s2:1 2.487776e+01
2 pgm_pp3_3_s2:1 vs_47_3:A 1.000000e-03
3 pgm_pp3_3_s2:1 vs_46_3:A 1.000000e-03
4 pgm_pp3_3_s2:1 vs_45_3:A 1.000000e-03
5 pgm_pp3_3_s2:1 vs_44_3:A 1.000000e-03
6 pgm_pp3_3_s2:1 vs_43_3:A 1.000000e-03
7 pgm_pp3_3_s2:1 vs_42_3:A 1.000000e-03
8 pgm_pp3_3_s2:1 vs_41_3:A 1.000000e-03
9 pgm_pp3_3_s2:1 vs_40_3:A 1.000000e-03
10 pgm_pp3_3_s2:1 vs_39_3:A 1.000000e-03
11 pgm_pp3_3_s2:1 vs_38_3:A 1.000000e-03
12 pgm_pp3_3_s2:1 vs_37_3:A 1.000000e-03
13 pgm_pp3_3_s2:1 vs_36_3:A 1.000000e-03
14 pgm_pp3_3_s2:1 vs_35_3:A 1.000000e-03
15 pgm_pp3_3_s2:1 vs_34_3:A 1.000000e-03
16 pgm_pp3_3_s2:1 vs_33_3:A 1.000000e-03
17 pgm_pp3_3_s2:1 vs_32_3:A 1.000000e-03
*END

*D_NET pgm_pp3_3_s3 2.224586e-02
*CONN
*I lt_pp3_3_s3:Z O
*I vs_63_3:A I
*I vs_62_3:A I
*I vs_61_3:A I
*I vs_60_3:A I
*I vs_59_3:A I
*I vs_58_3:A I
*I vs_57_3:A I
*I vs_56_3:A I
*I vs_55_3:A I
*I vs_54_3:A I
*I vs_53_3:A I
*I vs_52_3:A I
*I vs_51_3:A I
*I vs_50_3:A I
*I vs_49_3:A I
*I vs_48_3:A I
*CAP
1 pgm_pp3_3_s3:1 2.224586e-02
*RES
1 lt_pp3_3_s3:Z pgm_pp3_3_s3:1 2.524421e+01
2 pgm_pp3_3_s3:1 vs_63_3:A 1.000000e-03
3 pgm_pp3_3_s3:1 vs_62_3:A 1.000000e-03
4 pgm_pp3_3_s3:1 vs_61_3:A 1.000000e-03
5 pgm_pp3_3_s3:1 vs_60_3:A 1.000000e-03
6 pgm_pp3_3_s3:1 vs_59_3:A 1.000000e-03
7 pgm_pp3_3_s3:1 vs_58_3:A 1.000000e-03
8 pgm_pp3_3_s3:1 vs_57_3:A 1.000000e-03
9 pgm_pp3_3_s3:1 vs_56_3:A 1.000000e-03
10 pgm_pp3_3_s3:1 vs_55_3:A 1.000000e-03
11 pgm_pp3_3_s3:1 vs_54_3:A 1.000000e-03
12 pgm_pp3_3_s3:1 vs_53_3:A 1.000000e-03
13 pgm_pp3_3_s3:1 vs_52_3:A 1.000000e-03
14 pgm_pp3_3_s3:1 vs_51_3:A 1.000000e-03
15 pgm_pp3_3_s3:1 vs_50_3:A 1.000000e-03
16 pgm_pp3_3_s3:1 vs_49_3:A 1.000000e-03
17 pgm_pp3_3_s3:1 vs_48_3:A 1.000000e-03
*END

*D_NET pgm_pp5_11_s0 2.334497e-02
*CONN
*I lt_pp5_11_s0:Z O
*I vs_15_5:A I
*I vs_14_5:A I
*I vs_13_5:A I
*I vs_12_5:A I
*I vs_11_5:A I
*I vs_10_5:A I
*I vs_9_5:A I
*I vs_8_5:A I
*I vs_7_5:A I
*I vs_6_5:A I
*I vs_5_5:A I
*I vs_4_5:A I
*I vs_3_5:A I
*I vs_2_5:A I
*I vs_1_5:A I
*I vs_0_5:A I
*CAP
1 pgm_pp5_11_s0:1 2.334497e-02
*RES
1 lt_pp5_11_s0:Z pgm_pp5_11_s0:1 2.649146e+01
2 pgm_pp5_11_s0:1 vs_15_5:A 1.000000e-03
3 pgm_pp5_11_s0:1 vs_14_5:A 1.000000e-03
4 pgm_pp5_11_s0:1 vs_13_5:A 1.000000e-03
5 pgm_pp5_11_s0:1 vs_12_5:A 1.000000e-03
6 pgm_pp5_11_s0:1 vs_11_5:A 1.000000e-03
7 pgm_pp5_11_s0:1 vs_10_5:A 1.000000e-03
8 pgm_pp5_11_s0:1 vs_9_5:A 1.000000e-03
9 pgm_pp5_11_s0:1 vs_8_5:A 1.000000e-03
10 pgm_pp5_11_s0:1 vs_7_5:A 1.000000e-03
11 pgm_pp5_11_s0:1 vs_6_5:A 1.000000e-03
12 pgm_pp5_11_s0:1 vs_5_5:A 1.000000e-03
13 pgm_pp5_11_s0:1 vs_4_5:A 1.000000e-03
14 pgm_pp5_11_s0:1 vs_3_5:A 1.000000e-03
15 pgm_pp5_11_s0:1 vs_2_5:A 1.000000e-03
16 pgm_pp5_11_s0:1 vs_1_5:A 1.000000e-03
17 pgm_pp5_11_s0:1 vs_0_5:A 1.000000e-03
*END

*D_NET pgm_pp5_11_s1 2.236140e-02
*CONN
*I lt_pp5_11_s1:Z O
*I vs_31_5:A I
*I vs_30_5:A I
*I vs_29_5:A I
*I vs_28_5:A I
*I vs_27_5:A I
*I vs_26_5:A I
*I vs_25_5:A I
*I vs_24_5:A I
*I vs_23_5:A I
*I vs_22_5:A I
*I vs_21_5:A I
*I vs_20_5:A I
*I vs_19_5:A I
*I vs_18_5:A I
*I vs_17_5:A I
*I vs_16_5:A I
*CAP
1 pgm_pp5_11_s1:1 2.236140e-02
*RES
1 lt_pp5_11_s1:Z pgm_pp5_11_s1:1 2.537532e+01
2 pgm_pp5_11_s1:1 vs_31_5:A 1.000000e-03
3 pgm_pp5_11_s1:1 vs_30_5:A 1.000000e-03
4 pgm_pp5_11_s1:1 vs_29_5:A 1.000000e-03
5 pgm_pp5_11_s1:1 vs_28_5:A 1.000000e-03
6 pgm_pp5_11_s1:1 vs_27_5:A 1.000000e-03
7 pgm_pp5_11_s1:1 vs_26_5:A 1.000000e-03
8 pgm_pp5_11_s1:1 vs_25_5:A 1.000000e-03
9 pgm_pp5_11_s1:1 vs_24_5:A 1.000000e-03
10 pgm_pp5_11_s1:1 vs_23_5:A 1.000000e-03
11 pgm_pp5_11_s1:1 vs_22_5:A 1.000000e-03
12 pgm_pp5_11_s1:1 vs_21_5:A 1.000000e-03
13 pgm_pp5_11_s1:1 vs_20_5:A 1.000000e-03
14 pgm_pp5_11_s1:1 vs_19_5:A 1.000000e-03
15 pgm_pp5_11_s1:1 vs_18_5:A 1.000000e-03
16 pgm_pp5_11_s1:1 vs_17_5:A 1.000000e-03
17 pgm_pp5_11_s1:1 vs_16_5:A 1.000000e-03
*END

*D_NET pgm_pp5_11_s2 2.282060e-02
*CONN
*I lt_pp5_11_s2:Z O
*I vs_47_5:A I
*I vs_46_5:A I
*I vs_45_5:A I
*I vs_44_5:A I
*I vs_43_5:A I
*I vs_42_5:A I
*I vs_41_5:A I
*I vs_40_5:A I
*I vs_39_5:A I
*I vs_38_5:A I
*I vs_37_5:A I
*I vs_36_5:A I
*I vs_35_5:A I
*I vs_34_5:A I
*I vs_33_5:A I
*I vs_32_5:A I
*CAP
1 pgm_pp5_11_s2:1 2.282060e-02
*RES
1 lt_pp5_11_s2:Z pgm_pp5_11_s2:1 2.589641e+01
2 pgm_pp5_11_s2:1 vs_47_5:A 1.000000e-03
3 pgm_pp5_11_s2:1 vs_46_5:A 1.000000e-03
4 pgm_pp5_11_s2:1 vs_45_5:A 1.000000e-03
5 pgm_pp5_11_s2:1 vs_44_5:A 1.000000e-03
6 pgm_pp5_11_s2:1 vs_43_5:A 1.000000e-03
7 pgm_pp5_11_s2:1 vs_42_5:A 1.000000e-03
8 pgm_pp5_11_s2:1 vs_41_5:A 1.000000e-03
9 pgm_pp5_11_s2:1 vs_40_5:A 1.000000e-03
10 pgm_pp5_11_s2:1 vs_39_5:A 1.000000e-03
11 pgm_pp5_11_s2:1 vs_38_5:A 1.000000e-03
12 pgm_pp5_11_s2:1 vs_37_5:A 1.000000e-03
13 pgm_pp5_11_s2:1 vs_36_5:A 1.000000e-03
14 pgm_pp5_11_s2:1 vs_35_5:A 1.000000e-03
15 pgm_pp5_11_s2:1 vs_34_5:A 1.000000e-03
16 pgm_pp5_11_s2:1 vs_33_5:A 1.000000e-03
17 pgm_pp5_11_s2:1 vs_32_5:A 1.000000e-03
*END

*D_NET pgm_pp5_11_s3 2.279097e-02
*CONN
*I lt_pp5_11_s3:Z O
*I vs_63_5:A I
*I vs_62_5:A I
*I vs_61_5:A I
*I vs_60_5:A I
*I vs_59_5:A I
*I vs_58_5:A I
*I vs_57_5:A I
*I vs_56_5:A I
*I vs_55_5:A I
*I vs_54_5:A I
*I vs_53_5:A I
*I vs_52_5:A I
*I vs_51_5:A I
*I vs_50_5:A I
*I vs_49_5:A I
*I vs_48_5:A I
*CAP
1 pgm_pp5_11_s3:1 2.279097e-02
*RES
1 lt_pp5_11_s3:Z pgm_pp5_11_s3:1 2.586279e+01
2 pgm_pp5_11_s3:1 vs_63_5:A 1.000000e-03
3 pgm_pp5_11_s3:1 vs_62_5:A 1.000000e-03
4 pgm_pp5_11_s3:1 vs_61_5:A 1.000000e-03
5 pgm_pp5_11_s3:1 vs_60_5:A 1.000000e-03
6 pgm_pp5_11_s3:1 vs_59_5:A 1.000000e-03
7 pgm_pp5_11_s3:1 vs_58_5:A 1.000000e-03
8 pgm_pp5_11_s3:1 vs_57_5:A 1.000000e-03
9 pgm_pp5_11_s3:1 vs_56_5:A 1.000000e-03
10 pgm_pp5_11_s3:1 vs_55_5:A 1.000000e-03
11 pgm_pp5_11_s3:1 vs_54_5:A 1.000000e-03
12 pgm_pp5_11_s3:1 vs_53_5:A 1.000000e-03
13 pgm_pp5_11_s3:1 vs_52_5:A 1.000000e-03
14 pgm_pp5_11_s3:1 vs_51_5:A 1.000000e-03
15 pgm_pp5_11_s3:1 vs_50_5:A 1.000000e-03
16 pgm_pp5_11_s3:1 vs_49_5:A 1.000000e-03
17 pgm_pp5_11_s3:1 vs_48_5:A 1.000000e-03
*END

*D_NET pgm_pp6_8_s0 2.192294e-02
*CONN
*I lt_pp6_8_s0:Z O
*I vs_15_6:A I
*I vs_14_6:A I
*I vs_13_6:A I
*I vs_12_6:A I
*I vs_11_6:A I
*I vs_10_6:A I
*I vs_9_6:A I
*I vs_8_6:A I
*I vs_7_6:A I
*I vs_6_6:A I
*I vs_5_6:A I
*I vs_4_6:A I
*I vs_3_6:A I
*I vs_2_6:A I
*I vs_1_6:A I
*I vs_0_6:A I
*CAP
1 pgm_pp6_8_s0:1 2.192294e-02
*RES
1 lt_pp6_8_s0:Z pgm_pp6_8_s0:1 2.487776e+01
2 pgm_pp6_8_s0:1 vs_15_6:A 1.000000e-03
3 pgm_pp6_8_s0:1 vs_14_6:A 1.000000e-03
4 pgm_pp6_8_s0:1 vs_13_6:A 1.000000e-03
5 pgm_pp6_8_s0:1 vs_12_6:A 1.000000e-03
6 pgm_pp6_8_s0:1 vs_11_6:A 1.000000e-03
7 pgm_pp6_8_s0:1 vs_10_6:A 1.000000e-03
8 pgm_pp6_8_s0:1 vs_9_6:A 1.000000e-03
9 pgm_pp6_8_s0:1 vs_8_6:A 1.000000e-03
10 pgm_pp6_8_s0:1 vs_7_6:A 1.000000e-03
11 pgm_pp6_8_s0:1 vs_6_6:A 1.000000e-03
12 pgm_pp6_8_s0:1 vs_5_6:A 1.000000e-03
13 pgm_pp6_8_s0:1 vs_4_6:A 1.000000e-03
14 pgm_pp6_8_s0:1 vs_3_6:A 1.000000e-03
15 pgm_pp6_8_s0:1 vs_2_6:A 1.000000e-03
16 pgm_pp6_8_s0:1 vs_1_6:A 1.000000e-03
17 pgm_pp6_8_s0:1 vs_0_6:A 1.000000e-03
*END

*D_NET pgm_pp6_8_s1 2.181037e-02
*CONN
*I lt_pp6_8_s1:Z O
*I vs_31_6:A I
*I vs_30_6:A I
*I vs_29_6:A I
*I vs_28_6:A I
*I vs_27_6:A I
*I vs_26_6:A I
*I vs_25_6:A I
*I vs_24_6:A I
*I vs_23_6:A I
*I vs_22_6:A I
*I vs_21_6:A I
*I vs_20_6:A I
*I vs_19_6:A I
*I vs_18_6:A I
*I vs_17_6:A I
*I vs_16_6:A I
*CAP
1 pgm_pp6_8_s1:1 2.181037e-02
*RES
1 lt_pp6_8_s1:Z pgm_pp6_8_s1:1 2.475001e+01
2 pgm_pp6_8_s1:1 vs_31_6:A 1.000000e-03
3 pgm_pp6_8_s1:1 vs_30_6:A 1.000000e-03
4 pgm_pp6_8_s1:1 vs_29_6:A 1.000000e-03
5 pgm_pp6_8_s1:1 vs_28_6:A 1.000000e-03
6 pgm_pp6_8_s1:1 vs_27_6:A 1.000000e-03
7 pgm_pp6_8_s1:1 vs_26_6:A 1.000000e-03
8 pgm_pp6_8_s1:1 vs_25_6:A 1.000000e-03
9 pgm_pp6_8_s1:1 vs_24_6:A 1.000000e-03
10 pgm_pp6_8_s1:1 vs_23_6:A 1.000000e-03
11 pgm_pp6_8_s1:1 vs_22_6:A 1.000000e-03
12 pgm_pp6_8_s1:1 vs_21_6:A 1.000000e-03
13 pgm_pp6_8_s1:1 vs_20_6:A 1.000000e-03
14 pgm_pp6_8_s1:1 vs_19_6:A 1.000000e-03
15 pgm_pp6_8_s1:1 vs_18_6:A 1.000000e-03
16 pgm_pp6_8_s1:1 vs_17_6:A 1.000000e-03
17 pgm_pp6_8_s1:1 vs_16_6:A 1.000000e-03
*END

*D_NET pgm_pp6_8_s2 2.151411e-02
*CONN
*I lt_pp6_8_s2:Z O
*I vs_47_6:A I
*I vs_46_6:A I
*I vs_45_6:A I
*I vs_44_6:A I
*I vs_43_6:A I
*I vs_42_6:A I
*I vs_41_6:A I
*I vs_40_6:A I
*I vs_39_6:A I
*I vs_38_6:A I
*I vs_37_6:A I
*I vs_36_6:A I
*I vs_35_6:A I
*I vs_34_6:A I
*I vs_33_6:A I
*I vs_32_6:A I
*CAP
1 pgm_pp6_8_s2:1 2.151411e-02
*RES
1 lt_pp6_8_s2:Z pgm_pp6_8_s2:1 2.441383e+01
2 pgm_pp6_8_s2:1 vs_47_6:A 1.000000e-03
3 pgm_pp6_8_s2:1 vs_46_6:A 1.000000e-03
4 pgm_pp6_8_s2:1 vs_45_6:A 1.000000e-03
5 pgm_pp6_8_s2:1 vs_44_6:A 1.000000e-03
6 pgm_pp6_8_s2:1 vs_43_6:A 1.000000e-03
7 pgm_pp6_8_s2:1 vs_42_6:A 1.000000e-03
8 pgm_pp6_8_s2:1 vs_41_6:A 1.000000e-03
9 pgm_pp6_8_s2:1 vs_40_6:A 1.000000e-03
10 pgm_pp6_8_s2:1 vs_39_6:A 1.000000e-03
11 pgm_pp6_8_s2:1 vs_38_6:A 1.000000e-03
12 pgm_pp6_8_s2:1 vs_37_6:A 1.000000e-03
13 pgm_pp6_8_s2:1 vs_36_6:A 1.000000e-03
14 pgm_pp6_8_s2:1 vs_35_6:A 1.000000e-03
15 pgm_pp6_8_s2:1 vs_34_6:A 1.000000e-03
16 pgm_pp6_8_s2:1 vs_33_6:A 1.000000e-03
17 pgm_pp6_8_s2:1 vs_32_6:A 1.000000e-03
*END

*D_NET pgm_pp6_8_s3 2.223994e-02
*CONN
*I lt_pp6_8_s3:Z O
*I vs_63_6:A I
*I vs_62_6:A I
*I vs_61_6:A I
*I vs_60_6:A I
*I vs_59_6:A I
*I vs_58_6:A I
*I vs_57_6:A I
*I vs_56_6:A I
*I vs_55_6:A I
*I vs_54_6:A I
*I vs_53_6:A I
*I vs_52_6:A I
*I vs_51_6:A I
*I vs_50_6:A I
*I vs_49_6:A I
*I vs_48_6:A I
*CAP
1 pgm_pp6_8_s3:1 2.223994e-02
*RES
1 lt_pp6_8_s3:Z pgm_pp6_8_s3:1 2.523748e+01
2 pgm_pp6_8_s3:1 vs_63_6:A 1.000000e-03
3 pgm_pp6_8_s3:1 vs_62_6:A 1.000000e-03
4 pgm_pp6_8_s3:1 vs_61_6:A 1.000000e-03
5 pgm_pp6_8_s3:1 vs_60_6:A 1.000000e-03
6 pgm_pp6_8_s3:1 vs_59_6:A 1.000000e-03
7 pgm_pp6_8_s3:1 vs_58_6:A 1.000000e-03
8 pgm_pp6_8_s3:1 vs_57_6:A 1.000000e-03
9 pgm_pp6_8_s3:1 vs_56_6:A 1.000000e-03
10 pgm_pp6_8_s3:1 vs_55_6:A 1.000000e-03
11 pgm_pp6_8_s3:1 vs_54_6:A 1.000000e-03
12 pgm_pp6_8_s3:1 vs_53_6:A 1.000000e-03
13 pgm_pp6_8_s3:1 vs_52_6:A 1.000000e-03
14 pgm_pp6_8_s3:1 vs_51_6:A 1.000000e-03
15 pgm_pp6_8_s3:1 vs_50_6:A 1.000000e-03
16 pgm_pp6_8_s3:1 vs_49_6:A 1.000000e-03
17 pgm_pp6_8_s3:1 vs_48_6:A 1.000000e-03
*END

*D_NET pgm_pp9_3_s0 2.260433e-02
*CONN
*I lt_pp9_3_s0:Z O
*I vs_15_9:A I
*I vs_14_9:A I
*I vs_13_9:A I
*I vs_12_9:A I
*I vs_11_9:A I
*I vs_10_9:A I
*I vs_9_9:A I
*I vs_8_9:A I
*I vs_7_9:A I
*I vs_6_9:A I
*I vs_5_9:A I
*I vs_4_9:A I
*I vs_3_9:A I
*I vs_2_9:A I
*I vs_1_9:A I
*I vs_0_9:A I
*CAP
1 pgm_pp9_3_s0:1 2.260433e-02
*RES
1 lt_pp9_3_s0:Z pgm_pp9_3_s0:1 2.565099e+01
2 pgm_pp9_3_s0:1 vs_15_9:A 1.000000e-03
3 pgm_pp9_3_s0:1 vs_14_9:A 1.000000e-03
4 pgm_pp9_3_s0:1 vs_13_9:A 1.000000e-03
5 pgm_pp9_3_s0:1 vs_12_9:A 1.000000e-03
6 pgm_pp9_3_s0:1 vs_11_9:A 1.000000e-03
7 pgm_pp9_3_s0:1 vs_10_9:A 1.000000e-03
8 pgm_pp9_3_s0:1 vs_9_9:A 1.000000e-03
9 pgm_pp9_3_s0:1 vs_8_9:A 1.000000e-03
10 pgm_pp9_3_s0:1 vs_7_9:A 1.000000e-03
11 pgm_pp9_3_s0:1 vs_6_9:A 1.000000e-03
12 pgm_pp9_3_s0:1 vs_5_9:A 1.000000e-03
13 pgm_pp9_3_s0:1 vs_4_9:A 1.000000e-03
14 pgm_pp9_3_s0:1 vs_3_9:A 1.000000e-03
15 pgm_pp9_3_s0:1 vs_2_9:A 1.000000e-03
16 pgm_pp9_3_s0:1 vs_1_9:A 1.000000e-03
17 pgm_pp9_3_s0:1 vs_0_9:A 1.000000e-03
*END

*D_NET pgm_pp9_3_s1 2.168594e-02
*CONN
*I lt_pp9_3_s1:Z O
*I vs_31_9:A I
*I vs_30_9:A I
*I vs_29_9:A I
*I vs_28_9:A I
*I vs_27_9:A I
*I vs_26_9:A I
*I vs_25_9:A I
*I vs_24_9:A I
*I vs_23_9:A I
*I vs_22_9:A I
*I vs_21_9:A I
*I vs_20_9:A I
*I vs_19_9:A I
*I vs_18_9:A I
*I vs_17_9:A I
*I vs_16_9:A I
*CAP
1 pgm_pp9_3_s1:1 2.168594e-02
*RES
1 lt_pp9_3_s1:Z pgm_pp9_3_s1:1 2.460882e+01
2 pgm_pp9_3_s1:1 vs_31_9:A 1.000000e-03
3 pgm_pp9_3_s1:1 vs_30_9:A 1.000000e-03
4 pgm_pp9_3_s1:1 vs_29_9:A 1.000000e-03
5 pgm_pp9_3_s1:1 vs_28_9:A 1.000000e-03
6 pgm_pp9_3_s1:1 vs_27_9:A 1.000000e-03
7 pgm_pp9_3_s1:1 vs_26_9:A 1.000000e-03
8 pgm_pp9_3_s1:1 vs_25_9:A 1.000000e-03
9 pgm_pp9_3_s1:1 vs_24_9:A 1.000000e-03
10 pgm_pp9_3_s1:1 vs_23_9:A 1.000000e-03
11 pgm_pp9_3_s1:1 vs_22_9:A 1.000000e-03
12 pgm_pp9_3_s1:1 vs_21_9:A 1.000000e-03
13 pgm_pp9_3_s1:1 vs_20_9:A 1.000000e-03
14 pgm_pp9_3_s1:1 vs_19_9:A 1.000000e-03
15 pgm_pp9_3_s1:1 vs_18_9:A 1.000000e-03
16 pgm_pp9_3_s1:1 vs_17_9:A 1.000000e-03
17 pgm_pp9_3_s1:1 vs_16_9:A 1.000000e-03
*END

*D_NET pgm_pp9_3_s2 2.251249e-02
*CONN
*I lt_pp9_3_s2:Z O
*I vs_47_9:A I
*I vs_46_9:A I
*I vs_45_9:A I
*I vs_44_9:A I
*I vs_43_9:A I
*I vs_42_9:A I
*I vs_41_9:A I
*I vs_40_9:A I
*I vs_39_9:A I
*I vs_38_9:A I
*I vs_37_9:A I
*I vs_36_9:A I
*I vs_35_9:A I
*I vs_34_9:A I
*I vs_33_9:A I
*I vs_32_9:A I
*CAP
1 pgm_pp9_3_s2:1 2.251249e-02
*RES
1 lt_pp9_3_s2:Z pgm_pp9_3_s2:1 2.554677e+01
2 pgm_pp9_3_s2:1 vs_47_9:A 1.000000e-03
3 pgm_pp9_3_s2:1 vs_46_9:A 1.000000e-03
4 pgm_pp9_3_s2:1 vs_45_9:A 1.000000e-03
5 pgm_pp9_3_s2:1 vs_44_9:A 1.000000e-03
6 pgm_pp9_3_s2:1 vs_43_9:A 1.000000e-03
7 pgm_pp9_3_s2:1 vs_42_9:A 1.000000e-03
8 pgm_pp9_3_s2:1 vs_41_9:A 1.000000e-03
9 pgm_pp9_3_s2:1 vs_40_9:A 1.000000e-03
10 pgm_pp9_3_s2:1 vs_39_9:A 1.000000e-03
11 pgm_pp9_3_s2:1 vs_38_9:A 1.000000e-03
12 pgm_pp9_3_s2:1 vs_37_9:A 1.000000e-03
13 pgm_pp9_3_s2:1 vs_36_9:A 1.000000e-03
14 pgm_pp9_3_s2:1 vs_35_9:A 1.000000e-03
15 pgm_pp9_3_s2:1 vs_34_9:A 1.000000e-03
16 pgm_pp9_3_s2:1 vs_33_9:A 1.000000e-03
17 pgm_pp9_3_s2:1 vs_32_9:A 1.000000e-03
*END

*D_NET pgm_pp9_3_s3 2.264877e-02
*CONN
*I lt_pp9_3_s3:Z O
*I vs_63_9:A I
*I vs_62_9:A I
*I vs_61_9:A I
*I vs_60_9:A I
*I vs_59_9:A I
*I vs_58_9:A I
*I vs_57_9:A I
*I vs_56_9:A I
*I vs_55_9:A I
*I vs_54_9:A I
*I vs_53_9:A I
*I vs_52_9:A I
*I vs_51_9:A I
*I vs_50_9:A I
*I vs_49_9:A I
*I vs_48_9:A I
*CAP
1 pgm_pp9_3_s3:1 2.264877e-02
*RES
1 lt_pp9_3_s3:Z pgm_pp9_3_s3:1 2.570142e+01
2 pgm_pp9_3_s3:1 vs_63_9:A 1.000000e-03
3 pgm_pp9_3_s3:1 vs_62_9:A 1.000000e-03
4 pgm_pp9_3_s3:1 vs_61_9:A 1.000000e-03
5 pgm_pp9_3_s3:1 vs_60_9:A 1.000000e-03
6 pgm_pp9_3_s3:1 vs_59_9:A 1.000000e-03
7 pgm_pp9_3_s3:1 vs_58_9:A 1.000000e-03
8 pgm_pp9_3_s3:1 vs_57_9:A 1.000000e-03
9 pgm_pp9_3_s3:1 vs_56_9:A 1.000000e-03
10 pgm_pp9_3_s3:1 vs_55_9:A 1.000000e-03
11 pgm_pp9_3_s3:1 vs_54_9:A 1.000000e-03
12 pgm_pp9_3_s3:1 vs_53_9:A 1.000000e-03
13 pgm_pp9_3_s3:1 vs_52_9:A 1.000000e-03
14 pgm_pp9_3_s3:1 vs_51_9:A 1.000000e-03
15 pgm_pp9_3_s3:1 vs_50_9:A 1.000000e-03
16 pgm_pp9_3_s3:1 vs_49_9:A 1.000000e-03
17 pgm_pp9_3_s3:1 vs_48_9:A 1.000000e-03
*END

