*SPEF "ieee 1481-1999"
*DESIGN "top"
*DATE "r3"
*VENDOR "r3_prog_spef"
*PROGRAM "r3_prog_spef.py"
*VERSION "1"
*DESIGN_FLOW "NAME_SCOPE LOCAL" "PIN_CAP NONE"
*DIVIDER /
*DELIMITER :
*BUS_DELIMITER []
*T_UNIT 1 NS
*C_UNIT 1 PF
*R_UNIT 1 OHM
*L_UNIT 1 HENRY

*D_NET pgm_pn0_0_s1 7.602983e-03
*CONN
*I lt_pn0_0_s1:Z O
*I vs_21_0:A I
*CAP
1 pgm_pn0_0_s1:1 7.602983e-03
*RES
1 lt_pn0_0_s1:Z pgm_pn0_0_s1:1 7.055555e+00
2 pgm_pn0_0_s1:1 vs_21_0:A 1.000000e-03
*END

*D_NET pgm_pn0_0_s3 1.536564e-02
*CONN
*I lt_pn0_0_s3:Z O
*I vs_57_0:A I
*I vs_51_0:A I
*CAP
1 pgm_pn0_0_s3:1 1.536564e-02
*RES
1 lt_pn0_0_s3:Z pgm_pn0_0_s3:1 1.515038e+01
2 pgm_pn0_0_s3:1 vs_57_0:A 1.000000e-03
3 pgm_pn0_0_s3:1 vs_51_0:A 1.000000e-03
*END

*D_NET pgm_pn0_10_s2 1.100741e-02
*CONN
*I lt_pn0_10_s2:Z O
*I vs_38_0:A I
*CAP
1 pgm_pn0_10_s2:1 1.100741e-02
*RES
1 lt_pn0_10_s2:Z pgm_pn0_10_s2:1 1.106281e+01
2 pgm_pn0_10_s2:1 vs_38_0:A 1.000000e-03
*END

*D_NET pgm_pn0_11_s1 1.971584e-02
*CONN
*I lt_pn0_11_s1:Z O
*I vs_16_0:A I
*CAP
1 pgm_pn0_11_s1:1 1.971584e-02
*RES
1 lt_pn0_11_s1:Z pgm_pn0_11_s1:1 2.237318e+01
2 pgm_pn0_11_s1:1 vs_16_0:A 1.000000e-03
*END

*D_NET pgm_pn0_11_s2 1.888829e-02
*CONN
*I lt_pn0_11_s2:Z O
*I vs_35_0:A I
*CAP
1 pgm_pn0_11_s2:1 1.888829e-02
*RES
1 lt_pn0_11_s2:Z pgm_pn0_11_s2:1 1.728189e+01
2 pgm_pn0_11_s2:1 vs_35_0:A 1.000000e-03
*END

*D_NET pgm_pn0_12_s2 8.636473e-03
*CONN
*I lt_pn0_12_s2:Z O
*I vs_42_0:A I
*CAP
1 pgm_pn0_12_s2:1 8.636473e-03
*RES
1 lt_pn0_12_s2:Z pgm_pn0_12_s2:1 8.084362e+00
2 pgm_pn0_12_s2:1 vs_42_0:A 1.000000e-03
*END

*D_NET pgm_pn0_1_s0 1.579044e-03
*CONN
*I lt_pn0_1_s0:Z O
*I vs_2_0:A I
*CAP
1 pgm_pn0_1_s0:1 1.579044e-03
*RES
1 lt_pn0_1_s0:Z pgm_pn0_1_s0:1 1.791871e+00
2 pgm_pn0_1_s0:1 vs_2_0:A 1.000000e-03
*END

*D_NET pgm_pn0_1_s2 1.512390e-02
*CONN
*I lt_pn0_1_s2:Z O
*I vs_41_0:A I
*I vs_34_0:A I
*CAP
1 pgm_pn0_1_s2:1 1.512390e-02
*RES
1 lt_pn0_1_s2:Z pgm_pn0_1_s2:1 1.430594e+01
2 pgm_pn0_1_s2:1 vs_41_0:A 1.000000e-03
3 pgm_pn0_1_s2:1 vs_34_0:A 1.000000e-03
*END

*D_NET pgm_pn0_1_s3 6.900413e-03
*CONN
*I lt_pn0_1_s3:Z O
*I vs_53_0:A I
*CAP
1 pgm_pn0_1_s3:1 6.900413e-03
*RES
1 lt_pn0_1_s3:Z pgm_pn0_1_s3:1 6.114312e+00
2 pgm_pn0_1_s3:1 vs_53_0:A 1.000000e-03
*END

*D_NET pgm_pn0_2_s0 1.090222e-03
*CONN
*I lt_pn0_2_s0:Z O
*I vs_3_0:A I
*CAP
1 pgm_pn0_2_s0:1 1.090222e-03
*RES
1 lt_pn0_2_s0:Z pgm_pn0_2_s0:1 1.237164e+00
2 pgm_pn0_2_s0:1 vs_3_0:A 1.000000e-03
*END

*D_NET pgm_pn0_2_s1 1.099110e-02
*CONN
*I lt_pn0_2_s1:Z O
*I vs_26_0:A I
*CAP
1 pgm_pn0_2_s1:1 1.099110e-02
*RES
1 lt_pn0_2_s1:Z pgm_pn0_2_s1:1 1.247250e+01
2 pgm_pn0_2_s1:1 vs_26_0:A 1.000000e-03
*END

*D_NET pgm_pn0_2_s2 7.120086e-03
*CONN
*I lt_pn0_2_s2:Z O
*I vs_39_0:A I
*CAP
1 pgm_pn0_2_s2:1 7.120086e-03
*RES
1 lt_pn0_2_s2:Z pgm_pn0_2_s2:1 6.507572e+00
2 pgm_pn0_2_s2:1 vs_39_0:A 1.000000e-03
*END

*D_NET pgm_pn0_3_s0 6.947203e-03
*CONN
*I lt_pn0_3_s0:Z O
*I vs_7_0:A I
*CAP
1 pgm_pn0_3_s0:1 6.947203e-03
*RES
1 lt_pn0_3_s0:Z pgm_pn0_3_s0:1 7.883562e+00
2 pgm_pn0_3_s0:1 vs_7_0:A 1.000000e-03
*END

*D_NET pgm_pn0_4_s2 4.263124e-03
*CONN
*I lt_pn0_4_s2:Z O
*I vs_40_0:A I
*CAP
1 pgm_pn0_4_s2:1 4.263124e-03
*RES
1 lt_pn0_4_s2:Z pgm_pn0_4_s2:1 4.837717e+00
2 pgm_pn0_4_s2:1 vs_40_0:A 1.000000e-03
*END

*D_NET pgm_pn0_5_s0 1.606034e-02
*CONN
*I lt_pn0_5_s0:Z O
*I vs_14_0:A I
*I vs_4_0:A I
*CAP
1 pgm_pn0_5_s0:1 1.606034e-02
*RES
1 lt_pn0_5_s0:Z pgm_pn0_5_s0:1 1.737271e+01
2 pgm_pn0_5_s0:1 vs_14_0:A 1.000000e-03
3 pgm_pn0_5_s0:1 vs_4_0:A 1.000000e-03
*END

*D_NET pgm_pn0_5_s2 1.107309e-02
*CONN
*I lt_pn0_5_s2:Z O
*I vs_46_0:A I
*CAP
1 pgm_pn0_5_s2:1 1.107309e-02
*RES
1 lt_pn0_5_s2:Z pgm_pn0_5_s2:1 1.151295e+01
2 pgm_pn0_5_s2:1 vs_46_0:A 1.000000e-03
*END

*D_NET pgm_pn0_6_s1 1.031860e-02
*CONN
*I lt_pn0_6_s1:Z O
*I vs_30_0:A I
*I vs_24_0:A I
*CAP
1 pgm_pn0_6_s1:1 1.031860e-02
*RES
1 lt_pn0_6_s1:Z pgm_pn0_6_s1:1 1.170936e+01
2 pgm_pn0_6_s1:1 vs_30_0:A 1.000000e-03
3 pgm_pn0_6_s1:1 vs_24_0:A 1.000000e-03
*END

*D_NET pgm_pn0_7_s0 8.582365e-03
*CONN
*I lt_pn0_7_s0:Z O
*I vs_5_0:A I
*CAP
1 pgm_pn0_7_s0:1 8.582365e-03
*RES
1 lt_pn0_7_s0:Z pgm_pn0_7_s0:1 8.354739e+00
2 pgm_pn0_7_s0:1 vs_5_0:A 1.000000e-03
*END

*D_NET pgm_pn0_7_s1 8.781028e-03
*CONN
*I lt_pn0_7_s1:Z O
*I vs_19_0:A I
*CAP
1 pgm_pn0_7_s1:1 8.781028e-03
*RES
1 lt_pn0_7_s1:Z pgm_pn0_7_s1:1 9.964553e+00
2 pgm_pn0_7_s1:1 vs_19_0:A 1.000000e-03
*END

*D_NET pgm_pn0_8_s0 4.766759e-03
*CONN
*I lt_pn0_8_s0:Z O
*I vs_13_0:A I
*CAP
1 pgm_pn0_8_s0:1 4.766759e-03
*RES
1 lt_pn0_8_s0:Z pgm_pn0_8_s0:1 5.409233e+00
2 pgm_pn0_8_s0:1 vs_13_0:A 1.000000e-03
*END

*D_NET pgm_pn0_8_s2 1.333050e-02
*CONN
*I lt_pn0_8_s2:Z O
*I vs_43_0:A I
*I vs_36_0:A I
*CAP
1 pgm_pn0_8_s2:1 1.333050e-02
*RES
1 lt_pn0_8_s2:Z pgm_pn0_8_s2:1 1.384299e+01
2 pgm_pn0_8_s2:1 vs_43_0:A 1.000000e-03
3 pgm_pn0_8_s2:1 vs_36_0:A 1.000000e-03
*END

*D_NET pgm_pn0_8_s3 3.048474e-03
*CONN
*I lt_pn0_8_s3:Z O
*I vs_60_0:A I
*CAP
1 pgm_pn0_8_s3:1 3.048474e-03
*RES
1 lt_pn0_8_s3:Z pgm_pn0_8_s3:1 3.459354e+00
2 pgm_pn0_8_s3:1 vs_60_0:A 1.000000e-03
*END

*D_NET pgm_pn0_9_s2 2.832207e-03
*CONN
*I lt_pn0_9_s2:Z O
*I vs_45_0:A I
*CAP
1 pgm_pn0_9_s2:1 2.832207e-03
*RES
1 lt_pn0_9_s2:Z pgm_pn0_9_s2:1 3.213938e+00
2 pgm_pn0_9_s2:1 vs_45_0:A 1.000000e-03
*END

*D_NET pgm_pn10_0_s0 2.071575e-02
*CONN
*I lt_pn10_0_s0:Z O
*I vs_10_10:A I
*I vs_7_10:A I
*CAP
1 pgm_pn10_0_s0:1 2.071575e-02
*RES
1 lt_pn10_0_s0:Z pgm_pn10_0_s0:1 1.921168e+01
2 pgm_pn10_0_s0:1 vs_10_10:A 1.000000e-03
3 pgm_pn10_0_s0:1 vs_7_10:A 1.000000e-03
*END

*D_NET pgm_pn10_10_s0 4.313487e-03
*CONN
*I lt_pn10_10_s0:Z O
*I vs_15_10:A I
*CAP
1 pgm_pn10_10_s0:1 4.313487e-03
*RES
1 lt_pn10_10_s0:Z pgm_pn10_10_s0:1 4.894868e+00
2 pgm_pn10_10_s0:1 vs_15_10:A 1.000000e-03
*END

*D_NET pgm_pn10_10_s3 1.335256e-02
*CONN
*I lt_pn10_10_s3:Z O
*I vs_52_10:A I
*CAP
1 pgm_pn10_10_s3:1 1.335256e-02
*RES
1 lt_pn10_10_s3:Z pgm_pn10_10_s3:1 1.429997e+01
2 pgm_pn10_10_s3:1 vs_52_10:A 1.000000e-03
*END

*D_NET pgm_pn10_11_s3 1.262527e-02
*CONN
*I lt_pn10_11_s3:Z O
*I vs_55_10:A I
*CAP
1 pgm_pn10_11_s3:1 1.262527e-02
*RES
1 lt_pn10_11_s3:Z pgm_pn10_11_s3:1 1.203486e+01
2 pgm_pn10_11_s3:1 vs_55_10:A 1.000000e-03
*END

*D_NET pgm_pn10_12_s1 1.741171e-02
*CONN
*I lt_pn10_12_s1:Z O
*I vs_19_10:A I
*CAP
1 pgm_pn10_12_s1:1 1.741171e-02
*RES
1 lt_pn10_12_s1:Z pgm_pn10_12_s1:1 1.905020e+01
2 pgm_pn10_12_s1:1 vs_19_10:A 1.000000e-03
*END

*D_NET pgm_pn10_12_s2 2.749424e-03
*CONN
*I lt_pn10_12_s2:Z O
*I vs_47_10:A I
*CAP
1 pgm_pn10_12_s2:1 2.749424e-03
*RES
1 lt_pn10_12_s2:Z pgm_pn10_12_s2:1 1.259865e+00
2 pgm_pn10_12_s2:1 vs_47_10:A 1.000000e-03
*END

*D_NET pgm_pn10_1_s0 1.912925e-02
*CONN
*I lt_pn10_1_s0:Z O
*I vs_13_10:A I
*I vs_4_10:A I
*CAP
1 pgm_pn10_1_s0:1 1.912925e-02
*RES
1 lt_pn10_1_s0:Z pgm_pn10_1_s0:1 2.170753e+01
2 pgm_pn10_1_s0:1 vs_13_10:A 1.000000e-03
3 pgm_pn10_1_s0:1 vs_4_10:A 1.000000e-03
*END

*D_NET pgm_pn10_1_s1 1.980768e-02
*CONN
*I lt_pn10_1_s1:Z O
*I vs_31_10:A I
*CAP
1 pgm_pn10_1_s1:1 1.980768e-02
*RES
1 lt_pn10_1_s1:Z pgm_pn10_1_s1:1 2.247740e+01
2 pgm_pn10_1_s1:1 vs_31_10:A 1.000000e-03
*END

*D_NET pgm_pn10_1_s2 1.888574e-02
*CONN
*I lt_pn10_1_s2:Z O
*I vs_46_10:A I
*I vs_39_10:A I
*CAP
1 pgm_pn10_1_s2:1 1.888574e-02
*RES
1 lt_pn10_1_s2:Z pgm_pn10_1_s2:1 2.029096e+01
2 pgm_pn10_1_s2:1 vs_46_10:A 1.000000e-03
3 pgm_pn10_1_s2:1 vs_39_10:A 1.000000e-03
*END

*D_NET pgm_pn10_3_s1 1.506758e-02
*CONN
*I lt_pn10_3_s1:Z O
*I vs_30_10:A I
*CAP
1 pgm_pn10_3_s1:1 1.506758e-02
*RES
1 lt_pn10_3_s1:Z pgm_pn10_3_s1:1 1.709842e+01
2 pgm_pn10_3_s1:1 vs_30_10:A 1.000000e-03
*END

*D_NET pgm_pn10_3_s2 5.199293e-03
*CONN
*I lt_pn10_3_s2:Z O
*I vs_33_10:A I
*CAP
1 pgm_pn10_3_s2:1 5.199293e-03
*RES
1 lt_pn10_3_s2:Z pgm_pn10_3_s2:1 5.900064e+00
2 pgm_pn10_3_s2:1 vs_33_10:A 1.000000e-03
*END

*D_NET pgm_pn10_4_s1 3.667649e-03
*CONN
*I lt_pn10_4_s1:Z O
*I vs_23_10:A I
*CAP
1 pgm_pn10_4_s1:1 3.667649e-03
*RES
1 lt_pn10_4_s1:Z pgm_pn10_4_s1:1 4.161983e+00
2 pgm_pn10_4_s1:1 vs_23_10:A 1.000000e-03
*END

*D_NET pgm_pn10_4_s2 8.206291e-03
*CONN
*I lt_pn10_4_s2:Z O
*I vs_32_10:A I
*CAP
1 pgm_pn10_4_s2:1 8.206291e-03
*RES
1 lt_pn10_4_s2:Z pgm_pn10_4_s2:1 9.312352e+00
2 pgm_pn10_4_s2:1 vs_32_10:A 1.000000e-03
*END

*D_NET pgm_pn10_4_s3 1.300564e-03
*CONN
*I lt_pn10_4_s3:Z O
*I vs_54_10:A I
*CAP
1 pgm_pn10_4_s3:1 1.300564e-03
*RES
1 lt_pn10_4_s3:Z pgm_pn10_4_s3:1 1.475857e+00
2 pgm_pn10_4_s3:1 vs_54_10:A 1.000000e-03
*END

*D_NET pgm_pn10_5_s0 5.329645e-03
*CONN
*I lt_pn10_5_s0:Z O
*I vs_3_10:A I
*CAP
1 pgm_pn10_5_s0:1 5.329645e-03
*RES
1 lt_pn10_5_s0:Z pgm_pn10_5_s0:1 6.047986e+00
2 pgm_pn10_5_s0:1 vs_3_10:A 1.000000e-03
*END

*D_NET pgm_pn10_5_s3 1.334190e-02
*CONN
*I lt_pn10_5_s3:Z O
*I vs_62_10:A I
*CAP
1 pgm_pn10_5_s3:1 1.334190e-02
*RES
1 lt_pn10_5_s3:Z pgm_pn10_5_s3:1 1.371196e+01
2 pgm_pn10_5_s3:1 vs_62_10:A 1.000000e-03
*END

*D_NET pgm_pn10_6_s2 1.362778e-04
*CONN
*I lt_pn10_6_s2:Z O
*I vs_40_10:A I
*CAP
1 pgm_pn10_6_s2:1 1.362778e-04
*RES
1 lt_pn10_6_s2:Z pgm_pn10_6_s2:1 1.546456e-01
2 pgm_pn10_6_s2:1 vs_40_10:A 1.000000e-03
*END

*D_NET pgm_pn10_6_s3 1.165175e-02
*CONN
*I lt_pn10_6_s3:Z O
*I vs_57_10:A I
*I vs_49_10:A I
*CAP
1 pgm_pn10_6_s3:1 1.165175e-02
*RES
1 lt_pn10_6_s3:Z pgm_pn10_6_s3:1 1.322220e+01
2 pgm_pn10_6_s3:1 vs_57_10:A 1.000000e-03
3 pgm_pn10_6_s3:1 vs_49_10:A 1.000000e-03
*END

*D_NET pgm_pn10_7_s0 1.224722e-02
*CONN
*I lt_pn10_7_s0:Z O
*I vs_1_10:A I
*CAP
1 pgm_pn10_7_s0:1 1.224722e-02
*RES
1 lt_pn10_7_s0:Z pgm_pn10_7_s0:1 1.389793e+01
2 pgm_pn10_7_s0:1 vs_1_10:A 1.000000e-03
*END

*D_NET pgm_pn10_7_s1 2.725555e-04
*CONN
*I lt_pn10_7_s1:Z O
*I vs_25_10:A I
*CAP
1 pgm_pn10_7_s1:1 2.725555e-04
*RES
1 lt_pn10_7_s1:Z pgm_pn10_7_s1:1 3.092911e-01
2 pgm_pn10_7_s1:1 vs_25_10:A 1.000000e-03
*END

*D_NET pgm_pn10_7_s3 5.732554e-03
*CONN
*I lt_pn10_7_s3:Z O
*I vs_53_10:A I
*CAP
1 pgm_pn10_7_s3:1 5.732554e-03
*RES
1 lt_pn10_7_s3:Z pgm_pn10_7_s3:1 6.505199e+00
2 pgm_pn10_7_s3:1 vs_53_10:A 1.000000e-03
*END

*D_NET pgm_pn10_9_s0 4.040932e-03
*CONN
*I lt_pn10_9_s0:Z O
*I vs_9_10:A I
*CAP
1 pgm_pn10_9_s0:1 4.040932e-03
*RES
1 lt_pn10_9_s0:Z pgm_pn10_9_s0:1 4.585577e+00
2 pgm_pn10_9_s0:1 vs_9_10:A 1.000000e-03
*END

*D_NET pgm_pn10_9_s3 1.617854e-02
*CONN
*I lt_pn10_9_s3:Z O
*I vs_48_10:A I
*CAP
1 pgm_pn10_9_s3:1 1.617854e-02
*RES
1 lt_pn10_9_s3:Z pgm_pn10_9_s3:1 1.835912e+01
2 pgm_pn10_9_s3:1 vs_48_10:A 1.000000e-03
*END

*D_NET pgm_pn11_0_s0 2.382685e-02
*CONN
*I lt_pn11_0_s0:Z O
*I vs_14_11:A I
*I vs_6_11:A I
*I vs_0_11:A I
*CAP
1 pgm_pn11_0_s0:1 2.382685e-02
*RES
1 lt_pn11_0_s0:Z pgm_pn11_0_s0:1 2.575406e+01
2 pgm_pn11_0_s0:1 vs_14_11:A 1.000000e-03
3 pgm_pn11_0_s0:1 vs_6_11:A 1.000000e-03
4 pgm_pn11_0_s0:1 vs_0_11:A 1.000000e-03
*END

*D_NET pgm_pn11_0_s1 1.815457e-02
*CONN
*I lt_pn11_0_s1:Z O
*I vs_29_11:A I
*CAP
1 pgm_pn11_0_s1:1 1.815457e-02
*RES
1 lt_pn11_0_s1:Z pgm_pn11_0_s1:1 2.060148e+01
2 pgm_pn11_0_s1:1 vs_29_11:A 1.000000e-03
*END

*D_NET pgm_pn11_0_s3 2.057202e-02
*CONN
*I lt_pn11_0_s3:Z O
*I vs_63_11:A I
*CAP
1 pgm_pn11_0_s3:1 2.057202e-02
*RES
1 lt_pn11_0_s3:Z pgm_pn11_0_s3:1 2.334476e+01
2 pgm_pn11_0_s3:1 vs_63_11:A 1.000000e-03
*END

*D_NET pgm_pn11_10_s1 1.855690e-02
*CONN
*I lt_pn11_10_s1:Z O
*I vs_20_11:A I
*I vs_16_11:A I
*CAP
1 pgm_pn11_10_s1:1 1.855690e-02
*RES
1 lt_pn11_10_s1:Z pgm_pn11_10_s1:1 1.991780e+01
2 pgm_pn11_10_s1:1 vs_20_11:A 1.000000e-03
3 pgm_pn11_10_s1:1 vs_16_11:A 1.000000e-03
*END

*D_NET pgm_pn11_10_s2 2.036675e-02
*CONN
*I lt_pn11_10_s2:Z O
*I vs_33_11:A I
*CAP
1 pgm_pn11_10_s2:1 2.036675e-02
*RES
1 lt_pn11_10_s2:Z pgm_pn11_10_s2:1 1.995587e+01
2 pgm_pn11_10_s2:1 vs_33_11:A 1.000000e-03
*END

*D_NET pgm_pn11_10_s3 2.888496e-03
*CONN
*I lt_pn11_10_s3:Z O
*I vs_62_11:A I
*CAP
1 pgm_pn11_10_s3:1 2.888496e-03
*RES
1 lt_pn11_10_s3:Z pgm_pn11_10_s3:1 3.277813e+00
2 pgm_pn11_10_s3:1 vs_62_11:A 1.000000e-03
*END

*D_NET pgm_pn11_11_s3 7.995949e-03
*CONN
*I lt_pn11_11_s3:Z O
*I vs_57_11:A I
*CAP
1 pgm_pn11_11_s3:1 7.995949e-03
*RES
1 lt_pn11_11_s3:Z pgm_pn11_11_s3:1 9.073660e+00
2 pgm_pn11_11_s3:1 vs_57_11:A 1.000000e-03
*END

*D_NET pgm_pn11_12_s0 1.390850e-02
*CONN
*I lt_pn11_12_s0:Z O
*I vs_7_11:A I
*CAP
1 pgm_pn11_12_s0:1 1.390850e-02
*RES
1 lt_pn11_12_s0:Z pgm_pn11_12_s0:1 1.363503e+01
2 pgm_pn11_12_s0:1 vs_7_11:A 1.000000e-03
*END

*D_NET pgm_pn11_12_s1 1.392464e-02
*CONN
*I lt_pn11_12_s1:Z O
*I vs_22_11:A I
*CAP
1 pgm_pn11_12_s1:1 1.392464e-02
*RES
1 lt_pn11_12_s1:Z pgm_pn11_12_s1:1 1.408528e+01
2 pgm_pn11_12_s1:1 vs_22_11:A 1.000000e-03
*END

*D_NET pgm_pn11_12_s3 1.390302e-02
*CONN
*I lt_pn11_12_s3:Z O
*I vs_55_11:A I
*CAP
1 pgm_pn11_12_s3:1 1.390302e-02
*RES
1 lt_pn11_12_s3:Z pgm_pn11_12_s3:1 1.377279e+01
2 pgm_pn11_12_s3:1 vs_55_11:A 1.000000e-03
*END

*D_NET pgm_pn11_1_s2 1.348840e-02
*CONN
*I lt_pn11_1_s2:Z O
*I vs_43_11:A I
*CAP
1 pgm_pn11_1_s2:1 1.348840e-02
*RES
1 lt_pn11_1_s2:Z pgm_pn11_1_s2:1 1.431014e+01
2 pgm_pn11_1_s2:1 vs_43_11:A 1.000000e-03
*END

*D_NET pgm_pn11_2_s0 1.250735e-02
*CONN
*I lt_pn11_2_s0:Z O
*I vs_11_11:A I
*CAP
1 pgm_pn11_2_s0:1 1.250735e-02
*RES
1 lt_pn11_2_s0:Z pgm_pn11_2_s0:1 1.305288e+01
2 pgm_pn11_2_s0:1 vs_11_11:A 1.000000e-03
*END

*D_NET pgm_pn11_3_s1 1.476359e-02
*CONN
*I lt_pn11_3_s1:Z O
*I vs_30_11:A I
*I vs_26_11:A I
*CAP
1 pgm_pn11_3_s1:1 1.476359e-02
*RES
1 lt_pn11_3_s1:Z pgm_pn11_3_s1:1 1.580102e+01
2 pgm_pn11_3_s1:1 vs_30_11:A 1.000000e-03
3 pgm_pn11_3_s1:1 vs_26_11:A 1.000000e-03
*END

*D_NET pgm_pn11_3_s3 1.925664e-03
*CONN
*I lt_pn11_3_s3:Z O
*I vs_52_11:A I
*CAP
1 pgm_pn11_3_s3:1 1.925664e-03
*RES
1 lt_pn11_3_s3:Z pgm_pn11_3_s3:1 2.185209e+00
2 pgm_pn11_3_s3:1 vs_52_11:A 1.000000e-03
*END

*D_NET pgm_pn11_4_s0 6.322103e-03
*CONN
*I lt_pn11_4_s0:Z O
*I vs_1_11:A I
*CAP
1 pgm_pn11_4_s0:1 6.322103e-03
*RES
1 lt_pn11_4_s0:Z pgm_pn11_4_s0:1 7.174209e+00
2 pgm_pn11_4_s0:1 vs_1_11:A 1.000000e-03
*END

*D_NET pgm_pn11_4_s1 2.826282e-03
*CONN
*I lt_pn11_4_s1:Z O
*I vs_23_11:A I
*CAP
1 pgm_pn11_4_s1:1 2.826282e-03
*RES
1 lt_pn11_4_s1:Z pgm_pn11_4_s1:1 3.207214e+00
2 pgm_pn11_4_s1:1 vs_23_11:A 1.000000e-03
*END

*D_NET pgm_pn11_4_s3 6.498902e-03
*CONN
*I lt_pn11_4_s3:Z O
*I vs_49_11:A I
*CAP
1 pgm_pn11_4_s3:1 6.498902e-03
*RES
1 lt_pn11_4_s3:Z pgm_pn11_4_s3:1 6.322242e+00
2 pgm_pn11_4_s3:1 vs_49_11:A 1.000000e-03
*END

*D_NET pgm_pn11_5_s1 1.232129e-02
*CONN
*I lt_pn11_5_s1:Z O
*I vs_31_11:A I
*CAP
1 pgm_pn11_5_s1:1 1.232129e-02
*RES
1 lt_pn11_5_s1:Z pgm_pn11_5_s1:1 1.398198e+01
2 pgm_pn11_5_s1:1 vs_31_11:A 1.000000e-03
*END

*D_NET pgm_pn11_6_s2 9.557219e-03
*CONN
*I lt_pn11_6_s2:Z O
*I vs_46_11:A I
*CAP
1 pgm_pn11_6_s2:1 9.557219e-03
*RES
1 lt_pn11_6_s2:Z pgm_pn11_6_s2:1 1.084536e+01
2 pgm_pn11_6_s2:1 vs_46_11:A 1.000000e-03
*END

*D_NET pgm_pn11_7_s0 1.940477e-03
*CONN
*I lt_pn11_7_s0:Z O
*I vs_10_11:A I
*CAP
1 pgm_pn11_7_s0:1 1.940477e-03
*RES
1 lt_pn11_7_s0:Z pgm_pn11_7_s0:1 2.202018e+00
2 pgm_pn11_7_s0:1 vs_10_11:A 1.000000e-03
*END

*D_NET pgm_pn11_7_s2 2.725555e-04
*CONN
*I lt_pn11_7_s2:Z O
*I vs_41_11:A I
*CAP
1 pgm_pn11_7_s2:1 2.725555e-04
*RES
1 lt_pn11_7_s2:Z pgm_pn11_7_s2:1 3.092911e-01
2 pgm_pn11_7_s2:1 vs_41_11:A 1.000000e-03
*END

*D_NET pgm_pn11_7_s3 1.054132e-02
*CONN
*I lt_pn11_7_s3:Z O
*I vs_51_11:A I
*CAP
1 pgm_pn11_7_s3:1 1.054132e-02
*RES
1 lt_pn11_7_s3:Z pgm_pn11_7_s3:1 1.118181e+01
2 pgm_pn11_7_s3:1 vs_51_11:A 1.000000e-03
*END

*D_NET pgm_pn11_8_s1 1.317747e-02
*CONN
*I lt_pn11_8_s1:Z O
*I vs_17_11:A I
*CAP
1 pgm_pn11_8_s1:1 1.317747e-02
*RES
1 lt_pn11_8_s1:Z pgm_pn11_8_s1:1 1.495355e+01
2 pgm_pn11_8_s1:1 vs_17_11:A 1.000000e-03
*END

*D_NET pgm_pn11_9_s3 2.832207e-03
*CONN
*I lt_pn11_9_s3:Z O
*I vs_61_11:A I
*CAP
1 pgm_pn11_9_s3:1 2.832207e-03
*RES
1 lt_pn11_9_s3:Z pgm_pn11_9_s3:1 3.213938e+00
2 pgm_pn11_9_s3:1 vs_61_11:A 1.000000e-03
*END

*D_NET pgm_pn12_0_s0 2.118601e-02
*CONN
*I lt_pn12_0_s0:Z O
*I vs_14_12:A I
*I vs_12_12:A I
*CAP
1 pgm_pn12_0_s0:1 2.118601e-02
*RES
1 lt_pn12_0_s0:Z pgm_pn12_0_s0:1 2.333321e+01
2 pgm_pn12_0_s0:1 vs_14_12:A 1.000000e-03
3 pgm_pn12_0_s0:1 vs_12_12:A 1.000000e-03
*END

*D_NET pgm_pn12_0_s1 2.092456e-02
*CONN
*I lt_pn12_0_s1:Z O
*I vs_31_12:A I
*CAP
1 pgm_pn12_0_s1:1 2.092456e-02
*RES
1 lt_pn12_0_s1:Z pgm_pn12_0_s1:1 2.374482e+01
2 pgm_pn12_0_s1:1 vs_31_12:A 1.000000e-03
*END

*D_NET pgm_pn12_0_s2 1.660872e-02
*CONN
*I lt_pn12_0_s2:Z O
*I vs_44_12:A I
*CAP
1 pgm_pn12_0_s2:1 1.660872e-02
*RES
1 lt_pn12_0_s2:Z pgm_pn12_0_s2:1 1.713113e+01
2 pgm_pn12_0_s2:1 vs_44_12:A 1.000000e-03
*END

*D_NET pgm_pn12_11_s0 1.780795e-02
*CONN
*I lt_pn12_11_s0:Z O
*I vs_2_12:A I
*CAP
1 pgm_pn12_11_s0:1 1.780795e-02
*RES
1 lt_pn12_11_s0:Z pgm_pn12_11_s0:1 2.020814e+01
2 pgm_pn12_11_s0:1 vs_2_12:A 1.000000e-03
*END

*D_NET pgm_pn12_11_s1 2.707780e-03
*CONN
*I lt_pn12_11_s1:Z O
*I vs_29_12:A I
*CAP
1 pgm_pn12_11_s1:1 2.707780e-03
*RES
1 lt_pn12_11_s1:Z pgm_pn12_11_s1:1 3.072740e+00
2 pgm_pn12_11_s1:1 vs_29_12:A 1.000000e-03
*END

*D_NET pgm_pn12_12_s1 6.291760e-03
*CONN
*I lt_pn12_12_s1:Z O
*I vs_28_12:A I
*CAP
1 pgm_pn12_12_s1:1 6.291760e-03
*RES
1 lt_pn12_12_s1:Z pgm_pn12_12_s1:1 4.991685e+00
2 pgm_pn12_12_s1:1 vs_28_12:A 1.000000e-03
*END

*D_NET pgm_pn12_12_s2 8.437539e-03
*CONN
*I lt_pn12_12_s2:Z O
*I vs_43_12:A I
*CAP
1 pgm_pn12_12_s2:1 8.437539e-03
*RES
1 lt_pn12_12_s2:Z pgm_pn12_12_s2:1 7.714636e+00
2 pgm_pn12_12_s2:1 vs_43_12:A 1.000000e-03
*END

*D_NET pgm_pn12_12_s3 2.116337e-02
*CONN
*I lt_pn12_12_s3:Z O
*I vs_59_12:A I
*I vs_51_12:A I
*CAP
1 pgm_pn12_12_s3:1 2.116337e-02
*RES
1 lt_pn12_12_s3:Z pgm_pn12_12_s3:1 2.172954e+01
2 pgm_pn12_12_s3:1 vs_59_12:A 1.000000e-03
3 pgm_pn12_12_s3:1 vs_51_12:A 1.000000e-03
*END

*D_NET pgm_pn12_1_s0 8.746497e-03
*CONN
*I lt_pn12_1_s0:Z O
*I vs_7_12:A I
*CAP
1 pgm_pn12_1_s0:1 8.746497e-03
*RES
1 lt_pn12_1_s0:Z pgm_pn12_1_s0:1 7.965076e+00
2 pgm_pn12_1_s0:1 vs_7_12:A 1.000000e-03
*END

*D_NET pgm_pn12_1_s1 2.168594e-03
*CONN
*I lt_pn12_1_s1:Z O
*I vs_17_12:A I
*CAP
1 pgm_pn12_1_s1:1 2.168594e-03
*RES
1 lt_pn12_1_s1:Z pgm_pn12_1_s1:1 2.460882e+00
2 pgm_pn12_1_s1:1 vs_17_12:A 1.000000e-03
*END

*D_NET pgm_pn12_1_s2 5.391859e-03
*CONN
*I lt_pn12_1_s2:Z O
*I vs_37_12:A I
*CAP
1 pgm_pn12_1_s2:1 5.391859e-03
*RES
1 lt_pn12_1_s2:Z pgm_pn12_1_s2:1 6.118585e+00
2 pgm_pn12_1_s2:1 vs_37_12:A 1.000000e-03
*END

*D_NET pgm_pn12_1_s3 2.073410e-02
*CONN
*I lt_pn12_1_s3:Z O
*I vs_62_12:A I
*CAP
1 pgm_pn12_1_s3:1 2.073410e-02
*RES
1 lt_pn12_1_s3:Z pgm_pn12_1_s3:1 2.037274e+01
2 pgm_pn12_1_s3:1 vs_62_12:A 1.000000e-03
*END

*D_NET pgm_pn12_2_s0 1.909370e-02
*CONN
*I lt_pn12_2_s0:Z O
*I vs_15_12:A I
*I vs_6_12:A I
*CAP
1 pgm_pn12_2_s0:1 1.909370e-02
*RES
1 lt_pn12_2_s0:Z pgm_pn12_2_s0:1 2.166719e+01
2 pgm_pn12_2_s0:1 vs_15_12:A 1.000000e-03
3 pgm_pn12_2_s0:1 vs_6_12:A 1.000000e-03
*END

*D_NET pgm_pn12_2_s2 9.967243e-03
*CONN
*I lt_pn12_2_s2:Z O
*I vs_41_12:A I
*I vs_38_12:A I
*CAP
1 pgm_pn12_2_s2:1 9.967243e-03
*RES
1 lt_pn12_2_s2:Z pgm_pn12_2_s2:1 1.074633e+01
2 pgm_pn12_2_s2:1 vs_41_12:A 1.000000e-03
3 pgm_pn12_2_s2:1 vs_38_12:A 1.000000e-03
*END

*D_NET pgm_pn12_2_s3 1.265902e-02
*CONN
*I lt_pn12_2_s3:Z O
*I vs_56_12:A I
*I vs_50_12:A I
*CAP
1 pgm_pn12_2_s3:1 1.265902e-02
*RES
1 lt_pn12_2_s3:Z pgm_pn12_2_s3:1 1.436523e+01
2 pgm_pn12_2_s3:1 vs_56_12:A 1.000000e-03
3 pgm_pn12_2_s3:1 vs_50_12:A 1.000000e-03
*END

*D_NET pgm_pn12_3_s1 1.424991e-02
*CONN
*I lt_pn12_3_s1:Z O
*I vs_30_12:A I
*CAP
1 pgm_pn12_3_s1:1 1.424991e-02
*RES
1 lt_pn12_3_s1:Z pgm_pn12_3_s1:1 1.617055e+01
2 pgm_pn12_3_s1:1 vs_30_12:A 1.000000e-03
*END

*D_NET pgm_pn12_3_s3 9.018033e-03
*CONN
*I lt_pn12_3_s3:Z O
*I vs_58_12:A I
*CAP
1 pgm_pn12_3_s3:1 9.018033e-03
*RES
1 lt_pn12_3_s3:Z pgm_pn12_3_s3:1 1.023350e+01
2 pgm_pn12_3_s3:1 vs_58_12:A 1.000000e-03
*END

*D_NET pgm_pn12_4_s0 1.293454e-02
*CONN
*I lt_pn12_4_s0:Z O
*I vs_13_12:A I
*CAP
1 pgm_pn12_4_s0:1 1.293454e-02
*RES
1 lt_pn12_4_s0:Z pgm_pn12_4_s0:1 1.467788e+01
2 pgm_pn12_4_s0:1 vs_13_12:A 1.000000e-03
*END

*D_NET pgm_pn12_5_s0 6.129537e-03
*CONN
*I lt_pn12_5_s0:Z O
*I vs_11_12:A I
*CAP
1 pgm_pn12_5_s0:1 6.129537e-03
*RES
1 lt_pn12_5_s0:Z pgm_pn12_5_s0:1 6.955688e+00
2 pgm_pn12_5_s0:1 vs_11_12:A 1.000000e-03
*END

*D_NET pgm_pn12_5_s3 4.010997e-03
*CONN
*I lt_pn12_5_s3:Z O
*I vs_52_12:A I
*CAP
1 pgm_pn12_5_s3:1 4.010997e-03
*RES
1 lt_pn12_5_s3:Z pgm_pn12_5_s3:1 1.614759e+00
2 pgm_pn12_5_s3:1 vs_52_12:A 1.000000e-03
*END

*D_NET pgm_pn12_7_s1 2.725555e-04
*CONN
*I lt_pn12_7_s1:Z O
*I vs_25_12:A I
*CAP
1 pgm_pn12_7_s1:1 2.725555e-04
*RES
1 lt_pn12_7_s1:Z pgm_pn12_7_s1:1 3.092911e-01
2 pgm_pn12_7_s1:1 vs_25_12:A 1.000000e-03
*END

*D_NET pgm_pn12_8_s0 2.293021e-03
*CONN
*I lt_pn12_8_s0:Z O
*I vs_10_12:A I
*I vs_9_12:A I
*CAP
1 pgm_pn12_8_s0:1 2.293021e-03
*RES
1 lt_pn12_8_s0:Z pgm_pn12_8_s0:1 2.602080e+00
2 pgm_pn12_8_s0:1 vs_10_12:A 1.000000e-03
3 pgm_pn12_8_s0:1 vs_9_12:A 1.000000e-03
*END

*D_NET pgm_pn12_8_s2 1.162154e-02
*CONN
*I lt_pn12_8_s2:Z O
*I vs_35_12:A I
*CAP
1 pgm_pn12_8_s2:1 1.162154e-02
*RES
1 lt_pn12_8_s2:Z pgm_pn12_8_s2:1 1.204768e+01
2 pgm_pn12_8_s2:1 vs_35_12:A 1.000000e-03
*END

*D_NET pgm_pn13_0_s1 7.519145e-03
*CONN
*I lt_pn13_0_s1:Z O
*I vs_20_13:A I
*CAP
1 pgm_pn13_0_s1:1 7.519145e-03
*RES
1 lt_pn13_0_s1:Z pgm_pn13_0_s1:1 6.672459e+00
2 pgm_pn13_0_s1:1 vs_20_13:A 1.000000e-03
*END

*D_NET pgm_pn13_10_s0 1.744059e-02
*CONN
*I lt_pn13_10_s0:Z O
*I vs_1_13:A I
*CAP
1 pgm_pn13_10_s0:1 1.744059e-02
*RES
1 lt_pn13_10_s0:Z pgm_pn13_10_s0:1 1.979127e+01
2 pgm_pn13_10_s0:1 vs_1_13:A 1.000000e-03
*END

*D_NET pgm_pn13_10_s1 5.049699e-03
*CONN
*I lt_pn13_10_s1:Z O
*I vs_28_13:A I
*I vs_26_13:A I
*CAP
1 pgm_pn13_10_s1:1 5.049699e-03
*RES
1 lt_pn13_10_s1:Z pgm_pn13_10_s1:1 4.302114e+00
2 pgm_pn13_10_s1:1 vs_28_13:A 1.000000e-03
3 pgm_pn13_10_s1:1 vs_26_13:A 1.000000e-03
*END

*D_NET pgm_pn13_11_s0 2.995759e-03
*CONN
*I lt_pn13_11_s0:Z O
*I vs_13_13:A I
*CAP
1 pgm_pn13_11_s0:1 2.995759e-03
*RES
1 lt_pn13_11_s0:Z pgm_pn13_11_s0:1 1.683381e+00
2 pgm_pn13_11_s0:1 vs_13_13:A 1.000000e-03
*END

*D_NET pgm_pn13_1_s0 2.015610e-02
*CONN
*I lt_pn13_1_s0:Z O
*I vs_14_13:A I
*CAP
1 pgm_pn13_1_s0:1 2.015610e-02
*RES
1 lt_pn13_1_s0:Z pgm_pn13_1_s0:1 2.058071e+01
2 pgm_pn13_1_s0:1 vs_14_13:A 1.000000e-03
*END

*D_NET pgm_pn13_1_s2 1.399513e-02
*CONN
*I lt_pn13_1_s2:Z O
*I vs_43_13:A I
*I vs_40_13:A I
*CAP
1 pgm_pn13_1_s2:1 1.399513e-02
*RES
1 lt_pn13_1_s2:Z pgm_pn13_1_s2:1 1.588143e+01
2 pgm_pn13_1_s2:1 vs_43_13:A 1.000000e-03
3 pgm_pn13_1_s2:1 vs_40_13:A 1.000000e-03
*END

*D_NET pgm_pn13_1_s3 1.388109e-02
*CONN
*I lt_pn13_1_s3:Z O
*I vs_58_13:A I
*I vs_51_13:A I
*CAP
1 pgm_pn13_1_s3:1 1.388109e-02
*RES
1 lt_pn13_1_s3:Z pgm_pn13_1_s3:1 1.432382e+01
2 pgm_pn13_1_s3:1 vs_58_13:A 1.000000e-03
3 pgm_pn13_1_s3:1 vs_51_13:A 1.000000e-03
*END

*D_NET pgm_pn13_2_s1 1.196874e-02
*CONN
*I lt_pn13_2_s1:Z O
*I vs_27_13:A I
*CAP
1 pgm_pn13_2_s1:1 1.196874e-02
*RES
1 lt_pn13_2_s1:Z pgm_pn13_2_s1:1 1.358191e+01
2 pgm_pn13_2_s1:1 vs_27_13:A 1.000000e-03
*END

*D_NET pgm_pn13_3_s0 5.501474e-03
*CONN
*I lt_pn13_3_s0:Z O
*I vs_7_13:A I
*CAP
1 pgm_pn13_3_s0:1 5.501474e-03
*RES
1 lt_pn13_3_s0:Z pgm_pn13_3_s0:1 6.242974e+00
2 pgm_pn13_3_s0:1 vs_7_13:A 1.000000e-03
*END

*D_NET pgm_pn13_3_s3 1.077217e-02
*CONN
*I lt_pn13_3_s3:Z O
*I vs_59_13:A I
*CAP
1 pgm_pn13_3_s3:1 1.077217e-02
*RES
1 lt_pn13_3_s3:Z pgm_pn13_3_s3:1 1.137179e+01
2 pgm_pn13_3_s3:1 vs_59_13:A 1.000000e-03
*END

*D_NET pgm_pn13_4_s2 7.219759e-03
*CONN
*I lt_pn13_4_s2:Z O
*I vs_33_13:A I
*CAP
1 pgm_pn13_4_s2:1 7.219759e-03
*RES
1 lt_pn13_4_s2:Z pgm_pn13_4_s2:1 8.192853e+00
2 pgm_pn13_4_s2:1 vs_33_13:A 1.000000e-03
*END

*D_NET pgm_pn13_5_s3 3.309180e-03
*CONN
*I lt_pn13_5_s3:Z O
*I vs_57_13:A I
*CAP
1 pgm_pn13_5_s3:1 3.309180e-03
*RES
1 lt_pn13_5_s3:Z pgm_pn13_5_s3:1 3.755198e+00
2 pgm_pn13_5_s3:1 vs_57_13:A 1.000000e-03
*END

*D_NET pgm_pn13_6_s2 5.919195e-03
*CONN
*I lt_pn13_6_s2:Z O
*I vs_44_13:A I
*CAP
1 pgm_pn13_6_s2:1 5.919195e-03
*RES
1 lt_pn13_6_s2:Z pgm_pn13_6_s2:1 6.716996e+00
2 pgm_pn13_6_s2:1 vs_44_13:A 1.000000e-03
*END

*D_NET pgm_pn13_7_s0 1.071558e-02
*CONN
*I lt_pn13_7_s0:Z O
*I vs_11_13:A I
*I vs_4_13:A I
*CAP
1 pgm_pn13_7_s0:1 1.071558e-02
*RES
1 lt_pn13_7_s0:Z pgm_pn13_7_s0:1 1.215985e+01
2 pgm_pn13_7_s0:1 vs_11_13:A 1.000000e-03
3 pgm_pn13_7_s0:1 vs_4_13:A 1.000000e-03
*END

*D_NET pgm_pn13_7_s2 1.531644e-03
*CONN
*I lt_pn13_7_s2:Z O
*I vs_42_13:A I
*CAP
1 pgm_pn13_7_s2:1 1.531644e-03
*RES
1 lt_pn13_7_s2:Z pgm_pn13_7_s2:1 1.738082e+00
2 pgm_pn13_7_s2:1 vs_42_13:A 1.000000e-03
*END

*D_NET pgm_pn13_8_s0 1.071558e-02
*CONN
*I lt_pn13_8_s0:Z O
*I vs_5_13:A I
*CAP
1 pgm_pn13_8_s0:1 1.071558e-02
*RES
1 lt_pn13_8_s0:Z pgm_pn13_8_s0:1 1.215985e+01
2 pgm_pn13_8_s0:1 vs_5_13:A 1.000000e-03
*END

*D_NET pgm_pn13_8_s3 7.963224e-03
*CONN
*I lt_pn13_8_s3:Z O
*I vs_54_13:A I
*CAP
1 pgm_pn13_8_s3:1 7.963224e-03
*RES
1 lt_pn13_8_s3:Z pgm_pn13_8_s3:1 8.040268e+00
2 pgm_pn13_8_s3:1 vs_54_13:A 1.000000e-03
*END

*D_NET pgm_pn13_9_s2 2.422495e-02
*CONN
*I lt_pn13_9_s2:Z O
*I vs_32_13:A I
*CAP
1 pgm_pn13_9_s2:1 2.422495e-02
*RES
1 lt_pn13_9_s2:Z pgm_pn13_9_s2:1 1.887447e+01
2 pgm_pn13_9_s2:1 vs_32_13:A 1.000000e-03
*END

*D_NET pgm_pn14_0_s0 1.843604e-02
*CONN
*I lt_pn14_0_s0:Z O
*I vs_11_14:A I
*CAP
1 pgm_pn14_0_s0:1 1.843604e-02
*RES
1 lt_pn14_0_s0:Z pgm_pn14_0_s0:1 1.805290e+01
2 pgm_pn14_0_s0:1 vs_11_14:A 1.000000e-03
*END

*D_NET pgm_pn14_0_s2 7.845470e-03
*CONN
*I lt_pn14_0_s2:Z O
*I vs_37_14:A I
*I vs_36_14:A I
*CAP
1 pgm_pn14_0_s2:1 7.845470e-03
*RES
1 lt_pn14_0_s2:Z pgm_pn14_0_s2:1 7.186746e+00
2 pgm_pn14_0_s2:1 vs_37_14:A 1.000000e-03
3 pgm_pn14_0_s2:1 vs_36_14:A 1.000000e-03
*END

*D_NET pgm_pn14_0_s3 1.412549e-02
*CONN
*I lt_pn14_0_s3:Z O
*I vs_58_14:A I
*CAP
1 pgm_pn14_0_s3:1 1.412549e-02
*RES
1 lt_pn14_0_s3:Z pgm_pn14_0_s3:1 1.602935e+01
2 pgm_pn14_0_s3:1 vs_58_14:A 1.000000e-03
*END

*D_NET pgm_pn14_10_s3 1.667784e-03
*CONN
*I lt_pn14_10_s3:Z O
*I vs_61_14:A I
*CAP
1 pgm_pn14_10_s3:1 1.667784e-03
*RES
1 lt_pn14_10_s3:Z pgm_pn14_10_s3:1 8.963154e-01
2 pgm_pn14_10_s3:1 vs_61_14:A 1.000000e-03
*END

*D_NET pgm_pn14_11_s0 1.635333e-03
*CONN
*I lt_pn14_11_s0:Z O
*I vs_14_14:A I
*CAP
1 pgm_pn14_11_s0:1 1.635333e-03
*RES
1 lt_pn14_11_s0:Z pgm_pn14_11_s0:1 1.855747e+00
2 pgm_pn14_11_s0:1 vs_14_14:A 1.000000e-03
*END

*D_NET pgm_pn14_12_s0 1.511927e-02
*CONN
*I lt_pn14_12_s0:Z O
*I vs_7_14:A I
*CAP
1 pgm_pn14_12_s0:1 1.511927e-02
*RES
1 lt_pn14_12_s0:Z pgm_pn14_12_s0:1 1.433291e+01
2 pgm_pn14_12_s0:1 vs_7_14:A 1.000000e-03
*END

*D_NET pgm_pn14_1_s0 2.032316e-03
*CONN
*I lt_pn14_1_s0:Z O
*I vs_1_14:A I
*CAP
1 pgm_pn14_1_s0:1 2.032316e-03
*RES
1 lt_pn14_1_s0:Z pgm_pn14_1_s0:1 2.306236e+00
2 pgm_pn14_1_s0:1 vs_1_14:A 1.000000e-03
*END

*D_NET pgm_pn14_1_s2 3.643949e-03
*CONN
*I lt_pn14_1_s2:Z O
*I vs_32_14:A I
*CAP
1 pgm_pn14_1_s2:1 3.643949e-03
*RES
1 lt_pn14_1_s2:Z pgm_pn14_1_s2:1 4.135088e+00
2 pgm_pn14_1_s2:1 vs_32_14:A 1.000000e-03
*END

*D_NET pgm_pn14_2_s1 9.657946e-03
*CONN
*I lt_pn14_2_s1:Z O
*I vs_25_14:A I
*I vs_23_14:A I
*CAP
1 pgm_pn14_2_s1:1 9.657946e-03
*RES
1 lt_pn14_2_s1:Z pgm_pn14_2_s1:1 1.095966e+01
2 pgm_pn14_2_s1:1 vs_25_14:A 1.000000e-03
3 pgm_pn14_2_s1:1 vs_23_14:A 1.000000e-03
*END

*D_NET pgm_pn14_3_s0 1.573119e-02
*CONN
*I lt_pn14_3_s0:Z O
*I vs_15_14:A I
*CAP
1 pgm_pn14_3_s0:1 1.573119e-02
*RES
1 lt_pn14_3_s0:Z pgm_pn14_3_s0:1 1.785148e+01
2 pgm_pn14_3_s0:1 vs_15_14:A 1.000000e-03
*END

*D_NET pgm_pn14_4_s2 3.904654e-03
*CONN
*I lt_pn14_4_s2:Z O
*I vs_40_14:A I
*CAP
1 pgm_pn14_4_s2:1 3.904654e-03
*RES
1 lt_pn14_4_s2:Z pgm_pn14_4_s2:1 4.430931e+00
2 pgm_pn14_4_s2:1 vs_40_14:A 1.000000e-03
*END

*D_NET pgm_pn14_4_s3 8.256655e-03
*CONN
*I lt_pn14_4_s3:Z O
*I vs_59_14:A I
*I vs_56_14:A I
*CAP
1 pgm_pn14_4_s3:1 8.256655e-03
*RES
1 lt_pn14_4_s3:Z pgm_pn14_4_s3:1 9.369504e+00
2 pgm_pn14_4_s3:1 vs_59_14:A 1.000000e-03
3 pgm_pn14_4_s3:1 vs_56_14:A 1.000000e-03
*END

*D_NET pgm_pn14_5_s0 2.150819e-03
*CONN
*I lt_pn14_5_s0:Z O
*I vs_5_14:A I
*CAP
1 pgm_pn14_5_s0:1 2.150819e-03
*RES
1 lt_pn14_5_s0:Z pgm_pn14_5_s0:1 2.440710e+00
2 pgm_pn14_5_s0:1 vs_5_14:A 1.000000e-03
*END

*D_NET pgm_pn14_5_s3 2.089865e-02
*CONN
*I lt_pn14_5_s3:Z O
*I vs_63_14:A I
*I vs_49_14:A I
*CAP
1 pgm_pn14_5_s3:1 2.089865e-02
*RES
1 lt_pn14_5_s3:Z pgm_pn14_5_s3:1 2.300711e+01
2 pgm_pn14_5_s3:1 vs_63_14:A 1.000000e-03
3 pgm_pn14_5_s3:1 vs_49_14:A 1.000000e-03
*END

*D_NET pgm_pn14_6_s2 7.717469e-03
*CONN
*I lt_pn14_6_s2:Z O
*I vs_45_14:A I
*CAP
1 pgm_pn14_6_s2:1 7.717469e-03
*RES
1 lt_pn14_6_s2:Z pgm_pn14_6_s2:1 8.757645e+00
2 pgm_pn14_6_s2:1 vs_45_14:A 1.000000e-03
*END

*D_NET pgm_pn14_6_s3 1.229759e-02
*CONN
*I lt_pn14_6_s3:Z O
*I vs_48_14:A I
*CAP
1 pgm_pn14_6_s3:1 1.229759e-02
*RES
1 lt_pn14_6_s3:Z pgm_pn14_6_s3:1 1.395508e+01
2 pgm_pn14_6_s3:1 vs_48_14:A 1.000000e-03
*END

*D_NET pgm_pn14_7_s1 5.596276e-03
*CONN
*I lt_pn14_7_s1:Z O
*I vs_21_14:A I
*CAP
1 pgm_pn14_7_s1:1 5.596276e-03
*RES
1 lt_pn14_7_s1:Z pgm_pn14_7_s1:1 6.350554e+00
2 pgm_pn14_7_s1:1 vs_21_14:A 1.000000e-03
*END

*D_NET pgm_pn14_7_s2 1.418474e-02
*CONN
*I lt_pn14_7_s2:Z O
*I vs_42_14:A I
*I vs_33_14:A I
*CAP
1 pgm_pn14_7_s2:1 1.418474e-02
*RES
1 lt_pn14_7_s2:Z pgm_pn14_7_s2:1 1.609659e+01
2 pgm_pn14_7_s2:1 vs_42_14:A 1.000000e-03
3 pgm_pn14_7_s2:1 vs_33_14:A 1.000000e-03
*END

*D_NET pgm_pn14_7_s3 4.983026e-03
*CONN
*I lt_pn14_7_s3:Z O
*I vs_54_14:A I
*CAP
1 pgm_pn14_7_s3:1 4.983026e-03
*RES
1 lt_pn14_7_s3:Z pgm_pn14_7_s3:1 5.654649e+00
2 pgm_pn14_7_s3:1 vs_54_14:A 1.000000e-03
*END

*D_NET pgm_pn14_8_s0 2.293021e-03
*CONN
*I lt_pn14_8_s0:Z O
*I vs_9_14:A I
*CAP
1 pgm_pn14_8_s0:1 2.293021e-03
*RES
1 lt_pn14_8_s0:Z pgm_pn14_8_s0:1 2.602080e+00
2 pgm_pn14_8_s0:1 vs_9_14:A 1.000000e-03
*END

*D_NET pgm_pn14_8_s1 8.304056e-03
*CONN
*I lt_pn14_8_s1:Z O
*I vs_31_14:A I
*CAP
1 pgm_pn14_8_s1:1 8.304056e-03
*RES
1 lt_pn14_8_s1:Z pgm_pn14_8_s1:1 9.423294e+00
2 pgm_pn14_8_s1:1 vs_31_14:A 1.000000e-03
*END

*D_NET pgm_pn14_9_s1 1.709397e-03
*CONN
*I lt_pn14_9_s1:Z O
*I vs_28_14:A I
*CAP
1 pgm_pn14_9_s1:1 1.709397e-03
*RES
1 lt_pn14_9_s1:Z pgm_pn14_9_s1:1 1.939793e+00
2 pgm_pn14_9_s1:1 vs_28_14:A 1.000000e-03
*END

*D_NET pgm_pn15_0_s0 1.171798e-02
*CONN
*I lt_pn15_0_s0:Z O
*I vs_8_15:A I
*CAP
1 pgm_pn15_0_s0:1 1.171798e-02
*RES
1 lt_pn15_0_s0:Z pgm_pn15_0_s0:1 1.172518e+01
2 pgm_pn15_0_s0:1 vs_8_15:A 1.000000e-03
*END

*D_NET pgm_pn15_0_s2 1.020159e-02
*CONN
*I lt_pn15_0_s2:Z O
*I vs_39_15:A I
*CAP
1 pgm_pn15_0_s2:1 1.020159e-02
*RES
1 lt_pn15_0_s2:Z pgm_pn15_0_s2:1 1.014839e+01
2 pgm_pn15_0_s2:1 vs_39_15:A 1.000000e-03
*END

*D_NET pgm_pn15_10_s0 1.644221e-02
*CONN
*I lt_pn15_10_s0:Z O
*I vs_2_15:A I
*CAP
1 pgm_pn15_10_s0:1 1.644221e-02
*RES
1 lt_pn15_10_s0:Z pgm_pn15_10_s0:1 1.865832e+01
2 pgm_pn15_10_s0:1 vs_2_15:A 1.000000e-03
*END

*D_NET pgm_pn15_10_s2 1.750280e-02
*CONN
*I lt_pn15_10_s2:Z O
*I vs_46_15:A I
*I vs_45_15:A I
*I vs_35_15:A I
*CAP
1 pgm_pn15_10_s2:1 1.750280e-02
*RES
1 lt_pn15_10_s2:Z pgm_pn15_10_s2:1 1.986187e+01
2 pgm_pn15_10_s2:1 vs_46_15:A 1.000000e-03
3 pgm_pn15_10_s2:1 vs_45_15:A 1.000000e-03
4 pgm_pn15_10_s2:1 vs_35_15:A 1.000000e-03
*END

*D_NET pgm_pn15_12_s2 7.483595e-03
*CONN
*I lt_pn15_12_s2:Z O
*I vs_43_15:A I
*CAP
1 pgm_pn15_12_s2:1 7.483595e-03
*RES
1 lt_pn15_12_s2:Z pgm_pn15_12_s2:1 6.632117e+00
2 pgm_pn15_12_s2:1 vs_43_15:A 1.000000e-03
*END

*D_NET pgm_pn15_1_s0 2.148421e-02
*CONN
*I lt_pn15_1_s0:Z O
*I vs_15_15:A I
*CAP
1 pgm_pn15_1_s0:1 2.148421e-02
*RES
1 lt_pn15_1_s0:Z pgm_pn15_1_s0:1 2.237579e+01
2 pgm_pn15_1_s0:1 vs_15_15:A 1.000000e-03
*END

*D_NET pgm_pn15_1_s2 7.003492e-03
*CONN
*I lt_pn15_1_s2:Z O
*I vs_38_15:A I
*CAP
1 pgm_pn15_1_s2:1 7.003492e-03
*RES
1 lt_pn15_1_s2:Z pgm_pn15_1_s2:1 7.947437e+00
2 pgm_pn15_1_s2:1 vs_38_15:A 1.000000e-03
*END

*D_NET pgm_pn15_2_s1 7.983519e-03
*CONN
*I lt_pn15_2_s1:Z O
*I vs_24_15:A I
*CAP
1 pgm_pn15_2_s1:1 7.983519e-03
*RES
1 lt_pn15_2_s1:Z pgm_pn15_2_s1:1 7.919319e+00
2 pgm_pn15_2_s1:1 vs_24_15:A 1.000000e-03
*END

*D_NET pgm_pn15_2_s2 2.009504e-02
*CONN
*I lt_pn15_2_s2:Z O
*I vs_47_15:A I
*I vs_41_15:A I
*CAP
1 pgm_pn15_2_s2:1 2.009504e-02
*RES
1 lt_pn15_2_s2:Z pgm_pn15_2_s2:1 2.280350e+01
2 pgm_pn15_2_s2:1 vs_47_15:A 1.000000e-03
3 pgm_pn15_2_s2:1 vs_41_15:A 1.000000e-03
*END

*D_NET pgm_pn15_3_s0 6.055473e-03
*CONN
*I lt_pn15_3_s0:Z O
*I vs_0_15:A I
*CAP
1 pgm_pn15_3_s0:1 6.055473e-03
*RES
1 lt_pn15_3_s0:Z pgm_pn15_3_s0:1 6.871642e+00
2 pgm_pn15_3_s0:1 vs_0_15:A 1.000000e-03
*END

*D_NET pgm_pn15_3_s1 1.275678e-02
*CONN
*I lt_pn15_3_s1:Z O
*I vs_28_15:A I
*I vs_23_15:A I
*CAP
1 pgm_pn15_3_s1:1 1.275678e-02
*RES
1 lt_pn15_3_s1:Z pgm_pn15_3_s1:1 1.447617e+01
2 pgm_pn15_3_s1:1 vs_28_15:A 1.000000e-03
3 pgm_pn15_3_s1:1 vs_23_15:A 1.000000e-03
*END

*D_NET pgm_pn15_3_s2 1.224034e-02
*CONN
*I lt_pn15_3_s2:Z O
*I vs_44_15:A I
*CAP
1 pgm_pn15_3_s2:1 1.224034e-02
*RES
1 lt_pn15_3_s2:Z pgm_pn15_3_s2:1 1.283753e+01
2 pgm_pn15_3_s2:1 vs_44_15:A 1.000000e-03
*END

*D_NET pgm_pn15_3_s3 7.714506e-03
*CONN
*I lt_pn15_3_s3:Z O
*I vs_55_15:A I
*I vs_52_15:A I
*CAP
1 pgm_pn15_3_s3:1 7.714506e-03
*RES
1 lt_pn15_3_s3:Z pgm_pn15_3_s3:1 8.754283e+00
2 pgm_pn15_3_s3:1 vs_55_15:A 1.000000e-03
3 pgm_pn15_3_s3:1 vs_52_15:A 1.000000e-03
*END

*D_NET pgm_pn15_4_s0 1.233610e-02
*CONN
*I lt_pn15_4_s0:Z O
*I vs_11_15:A I
*I vs_4_15:A I
*CAP
1 pgm_pn15_4_s0:1 1.233610e-02
*RES
1 lt_pn15_4_s0:Z pgm_pn15_4_s0:1 1.399879e+01
2 pgm_pn15_4_s0:1 vs_11_15:A 1.000000e-03
3 pgm_pn15_4_s0:1 vs_4_15:A 1.000000e-03
*END

*D_NET pgm_pn15_4_s3 2.660379e-03
*CONN
*I lt_pn15_4_s3:Z O
*I vs_53_15:A I
*CAP
1 pgm_pn15_4_s3:1 2.660379e-03
*RES
1 lt_pn15_4_s3:Z pgm_pn15_4_s3:1 3.018950e+00
2 pgm_pn15_4_s3:1 vs_53_15:A 1.000000e-03
*END

*D_NET pgm_pn15_6_s0 1.923886e-02
*CONN
*I lt_pn15_6_s0:Z O
*I vs_14_15:A I
*I vs_1_15:A I
*CAP
1 pgm_pn15_6_s0:1 1.923886e-02
*RES
1 lt_pn15_6_s0:Z pgm_pn15_6_s0:1 2.183192e+01
2 pgm_pn15_6_s0:1 vs_14_15:A 1.000000e-03
3 pgm_pn15_6_s0:1 vs_1_15:A 1.000000e-03
*END

*D_NET pgm_pn15_6_s1 9.788298e-03
*CONN
*I lt_pn15_6_s1:Z O
*I vs_21_15:A I
*I vs_18_15:A I
*CAP
1 pgm_pn15_6_s1:1 9.788298e-03
*RES
1 lt_pn15_6_s1:Z pgm_pn15_6_s1:1 1.110759e+01
2 pgm_pn15_6_s1:1 vs_21_15:A 1.000000e-03
3 pgm_pn15_6_s1:1 vs_18_15:A 1.000000e-03
*END

*D_NET pgm_pn15_6_s3 1.261400e-02
*CONN
*I lt_pn15_6_s3:Z O
*I vs_48_15:A I
*CAP
1 pgm_pn15_6_s3:1 1.261400e-02
*RES
1 lt_pn15_6_s3:Z pgm_pn15_6_s3:1 1.317391e+01
2 pgm_pn15_6_s3:1 vs_48_15:A 1.000000e-03
*END

*D_NET pgm_pn15_7_s0 1.193912e-02
*CONN
*I lt_pn15_7_s0:Z O
*I vs_13_15:A I
*I vs_5_15:A I
*CAP
1 pgm_pn15_7_s0:1 1.193912e-02
*RES
1 lt_pn15_7_s0:Z pgm_pn15_7_s0:1 1.354830e+01
2 pgm_pn15_7_s0:1 vs_13_15:A 1.000000e-03
3 pgm_pn15_7_s0:1 vs_5_15:A 1.000000e-03
*END

*D_NET pgm_pn15_7_s1 1.267383e-02
*CONN
*I lt_pn15_7_s1:Z O
*I vs_16_15:A I
*CAP
1 pgm_pn15_7_s1:1 1.267383e-02
*RES
1 lt_pn15_7_s1:Z pgm_pn15_7_s1:1 1.438204e+01
2 pgm_pn15_7_s1:1 vs_16_15:A 1.000000e-03
*END

*D_NET pgm_pn15_7_s3 8.875830e-03
*CONN
*I lt_pn15_7_s3:Z O
*I vs_51_15:A I
*CAP
1 pgm_pn15_7_s3:1 8.875830e-03
*RES
1 lt_pn15_7_s3:Z pgm_pn15_7_s3:1 1.007213e+01
2 pgm_pn15_7_s3:1 vs_51_15:A 1.000000e-03
*END

*D_NET pgm_pn15_8_s1 8.472922e-04
*CONN
*I lt_pn15_8_s1:Z O
*I vs_26_15:A I
*CAP
1 pgm_pn15_8_s1:1 8.472922e-04
*RES
1 lt_pn15_8_s1:Z pgm_pn15_8_s1:1 9.614920e-01
2 pgm_pn15_8_s1:1 vs_26_15:A 1.000000e-03
*END

*D_NET pgm_pn15_8_s2 1.273339e-02
*CONN
*I lt_pn15_8_s2:Z O
*I vs_37_15:A I
*I vs_36_15:A I
*I vs_34_15:A I
*CAP
1 pgm_pn15_8_s2:1 1.273339e-02
*RES
1 lt_pn15_8_s2:Z pgm_pn15_8_s2:1 1.359734e+01
2 pgm_pn15_8_s2:1 vs_37_15:A 1.000000e-03
3 pgm_pn15_8_s2:1 vs_36_15:A 1.000000e-03
4 pgm_pn15_8_s2:1 vs_34_15:A 1.000000e-03
*END

*D_NET pgm_pn15_8_s3 4.473466e-03
*CONN
*I lt_pn15_8_s3:Z O
*I vs_61_15:A I
*CAP
1 pgm_pn15_8_s3:1 4.473466e-03
*RES
1 lt_pn15_8_s3:Z pgm_pn15_8_s3:1 5.076409e+00
2 pgm_pn15_8_s3:1 vs_61_15:A 1.000000e-03
*END

*D_NET pgm_pn15_9_s1 1.751621e-03
*CONN
*I lt_pn15_9_s1:Z O
*I vs_27_15:A I
*CAP
1 pgm_pn15_9_s1:1 1.751621e-03
*RES
1 lt_pn15_9_s1:Z pgm_pn15_9_s1:1 1.279411e+00
2 pgm_pn15_9_s1:1 vs_27_15:A 1.000000e-03
*END

*D_NET pgm_pn15_9_s3 5.249656e-03
*CONN
*I lt_pn15_9_s3:Z O
*I vs_56_15:A I
*CAP
1 pgm_pn15_9_s3:1 5.249656e-03
*RES
1 lt_pn15_9_s3:Z pgm_pn15_9_s3:1 5.957216e+00
2 pgm_pn15_9_s3:1 vs_56_15:A 1.000000e-03
*END

*D_NET pgm_pn16_0_s0 1.380022e-02
*CONN
*I lt_pn16_0_s0:Z O
*I vs_9_16:A I
*I vs_6_16:A I
*CAP
1 pgm_pn16_0_s0:1 1.380022e-02
*RES
1 lt_pn16_0_s0:Z pgm_pn16_0_s0:1 1.394408e+01
2 pgm_pn16_0_s0:1 vs_9_16:A 1.000000e-03
3 pgm_pn16_0_s0:1 vs_6_16:A 1.000000e-03
*END

*D_NET pgm_pn16_0_s1 2.441149e-03
*CONN
*I lt_pn16_0_s1:Z O
*I vs_17_16:A I
*CAP
1 pgm_pn16_0_s1:1 2.441149e-03
*RES
1 lt_pn16_0_s1:Z pgm_pn16_0_s1:1 2.770173e+00
2 pgm_pn16_0_s1:1 vs_17_16:A 1.000000e-03
*END

*D_NET pgm_pn16_0_s2 2.191126e-02
*CONN
*I lt_pn16_0_s2:Z O
*I vs_46_16:A I
*I vs_33_16:A I
*CAP
1 pgm_pn16_0_s2:1 2.191126e-02
*RES
1 lt_pn16_0_s2:Z pgm_pn16_0_s2:1 2.300438e+01
2 pgm_pn16_0_s2:1 vs_46_16:A 1.000000e-03
3 pgm_pn16_0_s2:1 vs_33_16:A 1.000000e-03
*END

*D_NET pgm_pn16_10_s2 9.301858e-03
*CONN
*I lt_pn16_10_s2:Z O
*I vs_40_16:A I
*CAP
1 pgm_pn16_10_s2:1 9.301858e-03
*RES
1 lt_pn16_10_s2:Z pgm_pn16_10_s2:1 9.415347e+00
2 pgm_pn16_10_s2:1 vs_40_16:A 1.000000e-03
*END

*D_NET pgm_pn16_10_s3 3.910579e-03
*CONN
*I lt_pn16_10_s3:Z O
*I vs_63_16:A I
*CAP
1 pgm_pn16_10_s3:1 3.910579e-03
*RES
1 lt_pn16_10_s3:Z pgm_pn16_10_s3:1 4.437655e+00
2 pgm_pn16_10_s3:1 vs_63_16:A 1.000000e-03
*END

*D_NET pgm_pn16_11_s0 1.869375e-02
*CONN
*I lt_pn16_11_s0:Z O
*I vs_1_16:A I
*CAP
1 pgm_pn16_11_s0:1 1.869375e-02
*RES
1 lt_pn16_11_s0:Z pgm_pn16_11_s0:1 2.121334e+01
2 pgm_pn16_11_s0:1 vs_1_16:A 1.000000e-03
*END

*D_NET pgm_pn16_11_s1 2.201689e-02
*CONN
*I lt_pn16_11_s1:Z O
*I vs_16_16:A I
*CAP
1 pgm_pn16_11_s1:1 2.201689e-02
*RES
1 lt_pn16_11_s1:Z pgm_pn16_11_s1:1 2.184003e+01
2 pgm_pn16_11_s1:1 vs_16_16:A 1.000000e-03
*END

*D_NET pgm_pn16_12_s0 2.137783e-02
*CONN
*I lt_pn16_12_s0:Z O
*I vs_0_16:A I
*CAP
1 pgm_pn16_12_s0:1 2.137783e-02
*RES
1 lt_pn16_12_s0:Z pgm_pn16_12_s0:1 2.425918e+01
2 pgm_pn16_12_s0:1 vs_0_16:A 1.000000e-03
*END

*D_NET pgm_pn16_12_s1 1.834376e-02
*CONN
*I lt_pn16_12_s1:Z O
*I vs_25_16:A I
*I vs_20_16:A I
*CAP
1 pgm_pn16_12_s1:1 1.834376e-02
*RES
1 lt_pn16_12_s1:Z pgm_pn16_12_s1:1 1.781580e+01
2 pgm_pn16_12_s1:1 vs_25_16:A 1.000000e-03
3 pgm_pn16_12_s1:1 vs_20_16:A 1.000000e-03
*END

*D_NET pgm_pn16_1_s3 3.966868e-03
*CONN
*I lt_pn16_1_s3:Z O
*I vs_48_16:A I
*CAP
1 pgm_pn16_1_s3:1 3.966868e-03
*RES
1 lt_pn16_1_s3:Z pgm_pn16_1_s3:1 4.501531e+00
2 pgm_pn16_1_s3:1 vs_48_16:A 1.000000e-03
*END

*D_NET pgm_pn16_2_s1 1.146511e-02
*CONN
*I lt_pn16_2_s1:Z O
*I vs_26_16:A I
*CAP
1 pgm_pn16_2_s1:1 1.146511e-02
*RES
1 lt_pn16_2_s1:Z pgm_pn16_2_s1:1 1.301040e+01
2 pgm_pn16_2_s1:1 vs_26_16:A 1.000000e-03
*END

*D_NET pgm_pn16_2_s3 9.834233e-03
*CONN
*I lt_pn16_2_s3:Z O
*I vs_57_16:A I
*CAP
1 pgm_pn16_2_s3:1 9.834233e-03
*RES
1 lt_pn16_2_s3:Z pgm_pn16_2_s3:1 9.731518e+00
2 pgm_pn16_2_s3:1 vs_57_16:A 1.000000e-03
*END

*D_NET pgm_pn16_3_s3 4.896532e-03
*CONN
*I lt_pn16_3_s3:Z O
*I vs_55_16:A I
*CAP
1 pgm_pn16_3_s3:1 4.896532e-03
*RES
1 lt_pn16_3_s3:Z pgm_pn16_3_s3:1 4.416261e+00
2 pgm_pn16_3_s3:1 vs_55_16:A 1.000000e-03
*END

*D_NET pgm_pn16_4_s2 7.412325e-03
*CONN
*I lt_pn16_4_s2:Z O
*I vs_41_16:A I
*I vs_37_16:A I
*CAP
1 pgm_pn16_4_s2:1 7.412325e-03
*RES
1 lt_pn16_4_s2:Z pgm_pn16_4_s2:1 8.411374e+00
2 pgm_pn16_4_s2:1 vs_41_16:A 1.000000e-03
3 pgm_pn16_4_s2:1 vs_37_16:A 1.000000e-03
*END

*D_NET pgm_pn16_4_s3 6.322103e-03
*CONN
*I lt_pn16_4_s3:Z O
*I vs_49_16:A I
*CAP
1 pgm_pn16_4_s3:1 6.322103e-03
*RES
1 lt_pn16_4_s3:Z pgm_pn16_4_s3:1 7.174209e+00
2 pgm_pn16_4_s3:1 vs_49_16:A 1.000000e-03
*END

*D_NET pgm_pn16_5_s1 2.287096e-03
*CONN
*I lt_pn16_5_s1:Z O
*I vs_21_16:A I
*CAP
1 pgm_pn16_5_s1:1 2.287096e-03
*RES
1 lt_pn16_5_s1:Z pgm_pn16_5_s1:1 2.595356e+00
2 pgm_pn16_5_s1:1 vs_21_16:A 1.000000e-03
*END

*D_NET pgm_pn16_5_s3 8.292205e-03
*CONN
*I lt_pn16_5_s3:Z O
*I vs_60_16:A I
*I vs_58_16:A I
*CAP
1 pgm_pn16_5_s3:1 8.292205e-03
*RES
1 lt_pn16_5_s3:Z pgm_pn16_5_s3:1 9.409846e+00
2 pgm_pn16_5_s3:1 vs_60_16:A 1.000000e-03
3 pgm_pn16_5_s3:1 vs_58_16:A 1.000000e-03
*END

*D_NET pgm_pn16_6_s0 4.494204e-03
*CONN
*I lt_pn16_6_s0:Z O
*I vs_7_16:A I
*I vs_5_16:A I
*CAP
1 pgm_pn16_6_s0:1 4.494204e-03
*RES
1 lt_pn16_6_s0:Z pgm_pn16_6_s0:1 5.099942e+00
2 pgm_pn16_6_s0:1 vs_7_16:A 1.000000e-03
3 pgm_pn16_6_s0:1 vs_5_16:A 1.000000e-03
*END

*D_NET pgm_pn16_6_s2 3.006998e-03
*CONN
*I lt_pn16_6_s2:Z O
*I vs_42_16:A I
*CAP
1 pgm_pn16_6_s2:1 3.006998e-03
*RES
1 lt_pn16_6_s2:Z pgm_pn16_6_s2:1 3.412288e+00
2 pgm_pn16_6_s2:1 vs_42_16:A 1.000000e-03
*END

*D_NET pgm_pn16_7_s0 5.424447e-03
*CONN
*I lt_pn16_7_s0:Z O
*I vs_13_16:A I
*CAP
1 pgm_pn16_7_s0:1 5.424447e-03
*RES
1 lt_pn16_7_s0:Z pgm_pn16_7_s0:1 6.155566e+00
2 pgm_pn16_7_s0:1 vs_13_16:A 1.000000e-03
*END

*D_NET pgm_pn16_7_s1 1.117478e-02
*CONN
*I lt_pn16_7_s1:Z O
*I vs_23_16:A I
*I vs_18_16:A I
*CAP
1 pgm_pn16_7_s1:1 1.117478e-02
*RES
1 lt_pn16_7_s1:Z pgm_pn16_7_s1:1 1.268094e+01
2 pgm_pn16_7_s1:1 vs_23_16:A 1.000000e-03
3 pgm_pn16_7_s1:1 vs_18_16:A 1.000000e-03
*END

*D_NET pgm_pn16_7_s3 1.097628e-02
*CONN
*I lt_pn16_7_s3:Z O
*I vs_51_16:A I
*CAP
1 pgm_pn16_7_s3:1 1.097628e-02
*RES
1 lt_pn16_7_s3:Z pgm_pn16_7_s3:1 1.245569e+01
2 pgm_pn16_7_s3:1 vs_51_16:A 1.000000e-03
*END

*D_NET pgm_pn16_8_s1 2.912196e-03
*CONN
*I lt_pn16_8_s1:Z O
*I vs_28_16:A I
*CAP
1 pgm_pn16_8_s1:1 2.912196e-03
*RES
1 lt_pn16_8_s1:Z pgm_pn16_8_s1:1 3.304708e+00
2 pgm_pn16_8_s1:1 vs_28_16:A 1.000000e-03
*END

*D_NET pgm_pn16_9_s1 9.259940e-03
*CONN
*I lt_pn16_9_s1:Z O
*I vs_22_16:A I
*CAP
1 pgm_pn16_9_s1:1 9.259940e-03
*RES
1 lt_pn16_9_s1:Z pgm_pn16_9_s1:1 9.223799e+00
2 pgm_pn16_9_s1:1 vs_22_16:A 1.000000e-03
*END

*D_NET pgm_pn17_10_s0 1.944716e-02
*CONN
*I lt_pn17_10_s0:Z O
*I vs_7_17:A I
*I vs_1_17:A I
*CAP
1 pgm_pn17_10_s0:1 1.944716e-02
*RES
1 lt_pn17_10_s0:Z pgm_pn17_10_s0:1 1.950566e+01
2 pgm_pn17_10_s0:1 vs_7_17:A 1.000000e-03
3 pgm_pn17_10_s0:1 vs_1_17:A 1.000000e-03
*END

*D_NET pgm_pn17_12_s1 5.866480e-03
*CONN
*I lt_pn17_12_s1:Z O
*I vs_28_17:A I
*CAP
1 pgm_pn17_12_s1:1 5.866480e-03
*RES
1 lt_pn17_12_s1:Z pgm_pn17_12_s1:1 4.941023e+00
2 pgm_pn17_12_s1:1 vs_28_17:A 1.000000e-03
*END

*D_NET pgm_pn17_1_s0 1.269222e-02
*CONN
*I lt_pn17_1_s0:Z O
*I vs_9_17:A I
*CAP
1 pgm_pn17_1_s0:1 1.269222e-02
*RES
1 lt_pn17_1_s0:Z pgm_pn17_1_s0:1 1.268675e+01
2 pgm_pn17_1_s0:1 vs_9_17:A 1.000000e-03
*END

*D_NET pgm_pn17_1_s1 1.759180e-03
*CONN
*I lt_pn17_1_s1:Z O
*I vs_18_17:A I
*CAP
1 pgm_pn17_1_s1:1 1.759180e-03
*RES
1 lt_pn17_1_s1:Z pgm_pn17_1_s1:1 8.560511e-01
2 pgm_pn17_1_s1:1 vs_18_17:A 1.000000e-03
*END

*D_NET pgm_pn17_1_s3 1.098667e-02
*CONN
*I lt_pn17_1_s3:Z O
*I vs_57_17:A I
*CAP
1 pgm_pn17_1_s3:1 1.098667e-02
*RES
1 lt_pn17_1_s3:Z pgm_pn17_1_s3:1 1.103928e+01
2 pgm_pn17_1_s3:1 vs_57_17:A 1.000000e-03
*END

*D_NET pgm_pn17_2_s1 5.614051e-03
*CONN
*I lt_pn17_2_s1:Z O
*I vs_22_17:A I
*CAP
1 pgm_pn17_2_s1:1 5.614051e-03
*RES
1 lt_pn17_2_s1:Z pgm_pn17_2_s1:1 6.370725e+00
2 pgm_pn17_2_s1:1 vs_22_17:A 1.000000e-03
*END

*D_NET pgm_pn17_2_s2 1.186032e-02
*CONN
*I lt_pn17_2_s2:Z O
*I vs_43_17:A I
*CAP
1 pgm_pn17_2_s2:1 1.186032e-02
*RES
1 lt_pn17_2_s2:Z pgm_pn17_2_s2:1 1.289456e+01
2 pgm_pn17_2_s2:1 vs_43_17:A 1.000000e-03
*END

*D_NET pgm_pn17_3_s0 1.255237e-02
*CONN
*I lt_pn17_3_s0:Z O
*I vs_13_17:A I
*CAP
1 pgm_pn17_3_s0:1 1.255237e-02
*RES
1 lt_pn17_3_s0:Z pgm_pn17_3_s0:1 1.424420e+01
2 pgm_pn17_3_s0:1 vs_13_17:A 1.000000e-03
*END

*D_NET pgm_pn17_3_s1 7.008394e-03
*CONN
*I lt_pn17_3_s1:Z O
*I vs_16_17:A I
*CAP
1 pgm_pn17_3_s1:1 7.008394e-03
*RES
1 lt_pn17_3_s1:Z pgm_pn17_3_s1:1 6.668785e+00
2 pgm_pn17_3_s1:1 vs_16_17:A 1.000000e-03
*END

*D_NET pgm_pn17_3_s2 5.925120e-03
*CONN
*I lt_pn17_3_s2:Z O
*I vs_40_17:A I
*CAP
1 pgm_pn17_3_s2:1 5.925120e-03
*RES
1 lt_pn17_3_s2:Z pgm_pn17_3_s2:1 6.723720e+00
2 pgm_pn17_3_s2:1 vs_40_17:A 1.000000e-03
*END

*D_NET pgm_pn17_3_s3 1.376109e-02
*CONN
*I lt_pn17_3_s3:Z O
*I vs_62_17:A I
*CAP
1 pgm_pn17_3_s3:1 1.376109e-02
*RES
1 lt_pn17_3_s3:Z pgm_pn17_3_s3:1 1.561584e+01
2 pgm_pn17_3_s3:1 vs_62_17:A 1.000000e-03
*END

*D_NET pgm_pn17_4_s1 1.923294e-02
*CONN
*I lt_pn17_4_s1:Z O
*I vs_30_17:A I
*I vs_20_17:A I
*I vs_17_17:A I
*CAP
1 pgm_pn17_4_s1:1 1.923294e-02
*RES
1 lt_pn17_4_s1:Z pgm_pn17_4_s1:1 2.182520e+01
2 pgm_pn17_4_s1:1 vs_30_17:A 1.000000e-03
3 pgm_pn17_4_s1:1 vs_20_17:A 1.000000e-03
4 pgm_pn17_4_s1:1 vs_17_17:A 1.000000e-03
*END

*D_NET pgm_pn17_4_s3 1.075409e-02
*CONN
*I lt_pn17_4_s3:Z O
*I vs_61_17:A I
*CAP
1 pgm_pn17_4_s3:1 1.075409e-02
*RES
1 lt_pn17_4_s3:Z pgm_pn17_4_s3:1 1.220355e+01
2 pgm_pn17_4_s3:1 vs_61_17:A 1.000000e-03
*END

*D_NET pgm_pn17_5_s0 1.144733e-02
*CONN
*I lt_pn17_5_s0:Z O
*I vs_10_17:A I
*I vs_3_17:A I
*CAP
1 pgm_pn17_5_s0:1 1.144733e-02
*RES
1 lt_pn17_5_s0:Z pgm_pn17_5_s0:1 1.299023e+01
2 pgm_pn17_5_s0:1 vs_10_17:A 1.000000e-03
3 pgm_pn17_5_s0:1 vs_3_17:A 1.000000e-03
*END

*D_NET pgm_pn17_6_s0 1.029724e-02
*CONN
*I lt_pn17_6_s0:Z O
*I vs_14_17:A I
*CAP
1 pgm_pn17_6_s0:1 1.029724e-02
*RES
1 lt_pn17_6_s0:Z pgm_pn17_6_s0:1 1.015677e+01
2 pgm_pn17_6_s0:1 vs_14_17:A 1.000000e-03
*END

*D_NET pgm_pn17_6_s3 1.235388e-02
*CONN
*I lt_pn17_6_s3:Z O
*I vs_63_17:A I
*CAP
1 pgm_pn17_6_s3:1 1.235388e-02
*RES
1 lt_pn17_6_s3:Z pgm_pn17_6_s3:1 1.401896e+01
2 pgm_pn17_6_s3:1 vs_63_17:A 1.000000e-03
*END

*D_NET pgm_pn17_7_s0 9.418009e-03
*CONN
*I lt_pn17_7_s0:Z O
*I vs_4_17:A I
*CAP
1 pgm_pn17_7_s0:1 9.418009e-03
*RES
1 lt_pn17_7_s0:Z pgm_pn17_7_s0:1 7.831000e+00
2 pgm_pn17_7_s0:1 vs_4_17:A 1.000000e-03
*END

*D_NET pgm_pn17_7_s3 1.430916e-03
*CONN
*I lt_pn17_7_s3:Z O
*I vs_56_17:A I
*CAP
1 pgm_pn17_7_s3:1 1.430916e-03
*RES
1 lt_pn17_7_s3:Z pgm_pn17_7_s3:1 1.623778e+00
2 pgm_pn17_7_s3:1 vs_56_17:A 1.000000e-03
*END

*D_NET pgm_pn17_8_s3 1.142363e-02
*CONN
*I lt_pn17_8_s3:Z O
*I vs_50_17:A I
*CAP
1 pgm_pn17_8_s3:1 1.142363e-02
*RES
1 lt_pn17_8_s3:Z pgm_pn17_8_s3:1 1.296333e+01
2 pgm_pn17_8_s3:1 vs_50_17:A 1.000000e-03
*END

*D_NET pgm_pn17_9_s0 5.981409e-03
*CONN
*I lt_pn17_9_s0:Z O
*I vs_8_17:A I
*CAP
1 pgm_pn17_9_s0:1 5.981409e-03
*RES
1 lt_pn17_9_s0:Z pgm_pn17_9_s0:1 6.787595e+00
2 pgm_pn17_9_s0:1 vs_8_17:A 1.000000e-03
*END

*D_NET pgm_pn17_9_s2 8.484192e-03
*CONN
*I lt_pn17_9_s2:Z O
*I vs_46_17:A I
*I vs_41_17:A I
*CAP
1 pgm_pn17_9_s2:1 8.484192e-03
*RES
1 lt_pn17_9_s2:Z pgm_pn17_9_s2:1 8.487473e+00
2 pgm_pn17_9_s2:1 vs_46_17:A 1.000000e-03
3 pgm_pn17_9_s2:1 vs_41_17:A 1.000000e-03
*END

*D_NET pgm_pn18_0_s3 2.320518e-02
*CONN
*I lt_pn18_0_s3:Z O
*I vs_62_18:A I
*I vs_54_18:A I
*CAP
1 pgm_pn18_0_s3:1 2.320518e-02
*RES
1 lt_pn18_0_s3:Z pgm_pn18_0_s3:1 2.232460e+01
2 pgm_pn18_0_s3:1 vs_62_18:A 1.000000e-03
3 pgm_pn18_0_s3:1 vs_54_18:A 1.000000e-03
*END

*D_NET pgm_pn18_10_s0 1.333925e-02
*CONN
*I lt_pn18_10_s0:Z O
*I vs_13_18:A I
*I vs_5_18:A I
*CAP
1 pgm_pn18_10_s0:1 1.333925e-02
*RES
1 lt_pn18_10_s0:Z pgm_pn18_10_s0:1 1.285667e+01
2 pgm_pn18_10_s0:1 vs_13_18:A 1.000000e-03
3 pgm_pn18_10_s0:1 vs_5_18:A 1.000000e-03
*END

*D_NET pgm_pn18_11_s1 2.707780e-03
*CONN
*I lt_pn18_11_s1:Z O
*I vs_29_18:A I
*CAP
1 pgm_pn18_11_s1:1 2.707780e-03
*RES
1 lt_pn18_11_s1:Z pgm_pn18_11_s1:1 3.072740e+00
2 pgm_pn18_11_s1:1 vs_29_18:A 1.000000e-03
*END

*D_NET pgm_pn18_11_s2 1.828318e-02
*CONN
*I lt_pn18_11_s2:Z O
*I vs_36_18:A I
*CAP
1 pgm_pn18_11_s2:1 1.828318e-02
*RES
1 lt_pn18_11_s2:Z pgm_pn18_11_s2:1 1.732672e+01
2 pgm_pn18_11_s2:1 vs_36_18:A 1.000000e-03
*END

*D_NET pgm_pn18_12_s1 2.314740e-02
*CONN
*I lt_pn18_12_s1:Z O
*I vs_17_18:A I
*I vs_16_18:A I
*CAP
1 pgm_pn18_12_s1:1 2.314740e-02
*RES
1 lt_pn18_12_s1:Z pgm_pn18_12_s1:1 2.368722e+01
2 pgm_pn18_12_s1:1 vs_17_18:A 1.000000e-03
3 pgm_pn18_12_s1:1 vs_16_18:A 1.000000e-03
*END

*D_NET pgm_pn18_1_s3 4.691229e-03
*CONN
*I lt_pn18_1_s3:Z O
*I vs_52_18:A I
*CAP
1 pgm_pn18_1_s3:1 4.691229e-03
*RES
1 lt_pn18_1_s3:Z pgm_pn18_1_s3:1 3.895329e+00
2 pgm_pn18_1_s3:1 vs_52_18:A 1.000000e-03
*END

*D_NET pgm_pn18_2_s1 3.824665e-03
*CONN
*I lt_pn18_2_s1:Z O
*I vs_19_18:A I
*CAP
1 pgm_pn18_2_s1:1 3.824665e-03
*RES
1 lt_pn18_2_s1:Z pgm_pn18_2_s1:1 4.340161e+00
2 pgm_pn18_2_s1:1 vs_19_18:A 1.000000e-03
*END

*D_NET pgm_pn18_2_s3 1.023210e-02
*CONN
*I lt_pn18_2_s3:Z O
*I vs_57_18:A I
*I vs_53_18:A I
*CAP
1 pgm_pn18_2_s3:1 1.023210e-02
*RES
1 lt_pn18_2_s3:Z pgm_pn18_2_s3:1 1.047097e+01
2 pgm_pn18_2_s3:1 vs_57_18:A 1.000000e-03
3 pgm_pn18_2_s3:1 vs_53_18:A 1.000000e-03
*END

*D_NET pgm_pn18_4_s0 7.939661e-03
*CONN
*I lt_pn18_4_s0:Z O
*I vs_2_18:A I
*I vs_0_18:A I
*CAP
1 pgm_pn18_4_s0:1 7.939661e-03
*RES
1 lt_pn18_4_s0:Z pgm_pn18_4_s0:1 9.009785e+00
2 pgm_pn18_4_s0:1 vs_2_18:A 1.000000e-03
3 pgm_pn18_4_s0:1 vs_0_18:A 1.000000e-03
*END

*D_NET pgm_pn18_4_s1 1.095258e-02
*CONN
*I lt_pn18_4_s1:Z O
*I vs_28_18:A I
*I vs_22_18:A I
*CAP
1 pgm_pn18_4_s1:1 1.095258e-02
*RES
1 lt_pn18_4_s1:Z pgm_pn18_4_s1:1 1.242880e+01
2 pgm_pn18_4_s1:1 vs_28_18:A 1.000000e-03
3 pgm_pn18_4_s1:1 vs_22_18:A 1.000000e-03
*END

*D_NET pgm_pn18_4_s2 1.794719e-02
*CONN
*I lt_pn18_4_s2:Z O
*I vs_44_18:A I
*I vs_33_18:A I
*CAP
1 pgm_pn18_4_s2:1 1.794719e-02
*RES
1 lt_pn18_4_s2:Z pgm_pn18_4_s2:1 2.036615e+01
2 pgm_pn18_4_s2:1 vs_44_18:A 1.000000e-03
3 pgm_pn18_4_s2:1 vs_33_18:A 1.000000e-03
*END

*D_NET pgm_pn18_4_s3 5.385934e-03
*CONN
*I lt_pn18_4_s3:Z O
*I vs_50_18:A I
*CAP
1 pgm_pn18_4_s3:1 5.385934e-03
*RES
1 lt_pn18_4_s3:Z pgm_pn18_4_s3:1 6.111861e+00
2 pgm_pn18_4_s3:1 vs_50_18:A 1.000000e-03
*END

*D_NET pgm_pn18_5_s0 8.155928e-03
*CONN
*I lt_pn18_5_s0:Z O
*I vs_1_18:A I
*CAP
1 pgm_pn18_5_s0:1 8.155928e-03
*RES
1 lt_pn18_5_s0:Z pgm_pn18_5_s0:1 9.255201e+00
2 pgm_pn18_5_s0:1 vs_1_18:A 1.000000e-03
*END

*D_NET pgm_pn18_5_s1 7.984405e-03
*CONN
*I lt_pn18_5_s1:Z O
*I vs_18_18:A I
*CAP
1 pgm_pn18_5_s1:1 7.984405e-03
*RES
1 lt_pn18_5_s1:Z pgm_pn18_5_s1:1 8.208283e+00
2 pgm_pn18_5_s1:1 vs_18_18:A 1.000000e-03
*END

*D_NET pgm_pn18_6_s0 7.643405e-03
*CONN
*I lt_pn18_6_s0:Z O
*I vs_12_18:A I
*CAP
1 pgm_pn18_6_s0:1 7.643405e-03
*RES
1 lt_pn18_6_s0:Z pgm_pn18_6_s0:1 8.673599e+00
2 pgm_pn18_6_s0:1 vs_12_18:A 1.000000e-03
*END

*D_NET pgm_pn18_6_s1 8.058163e-04
*CONN
*I lt_pn18_6_s1:Z O
*I vs_23_18:A I
*CAP
1 pgm_pn18_6_s1:1 8.058163e-04
*RES
1 lt_pn18_6_s1:Z pgm_pn18_6_s1:1 9.144259e-01
2 pgm_pn18_6_s1:1 vs_23_18:A 1.000000e-03
*END

*D_NET pgm_pn18_6_s2 8.932118e-03
*CONN
*I lt_pn18_6_s2:Z O
*I vs_34_18:A I
*CAP
1 pgm_pn18_6_s2:1 8.932118e-03
*RES
1 lt_pn18_6_s2:Z pgm_pn18_6_s2:1 1.013601e+01
2 pgm_pn18_6_s2:1 vs_34_18:A 1.000000e-03
*END

*D_NET pgm_pn18_7_s2 1.372258e-02
*CONN
*I lt_pn18_7_s2:Z O
*I vs_32_18:A I
*CAP
1 pgm_pn18_7_s2:1 1.372258e-02
*RES
1 lt_pn18_7_s2:Z pgm_pn18_7_s2:1 1.557214e+01
2 pgm_pn18_7_s2:1 vs_32_18:A 1.000000e-03
*END

*D_NET pgm_pn18_7_s3 3.042549e-03
*CONN
*I lt_pn18_7_s3:Z O
*I vs_55_18:A I
*CAP
1 pgm_pn18_7_s3:1 3.042549e-03
*RES
1 lt_pn18_7_s3:Z pgm_pn18_7_s3:1 3.452630e+00
2 pgm_pn18_7_s3:1 vs_55_18:A 1.000000e-03
*END

*D_NET pgm_pn18_8_s1 9.618852e-03
*CONN
*I lt_pn18_8_s1:Z O
*I vs_21_18:A I
*CAP
1 pgm_pn18_8_s1:1 9.618852e-03
*RES
1 lt_pn18_8_s1:Z pgm_pn18_8_s1:1 9.775066e+00
2 pgm_pn18_8_s1:1 vs_21_18:A 1.000000e-03
*END

*D_NET pgm_pn18_8_s2 1.703472e-03
*CONN
*I lt_pn18_8_s2:Z O
*I vs_43_18:A I
*I vs_42_18:A I
*CAP
1 pgm_pn18_8_s2:1 1.703472e-03
*RES
1 lt_pn18_8_s2:Z pgm_pn18_8_s2:1 1.933069e+00
2 pgm_pn18_8_s2:1 vs_43_18:A 1.000000e-03
3 pgm_pn18_8_s2:1 vs_42_18:A 1.000000e-03
*END

*D_NET pgm_pn18_9_s0 2.918122e-03
*CONN
*I lt_pn18_9_s0:Z O
*I vs_10_18:A I
*CAP
1 pgm_pn18_9_s0:1 2.918122e-03
*RES
1 lt_pn18_9_s0:Z pgm_pn18_9_s0:1 3.311432e+00
2 pgm_pn18_9_s0:1 vs_10_18:A 1.000000e-03
*END

*D_NET pgm_pn18_9_s3 1.709397e-03
*CONN
*I lt_pn18_9_s3:Z O
*I vs_59_18:A I
*CAP
1 pgm_pn18_9_s3:1 1.709397e-03
*RES
1 lt_pn18_9_s3:Z pgm_pn18_9_s3:1 1.939793e+00
2 pgm_pn18_9_s3:1 vs_59_18:A 1.000000e-03
*END

*D_NET pgm_pn19_0_s0 1.738788e-02
*CONN
*I lt_pn19_0_s0:Z O
*I vs_11_19:A I
*I vs_1_19:A I
*CAP
1 pgm_pn19_0_s0:1 1.738788e-02
*RES
1 lt_pn19_0_s0:Z pgm_pn19_0_s0:1 1.801530e+01
2 pgm_pn19_0_s0:1 vs_11_19:A 1.000000e-03
3 pgm_pn19_0_s0:1 vs_1_19:A 1.000000e-03
*END

*D_NET pgm_pn19_0_s1 2.441149e-03
*CONN
*I lt_pn19_0_s1:Z O
*I vs_17_19:A I
*CAP
1 pgm_pn19_0_s1:1 2.441149e-03
*RES
1 lt_pn19_0_s1:Z pgm_pn19_0_s1:1 2.770173e+00
2 pgm_pn19_0_s1:1 vs_17_19:A 1.000000e-03
*END

*D_NET pgm_pn19_0_s2 2.226217e-02
*CONN
*I lt_pn19_0_s2:Z O
*I vs_47_19:A I
*I vs_39_19:A I
*CAP
1 pgm_pn19_0_s2:1 2.226217e-02
*RES
1 lt_pn19_0_s2:Z pgm_pn19_0_s2:1 2.383452e+01
2 pgm_pn19_0_s2:1 vs_47_19:A 1.000000e-03
3 pgm_pn19_0_s2:1 vs_39_19:A 1.000000e-03
*END

*D_NET pgm_pn19_10_s1 9.668618e-03
*CONN
*I lt_pn19_10_s1:Z O
*I vs_29_19:A I
*I vs_23_19:A I
*CAP
1 pgm_pn19_10_s1:1 9.668618e-03
*RES
1 lt_pn19_10_s1:Z pgm_pn19_10_s1:1 8.213336e+00
2 pgm_pn19_10_s1:1 vs_29_19:A 1.000000e-03
3 pgm_pn19_10_s1:1 vs_23_19:A 1.000000e-03
*END

*D_NET pgm_pn19_11_s1 3.009961e-03
*CONN
*I lt_pn19_11_s1:Z O
*I vs_31_19:A I
*CAP
1 pgm_pn19_11_s1:1 3.009961e-03
*RES
1 lt_pn19_11_s1:Z pgm_pn19_11_s1:1 3.415650e+00
2 pgm_pn19_11_s1:1 vs_31_19:A 1.000000e-03
*END

*D_NET pgm_pn19_11_s2 2.371910e-02
*CONN
*I lt_pn19_11_s2:Z O
*I vs_35_19:A I
*CAP
1 pgm_pn19_11_s2:1 2.371910e-02
*RES
1 lt_pn19_11_s2:Z pgm_pn19_11_s2:1 1.758054e+01
2 pgm_pn19_11_s2:1 vs_35_19:A 1.000000e-03
*END

*D_NET pgm_pn19_12_s0 1.213052e-02
*CONN
*I lt_pn19_12_s0:Z O
*I vs_8_19:A I
*CAP
1 pgm_pn19_12_s0:1 1.213052e-02
*RES
1 lt_pn19_12_s0:Z pgm_pn19_12_s0:1 1.147343e+01
2 pgm_pn19_12_s0:1 vs_8_19:A 1.000000e-03
*END

*D_NET pgm_pn19_12_s1 1.744461e-02
*CONN
*I lt_pn19_12_s1:Z O
*I vs_19_19:A I
*CAP
1 pgm_pn19_12_s1:1 1.744461e-02
*RES
1 lt_pn19_12_s1:Z pgm_pn19_12_s1:1 1.822365e+01
2 pgm_pn19_12_s1:1 vs_19_19:A 1.000000e-03
*END

*D_NET pgm_pn19_1_s0 1.909074e-02
*CONN
*I lt_pn19_1_s0:Z O
*I vs_15_19:A I
*CAP
1 pgm_pn19_1_s0:1 1.909074e-02
*RES
1 lt_pn19_1_s0:Z pgm_pn19_1_s0:1 2.166383e+01
2 pgm_pn19_1_s0:1 vs_15_19:A 1.000000e-03
*END

*D_NET pgm_pn19_1_s3 8.216676e-03
*CONN
*I lt_pn19_1_s3:Z O
*I vs_55_19:A I
*CAP
1 pgm_pn19_1_s3:1 8.216676e-03
*RES
1 lt_pn19_1_s3:Z pgm_pn19_1_s3:1 7.895942e+00
2 pgm_pn19_1_s3:1 vs_55_19:A 1.000000e-03
*END

*D_NET pgm_pn19_2_s3 3.321030e-03
*CONN
*I lt_pn19_2_s3:Z O
*I vs_49_19:A I
*CAP
1 pgm_pn19_2_s3:1 3.321030e-03
*RES
1 lt_pn19_2_s3:Z pgm_pn19_2_s3:1 3.768645e+00
2 pgm_pn19_2_s3:1 vs_49_19:A 1.000000e-03
*END

*D_NET pgm_pn19_3_s0 3.552109e-03
*CONN
*I lt_pn19_3_s0:Z O
*I vs_2_19:A I
*CAP
1 pgm_pn19_3_s0:1 3.552109e-03
*RES
1 lt_pn19_3_s0:Z pgm_pn19_3_s0:1 4.030870e+00
2 pgm_pn19_3_s0:1 vs_2_19:A 1.000000e-03
*END

*D_NET pgm_pn19_3_s2 1.075409e-02
*CONN
*I lt_pn19_3_s2:Z O
*I vs_44_19:A I
*CAP
1 pgm_pn19_3_s2:1 1.075409e-02
*RES
1 lt_pn19_3_s2:Z pgm_pn19_3_s2:1 1.220355e+01
2 pgm_pn19_3_s2:1 vs_44_19:A 1.000000e-03
*END

*D_NET pgm_pn19_4_s1 6.055473e-03
*CONN
*I lt_pn19_4_s1:Z O
*I vs_24_19:A I
*I vs_20_19:A I
*CAP
1 pgm_pn19_4_s1:1 6.055473e-03
*RES
1 lt_pn19_4_s1:Z pgm_pn19_4_s1:1 6.871642e+00
2 pgm_pn19_4_s1:1 vs_24_19:A 1.000000e-03
3 pgm_pn19_4_s1:1 vs_20_19:A 1.000000e-03
*END

*D_NET pgm_pn19_4_s3 4.840823e-03
*CONN
*I lt_pn19_4_s3:Z O
*I vs_50_19:A I
*CAP
1 pgm_pn19_4_s3:1 4.840823e-03
*RES
1 lt_pn19_4_s3:Z pgm_pn19_4_s3:1 5.493279e+00
2 pgm_pn19_4_s3:1 vs_50_19:A 1.000000e-03
*END

*D_NET pgm_pn19_5_s0 5.895494e-04
*CONN
*I lt_pn19_5_s0:Z O
*I vs_7_19:A I
*CAP
1 pgm_pn19_5_s0:1 5.895494e-04
*RES
1 lt_pn19_5_s0:Z pgm_pn19_5_s0:1 6.690101e-01
2 pgm_pn19_5_s0:1 vs_7_19:A 1.000000e-03
*END

*D_NET pgm_pn19_5_s1 2.150819e-03
*CONN
*I lt_pn19_5_s1:Z O
*I vs_21_19:A I
*CAP
1 pgm_pn19_5_s1:1 2.150819e-03
*RES
1 lt_pn19_5_s1:Z pgm_pn19_5_s1:1 2.440710e+00
2 pgm_pn19_5_s1:1 vs_21_19:A 1.000000e-03
*END

*D_NET pgm_pn19_6_s0 1.736653e-02
*CONN
*I lt_pn19_6_s0:Z O
*I vs_14_19:A I
*I vs_9_19:A I
*I vs_3_19:A I
*CAP
1 pgm_pn19_6_s0:1 1.736653e-02
*RES
1 lt_pn19_6_s0:Z pgm_pn19_6_s0:1 1.970722e+01
2 pgm_pn19_6_s0:1 vs_14_19:A 1.000000e-03
3 pgm_pn19_6_s0:1 vs_9_19:A 1.000000e-03
4 pgm_pn19_6_s0:1 vs_3_19:A 1.000000e-03
*END

*D_NET pgm_pn19_6_s3 1.054954e-02
*CONN
*I lt_pn19_6_s3:Z O
*I vs_58_19:A I
*I vs_52_19:A I
*CAP
1 pgm_pn19_6_s3:1 1.054954e-02
*RES
1 lt_pn19_6_s3:Z pgm_pn19_6_s3:1 1.097517e+01
2 pgm_pn19_6_s3:1 vs_58_19:A 1.000000e-03
3 pgm_pn19_6_s3:1 vs_52_19:A 1.000000e-03
*END

*D_NET pgm_pn19_7_s0 4.437915e-03
*CONN
*I lt_pn19_7_s0:Z O
*I vs_6_19:A I
*CAP
1 pgm_pn19_7_s0:1 4.437915e-03
*RES
1 lt_pn19_7_s0:Z pgm_pn19_7_s0:1 5.036066e+00
2 pgm_pn19_7_s0:1 vs_6_19:A 1.000000e-03
*END

*D_NET pgm_pn19_8_s0 1.839283e-02
*CONN
*I lt_pn19_8_s0:Z O
*I vs_5_19:A I
*I vs_0_19:A I
*CAP
1 pgm_pn19_8_s0:1 1.839283e-02
*RES
1 lt_pn19_8_s0:Z pgm_pn19_8_s0:1 1.728305e+01
2 pgm_pn19_8_s0:1 vs_5_19:A 1.000000e-03
3 pgm_pn19_8_s0:1 vs_0_19:A 1.000000e-03
*END

*D_NET pgm_pn19_8_s1 1.936033e-02
*CONN
*I lt_pn19_8_s1:Z O
*I vs_30_19:A I
*I vs_28_19:A I
*I vs_18_19:A I
*CAP
1 pgm_pn19_8_s1:1 1.936033e-02
*RES
1 lt_pn19_8_s1:Z pgm_pn19_8_s1:1 2.196976e+01
2 pgm_pn19_8_s1:1 vs_30_19:A 1.000000e-03
3 pgm_pn19_8_s1:1 vs_28_19:A 1.000000e-03
4 pgm_pn19_8_s1:1 vs_18_19:A 1.000000e-03
*END

*D_NET pgm_pn19_8_s2 1.325746e-02
*CONN
*I lt_pn19_8_s2:Z O
*I vs_33_19:A I
*CAP
1 pgm_pn19_8_s2:1 1.325746e-02
*RES
1 lt_pn19_8_s2:Z pgm_pn19_8_s2:1 1.504432e+01
2 pgm_pn19_8_s2:1 vs_33_19:A 1.000000e-03
*END

*D_NET pgm_pn19_9_s2 1.097628e-02
*CONN
*I lt_pn19_9_s2:Z O
*I vs_36_19:A I
*CAP
1 pgm_pn19_9_s2:1 1.097628e-02
*RES
1 lt_pn19_9_s2:Z pgm_pn19_9_s2:1 1.245569e+01
2 pgm_pn19_9_s2:1 vs_36_19:A 1.000000e-03
*END

*D_NET pgm_pn1_0_s0 1.489313e-02
*CONN
*I lt_pn1_0_s0:Z O
*I vs_8_1:A I
*I vs_5_1:A I
*CAP
1 pgm_pn1_0_s0:1 1.489313e-02
*RES
1 lt_pn1_0_s0:Z pgm_pn1_0_s0:1 1.318019e+01
2 pgm_pn1_0_s0:1 vs_8_1:A 1.000000e-03
3 pgm_pn1_0_s0:1 vs_5_1:A 1.000000e-03
*END

*D_NET pgm_pn1_0_s1 2.038258e-02
*CONN
*I lt_pn1_0_s1:Z O
*I vs_30_1:A I
*I vs_26_1:A I
*CAP
1 pgm_pn1_0_s1:1 2.038258e-02
*RES
1 lt_pn1_0_s1:Z pgm_pn1_0_s1:1 2.126966e+01
2 pgm_pn1_0_s1:1 vs_30_1:A 1.000000e-03
3 pgm_pn1_0_s1:1 vs_26_1:A 1.000000e-03
*END

*D_NET pgm_pn1_0_s2 2.387190e-02
*CONN
*I lt_pn1_0_s2:Z O
*I vs_47_1:A I
*CAP
1 pgm_pn1_0_s2:1 2.387190e-02
*RES
1 lt_pn1_0_s2:Z pgm_pn1_0_s2:1 2.407743e+01
2 pgm_pn1_0_s2:1 vs_47_1:A 1.000000e-03
*END

*D_NET pgm_pn1_12_s0 3.383244e-03
*CONN
*I lt_pn1_12_s0:Z O
*I vs_14_1:A I
*CAP
1 pgm_pn1_12_s0:1 3.383244e-03
*RES
1 lt_pn1_12_s0:Z pgm_pn1_12_s0:1 3.839244e+00
2 pgm_pn1_12_s0:1 vs_14_1:A 1.000000e-03
*END

*D_NET pgm_pn1_1_s2 1.233552e-02
*CONN
*I lt_pn1_1_s2:Z O
*I vs_42_1:A I
*CAP
1 pgm_pn1_1_s2:1 1.233552e-02
*RES
1 lt_pn1_1_s2:Z pgm_pn1_1_s2:1 1.285789e+01
2 pgm_pn1_1_s2:1 vs_42_1:A 1.000000e-03
*END

*D_NET pgm_pn1_2_s1 9.292971e-03
*CONN
*I lt_pn1_2_s1:Z O
*I vs_24_1:A I
*CAP
1 pgm_pn1_2_s1:1 9.292971e-03
*RES
1 lt_pn1_2_s1:Z pgm_pn1_2_s1:1 9.405261e+00
2 pgm_pn1_2_s1:1 vs_24_1:A 1.000000e-03
*END

*D_NET pgm_pn1_2_s2 5.175592e-03
*CONN
*I lt_pn1_2_s2:Z O
*I vs_37_1:A I
*I vs_35_1:A I
*I vs_34_1:A I
*CAP
1 pgm_pn1_2_s2:1 5.175592e-03
*RES
1 lt_pn1_2_s2:Z pgm_pn1_2_s2:1 5.873169e+00
2 pgm_pn1_2_s2:1 vs_37_1:A 1.000000e-03
3 pgm_pn1_2_s2:1 vs_35_1:A 1.000000e-03
4 pgm_pn1_2_s2:1 vs_34_1:A 1.000000e-03
*END

*D_NET pgm_pn1_3_s1 6.813888e-04
*CONN
*I lt_pn1_3_s1:Z O
*I vs_20_1:A I
*CAP
1 pgm_pn1_3_s1:1 6.813888e-04
*RES
1 lt_pn1_3_s1:Z pgm_pn1_3_s1:1 7.732278e-01
2 pgm_pn1_3_s1:1 vs_20_1:A 1.000000e-03
*END

*D_NET pgm_pn1_4_s0 1.393292e-02
*CONN
*I lt_pn1_4_s0:Z O
*I vs_15_1:A I
*CAP
1 pgm_pn1_4_s0:1 1.393292e-02
*RES
1 lt_pn1_4_s0:Z pgm_pn1_4_s0:1 1.581083e+01
2 pgm_pn1_4_s0:1 vs_15_1:A 1.000000e-03
*END

*D_NET pgm_pn1_4_s2 2.509288e-03
*CONN
*I lt_pn1_4_s2:Z O
*I vs_36_1:A I
*CAP
1 pgm_pn1_4_s2:1 2.509288e-03
*RES
1 lt_pn1_4_s2:Z pgm_pn1_4_s2:1 2.847495e+00
2 pgm_pn1_4_s2:1 vs_36_1:A 1.000000e-03
*END

*D_NET pgm_pn1_4_s3 1.164286e-03
*CONN
*I lt_pn1_4_s3:Z O
*I vs_54_1:A I
*CAP
1 pgm_pn1_4_s3:1 1.164286e-03
*RES
1 lt_pn1_4_s3:Z pgm_pn1_4_s3:1 1.321211e+00
2 pgm_pn1_4_s3:1 vs_54_1:A 1.000000e-03
*END

*D_NET pgm_pn1_5_s0 3.632099e-03
*CONN
*I lt_pn1_5_s0:Z O
*I vs_9_1:A I
*CAP
1 pgm_pn1_5_s0:1 3.632099e-03
*RES
1 lt_pn1_5_s0:Z pgm_pn1_5_s0:1 4.121640e+00
2 pgm_pn1_5_s0:1 vs_9_1:A 1.000000e-03
*END

*D_NET pgm_pn1_5_s1 4.926737e-03
*CONN
*I lt_pn1_5_s1:Z O
*I vs_21_1:A I
*I vs_19_1:A I
*CAP
1 pgm_pn1_5_s1:1 4.926737e-03
*RES
1 lt_pn1_5_s1:Z pgm_pn1_5_s1:1 5.590773e+00
2 pgm_pn1_5_s1:1 vs_21_1:A 1.000000e-03
3 pgm_pn1_5_s1:1 vs_19_1:A 1.000000e-03
*END

*D_NET pgm_pn1_6_s0 3.415832e-03
*CONN
*I lt_pn1_6_s0:Z O
*I vs_10_1:A I
*CAP
1 pgm_pn1_6_s0:1 3.415832e-03
*RES
1 lt_pn1_6_s0:Z pgm_pn1_6_s0:1 3.876225e+00
2 pgm_pn1_6_s0:1 vs_10_1:A 1.000000e-03
*END

*D_NET pgm_pn1_6_s1 1.219420e-02
*CONN
*I lt_pn1_6_s1:Z O
*I vs_31_1:A I
*CAP
1 pgm_pn1_6_s1:1 1.219420e-02
*RES
1 lt_pn1_6_s1:Z pgm_pn1_6_s1:1 1.298549e+01
2 pgm_pn1_6_s1:1 vs_31_1:A 1.000000e-03
*END

*D_NET pgm_pn1_7_s0 3.042549e-03
*CONN
*I lt_pn1_7_s0:Z O
*I vs_11_1:A I
*CAP
1 pgm_pn1_7_s0:1 3.042549e-03
*RES
1 lt_pn1_7_s0:Z pgm_pn1_7_s0:1 3.452630e+00
2 pgm_pn1_7_s0:1 vs_11_1:A 1.000000e-03
*END

*D_NET pgm_pn1_7_s1 9.761635e-03
*CONN
*I lt_pn1_7_s1:Z O
*I vs_18_1:A I
*CAP
1 pgm_pn1_7_s1:1 9.761635e-03
*RES
1 lt_pn1_7_s1:Z pgm_pn1_7_s1:1 1.107733e+01
2 pgm_pn1_7_s1:1 vs_18_1:A 1.000000e-03
*END

*D_NET pgm_pn1_7_s2 1.123699e-02
*CONN
*I lt_pn1_7_s2:Z O
*I vs_33_1:A I
*CAP
1 pgm_pn1_7_s2:1 1.123699e-02
*RES
1 lt_pn1_7_s2:Z pgm_pn1_7_s2:1 1.275153e+01
2 pgm_pn1_7_s2:1 vs_33_1:A 1.000000e-03
*END

*D_NET pgm_pn1_7_s3 9.012108e-03
*CONN
*I lt_pn1_7_s3:Z O
*I vs_51_1:A I
*CAP
1 pgm_pn1_7_s3:1 9.012108e-03
*RES
1 lt_pn1_7_s3:Z pgm_pn1_7_s3:1 1.022678e+01
2 pgm_pn1_7_s3:1 vs_51_1:A 1.000000e-03
*END

*D_NET pgm_pn1_8_s3 1.982841e-02
*CONN
*I lt_pn1_8_s3:Z O
*I vs_61_1:A I
*I vs_48_1:A I
*CAP
1 pgm_pn1_8_s3:1 1.982841e-02
*RES
1 lt_pn1_8_s3:Z pgm_pn1_8_s3:1 2.250093e+01
2 pgm_pn1_8_s3:1 vs_61_1:A 1.000000e-03
3 pgm_pn1_8_s3:1 vs_48_1:A 1.000000e-03
*END

*D_NET pgm_pn1_9_s0 1.709397e-03
*CONN
*I lt_pn1_9_s0:Z O
*I vs_12_1:A I
*CAP
1 pgm_pn1_9_s0:1 1.709397e-03
*RES
1 lt_pn1_9_s0:Z pgm_pn1_9_s0:1 1.939793e+00
2 pgm_pn1_9_s0:1 vs_12_1:A 1.000000e-03
*END

*D_NET pgm_pn1_9_s2 2.039130e-02
*CONN
*I lt_pn1_9_s2:Z O
*I vs_46_1:A I
*I vs_32_1:A I
*CAP
1 pgm_pn1_9_s2:1 2.039130e-02
*RES
1 lt_pn1_9_s2:Z pgm_pn1_9_s2:1 2.313968e+01
2 pgm_pn1_9_s2:1 vs_46_1:A 1.000000e-03
3 pgm_pn1_9_s2:1 vs_32_1:A 1.000000e-03
*END

*D_NET pgm_pn1_9_s3 5.404320e-03
*CONN
*I lt_pn1_9_s3:Z O
*I vs_58_1:A I
*CAP
1 pgm_pn1_9_s3:1 5.404320e-03
*RES
1 lt_pn1_9_s3:Z pgm_pn1_9_s3:1 4.416573e+00
2 pgm_pn1_9_s3:1 vs_58_1:A 1.000000e-03
*END

*D_NET pgm_pn20_0_s0 1.156525e-02
*CONN
*I lt_pn20_0_s0:Z O
*I vs_8_20:A I
*CAP
1 pgm_pn20_0_s0:1 1.156525e-02
*RES
1 lt_pn20_0_s0:Z pgm_pn20_0_s0:1 1.198381e+01
2 pgm_pn20_0_s0:1 vs_8_20:A 1.000000e-03
*END

*D_NET pgm_pn20_0_s1 1.913936e-02
*CONN
*I lt_pn20_0_s1:Z O
*I vs_27_20:A I
*CAP
1 pgm_pn20_0_s1:1 1.913936e-02
*RES
1 lt_pn20_0_s1:Z pgm_pn20_0_s1:1 1.827510e+01
2 pgm_pn20_0_s1:1 vs_27_20:A 1.000000e-03
*END

*D_NET pgm_pn20_0_s2 3.790611e-03
*CONN
*I lt_pn20_0_s2:Z O
*I vs_34_20:A I
*CAP
1 pgm_pn20_0_s2:1 3.790611e-03
*RES
1 lt_pn20_0_s2:Z pgm_pn20_0_s2:1 2.873323e+00
2 pgm_pn20_0_s2:1 vs_34_20:A 1.000000e-03
*END

*D_NET pgm_pn20_10_s0 1.679772e-03
*CONN
*I lt_pn20_10_s0:Z O
*I vs_13_20:A I
*CAP
1 pgm_pn20_10_s0:1 1.679772e-03
*RES
1 lt_pn20_10_s0:Z pgm_pn20_10_s0:1 1.906175e+00
2 pgm_pn20_10_s0:1 vs_13_20:A 1.000000e-03
*END

*D_NET pgm_pn20_10_s1 4.858598e-03
*CONN
*I lt_pn20_10_s1:Z O
*I vs_26_20:A I
*CAP
1 pgm_pn20_10_s1:1 4.858598e-03
*RES
1 lt_pn20_10_s1:Z pgm_pn20_10_s1:1 5.513450e+00
2 pgm_pn20_10_s1:1 vs_26_20:A 1.000000e-03
*END

*D_NET pgm_pn20_10_s2 4.183135e-03
*CONN
*I lt_pn20_10_s2:Z O
*I vs_46_20:A I
*I vs_44_20:A I
*CAP
1 pgm_pn20_10_s2:1 4.183135e-03
*RES
1 lt_pn20_10_s2:Z pgm_pn20_10_s2:1 4.746946e+00
2 pgm_pn20_10_s2:1 vs_46_20:A 1.000000e-03
3 pgm_pn20_10_s2:1 vs_44_20:A 1.000000e-03
*END

*D_NET pgm_pn20_10_s3 7.319463e-03
*CONN
*I lt_pn20_10_s3:Z O
*I vs_56_20:A I
*CAP
1 pgm_pn20_10_s3:1 7.319463e-03
*RES
1 lt_pn20_10_s3:Z pgm_pn20_10_s3:1 7.021780e+00
2 pgm_pn20_10_s3:1 vs_56_20:A 1.000000e-03
*END

*D_NET pgm_pn20_11_s1 9.835699e-03
*CONN
*I lt_pn20_11_s1:Z O
*I vs_24_20:A I
*CAP
1 pgm_pn20_11_s1:1 9.835699e-03
*RES
1 lt_pn20_11_s1:Z pgm_pn20_11_s1:1 1.116138e+01
2 pgm_pn20_11_s1:1 vs_24_20:A 1.000000e-03
*END

*D_NET pgm_pn20_11_s3 1.499055e-03
*CONN
*I lt_pn20_11_s3:Z O
*I vs_62_20:A I
*CAP
1 pgm_pn20_11_s3:1 1.499055e-03
*RES
1 lt_pn20_11_s3:Z pgm_pn20_11_s3:1 1.701101e+00
2 pgm_pn20_11_s3:1 vs_62_20:A 1.000000e-03
*END

*D_NET pgm_pn20_12_s1 1.907889e-03
*CONN
*I lt_pn20_12_s1:Z O
*I vs_31_20:A I
*CAP
1 pgm_pn20_12_s1:1 1.907889e-03
*RES
1 lt_pn20_12_s1:Z pgm_pn20_12_s1:1 2.165038e+00
2 pgm_pn20_12_s1:1 vs_31_20:A 1.000000e-03
*END

*D_NET pgm_pn20_12_s2 2.331923e-02
*CONN
*I lt_pn20_12_s2:Z O
*I vs_37_20:A I
*I vs_33_20:A I
*CAP
1 pgm_pn20_12_s2:1 2.331923e-02
*RES
1 lt_pn20_12_s2:Z pgm_pn20_12_s2:1 2.388221e+01
2 pgm_pn20_12_s2:1 vs_37_20:A 1.000000e-03
3 pgm_pn20_12_s2:1 vs_33_20:A 1.000000e-03
*END

*D_NET pgm_pn20_1_s0 1.426074e-02
*CONN
*I lt_pn20_1_s0:Z O
*I vs_11_20:A I
*CAP
1 pgm_pn20_1_s0:1 1.426074e-02
*RES
1 lt_pn20_1_s0:Z pgm_pn20_1_s0:1 1.489862e+01
2 pgm_pn20_1_s0:1 vs_11_20:A 1.000000e-03
*END

*D_NET pgm_pn20_1_s2 2.413723e-02
*CONN
*I lt_pn20_1_s2:Z O
*I vs_47_20:A I
*CAP
1 pgm_pn20_1_s2:1 2.413723e-02
*RES
1 lt_pn20_1_s2:Z pgm_pn20_1_s2:1 2.107860e+01
2 pgm_pn20_1_s2:1 vs_47_20:A 1.000000e-03
*END

*D_NET pgm_pn20_2_s1 1.438619e-02
*CONN
*I lt_pn20_2_s1:Z O
*I vs_29_20:A I
*CAP
1 pgm_pn20_2_s1:1 1.438619e-02
*RES
1 lt_pn20_2_s1:Z pgm_pn20_2_s1:1 1.632519e+01
2 pgm_pn20_2_s1:1 vs_29_20:A 1.000000e-03
*END

*D_NET pgm_pn20_2_s3 1.252557e-02
*CONN
*I lt_pn20_2_s3:Z O
*I vs_59_20:A I
*CAP
1 pgm_pn20_2_s3:1 1.252557e-02
*RES
1 lt_pn20_2_s3:Z pgm_pn20_2_s3:1 1.321753e+01
2 pgm_pn20_2_s3:1 vs_59_20:A 1.000000e-03
*END

*D_NET pgm_pn20_4_s0 1.447510e-02
*CONN
*I lt_pn20_4_s0:Z O
*I vs_14_20:A I
*CAP
1 pgm_pn20_4_s0:1 1.447510e-02
*RES
1 lt_pn20_4_s0:Z pgm_pn20_4_s0:1 1.356969e+01
2 pgm_pn20_4_s0:1 vs_14_20:A 1.000000e-03
*END

*D_NET pgm_pn20_4_s1 2.826282e-03
*CONN
*I lt_pn20_4_s1:Z O
*I vs_23_20:A I
*CAP
1 pgm_pn20_4_s1:1 2.826282e-03
*RES
1 lt_pn20_4_s1:Z pgm_pn20_4_s1:1 3.207214e+00
2 pgm_pn20_4_s1:1 vs_23_20:A 1.000000e-03
*END

*D_NET pgm_pn20_4_s2 1.129920e-02
*CONN
*I lt_pn20_4_s2:Z O
*I vs_45_20:A I
*CAP
1 pgm_pn20_4_s2:1 1.129920e-02
*RES
1 lt_pn20_4_s2:Z pgm_pn20_4_s2:1 1.282213e+01
2 pgm_pn20_4_s2:1 vs_45_20:A 1.000000e-03
*END

*D_NET pgm_pn20_5_s3 1.210502e-02
*CONN
*I lt_pn20_5_s3:Z O
*I vs_63_20:A I
*CAP
1 pgm_pn20_5_s3:1 1.210502e-02
*RES
1 lt_pn20_5_s3:Z pgm_pn20_5_s3:1 1.373656e+01
2 pgm_pn20_5_s3:1 vs_63_20:A 1.000000e-03
*END

*D_NET pgm_pn20_6_s0 9.817924e-03
*CONN
*I lt_pn20_6_s0:Z O
*I vs_1_20:A I
*CAP
1 pgm_pn20_6_s0:1 9.817924e-03
*RES
1 lt_pn20_6_s0:Z pgm_pn20_6_s0:1 1.114120e+01
2 pgm_pn20_6_s0:1 vs_1_20:A 1.000000e-03
*END

*D_NET pgm_pn20_6_s3 1.147992e-02
*CONN
*I lt_pn20_6_s3:Z O
*I vs_48_20:A I
*CAP
1 pgm_pn20_6_s3:1 1.147992e-02
*RES
1 lt_pn20_6_s3:Z pgm_pn20_6_s3:1 1.302721e+01
2 pgm_pn20_6_s3:1 vs_48_20:A 1.000000e-03
*END

*D_NET pgm_pn20_7_s1 5.596276e-03
*CONN
*I lt_pn20_7_s1:Z O
*I vs_21_20:A I
*CAP
1 pgm_pn20_7_s1:1 5.596276e-03
*RES
1 lt_pn20_7_s1:Z pgm_pn20_7_s1:1 6.350554e+00
2 pgm_pn20_7_s1:1 vs_21_20:A 1.000000e-03
*END

*D_NET pgm_pn20_7_s3 7.231609e-03
*CONN
*I lt_pn20_7_s3:Z O
*I vs_53_20:A I
*CAP
1 pgm_pn20_7_s3:1 7.231609e-03
*RES
1 lt_pn20_7_s3:Z pgm_pn20_7_s3:1 8.206300e+00
2 pgm_pn20_7_s3:1 vs_53_20:A 1.000000e-03
*END

*D_NET pgm_pn20_8_s0 1.481770e-02
*CONN
*I lt_pn20_8_s0:Z O
*I vs_10_20:A I
*I vs_4_20:A I
*CAP
1 pgm_pn20_8_s0:1 1.481770e-02
*RES
1 lt_pn20_8_s0:Z pgm_pn20_8_s0:1 1.553065e+01
2 pgm_pn20_8_s0:1 vs_10_20:A 1.000000e-03
3 pgm_pn20_8_s0:1 vs_4_20:A 1.000000e-03
*END

*D_NET pgm_pn20_8_s1 6.645022e-03
*CONN
*I lt_pn20_8_s1:Z O
*I vs_22_20:A I
*CAP
1 pgm_pn20_8_s1:1 6.645022e-03
*RES
1 lt_pn20_8_s1:Z pgm_pn20_8_s1:1 7.540652e+00
2 pgm_pn20_8_s1:1 vs_22_20:A 1.000000e-03
*END

*D_NET pgm_pn20_9_s0 1.088846e-02
*CONN
*I lt_pn20_9_s0:Z O
*I vs_5_20:A I
*CAP
1 pgm_pn20_9_s0:1 1.088846e-02
*RES
1 lt_pn20_9_s0:Z pgm_pn20_9_s0:1 1.078386e+01
2 pgm_pn20_9_s0:1 vs_5_20:A 1.000000e-03
*END

*D_NET pgm_pn20_9_s2 7.492314e-03
*CONN
*I lt_pn20_9_s2:Z O
*I vs_39_20:A I
*CAP
1 pgm_pn20_9_s2:1 7.492314e-03
*RES
1 lt_pn20_9_s2:Z pgm_pn20_9_s2:1 8.502144e+00
2 pgm_pn20_9_s2:1 vs_39_20:A 1.000000e-03
*END

*D_NET pgm_pn21_0_s0 1.627038e-02
*CONN
*I lt_pn21_0_s0:Z O
*I vs_11_21:A I
*I vs_7_21:A I
*I vs_4_21:A I
*I vs_3_21:A I
*I vs_0_21:A I
*CAP
1 pgm_pn21_0_s0:1 1.627038e-02
*RES
1 lt_pn21_0_s0:Z pgm_pn21_0_s0:1 1.846334e+01
2 pgm_pn21_0_s0:1 vs_11_21:A 1.000000e-03
3 pgm_pn21_0_s0:1 vs_7_21:A 1.000000e-03
4 pgm_pn21_0_s0:1 vs_4_21:A 1.000000e-03
5 pgm_pn21_0_s0:1 vs_3_21:A 1.000000e-03
6 pgm_pn21_0_s0:1 vs_0_21:A 1.000000e-03
*END

*D_NET pgm_pn21_0_s1 1.269457e-02
*CONN
*I lt_pn21_0_s1:Z O
*I vs_29_21:A I
*I vs_25_21:A I
*I vs_23_21:A I
*I vs_22_21:A I
*CAP
1 pgm_pn21_0_s1:1 1.269457e-02
*RES
1 lt_pn21_0_s1:Z pgm_pn21_0_s1:1 1.440557e+01
2 pgm_pn21_0_s1:1 vs_29_21:A 1.000000e-03
3 pgm_pn21_0_s1:1 vs_25_21:A 1.000000e-03
4 pgm_pn21_0_s1:1 vs_23_21:A 1.000000e-03
5 pgm_pn21_0_s1:1 vs_22_21:A 1.000000e-03
*END

*D_NET pgm_pn21_0_s2 1.541420e-02
*CONN
*I lt_pn21_0_s2:Z O
*I vs_41_21:A I
*I vs_40_21:A I
*I vs_39_21:A I
*I vs_35_21:A I
*I vs_34_21:A I
*I vs_33_21:A I
*CAP
1 pgm_pn21_0_s2:1 1.541420e-02
*RES
1 lt_pn21_0_s2:Z pgm_pn21_0_s2:1 1.749176e+01
2 pgm_pn21_0_s2:1 vs_41_21:A 1.000000e-03
3 pgm_pn21_0_s2:1 vs_40_21:A 1.000000e-03
4 pgm_pn21_0_s2:1 vs_39_21:A 1.000000e-03
5 pgm_pn21_0_s2:1 vs_35_21:A 1.000000e-03
6 pgm_pn21_0_s2:1 vs_34_21:A 1.000000e-03
7 pgm_pn21_0_s2:1 vs_33_21:A 1.000000e-03
*END

*D_NET pgm_pn21_0_s3 1.936329e-02
*CONN
*I lt_pn21_0_s3:Z O
*I vs_62_21:A I
*I vs_60_21:A I
*I vs_55_21:A I
*I vs_54_21:A I
*I vs_49_21:A I
*CAP
1 pgm_pn21_0_s3:1 1.936329e-02
*RES
1 lt_pn21_0_s3:Z pgm_pn21_0_s3:1 2.197312e+01
2 pgm_pn21_0_s3:1 vs_62_21:A 1.000000e-03
3 pgm_pn21_0_s3:1 vs_60_21:A 1.000000e-03
4 pgm_pn21_0_s3:1 vs_55_21:A 1.000000e-03
5 pgm_pn21_0_s3:1 vs_54_21:A 1.000000e-03
6 pgm_pn21_0_s3:1 vs_49_21:A 1.000000e-03
*END

*D_NET pgm_pn2_0_s0 2.124748e-02
*CONN
*I lt_pn2_0_s0:Z O
*I vs_15_2:A I
*CAP
1 pgm_pn2_0_s0:1 2.124748e-02
*RES
1 lt_pn2_0_s0:Z pgm_pn2_0_s0:1 2.411126e+01
2 pgm_pn2_0_s0:1 vs_15_2:A 1.000000e-03
*END

*D_NET pgm_pn2_0_s1 3.649874e-03
*CONN
*I lt_pn2_0_s1:Z O
*I vs_18_2:A I
*CAP
1 pgm_pn2_0_s1:1 3.649874e-03
*RES
1 lt_pn2_0_s1:Z pgm_pn2_0_s1:1 4.141812e+00
2 pgm_pn2_0_s1:1 vs_18_2:A 1.000000e-03
*END

*D_NET pgm_pn2_10_s0 1.679772e-03
*CONN
*I lt_pn2_10_s0:Z O
*I vs_13_2:A I
*CAP
1 pgm_pn2_10_s0:1 1.679772e-03
*RES
1 lt_pn2_10_s0:Z pgm_pn2_10_s0:1 1.906175e+00
2 pgm_pn2_10_s0:1 vs_13_2:A 1.000000e-03
*END

*D_NET pgm_pn2_10_s1 1.653701e-02
*CONN
*I lt_pn2_10_s1:Z O
*I vs_17_2:A I
*CAP
1 pgm_pn2_10_s1:1 1.653701e-02
*RES
1 lt_pn2_10_s1:Z pgm_pn2_10_s1:1 1.876590e+01
2 pgm_pn2_10_s1:1 vs_17_2:A 1.000000e-03
*END

*D_NET pgm_pn2_10_s2 5.024502e-03
*CONN
*I lt_pn2_10_s2:Z O
*I vs_42_2:A I
*CAP
1 pgm_pn2_10_s2:1 5.024502e-03
*RES
1 lt_pn2_10_s2:Z pgm_pn2_10_s2:1 5.701715e+00
2 pgm_pn2_10_s2:1 vs_42_2:A 1.000000e-03
*END

*D_NET pgm_pn2_11_s0 1.962992e-02
*CONN
*I lt_pn2_11_s0:Z O
*I vs_0_2:A I
*CAP
1 pgm_pn2_11_s0:1 1.962992e-02
*RES
1 lt_pn2_11_s0:Z pgm_pn2_11_s0:1 2.227568e+01
2 pgm_pn2_11_s0:1 vs_0_2:A 1.000000e-03
*END

*D_NET pgm_pn2_11_s1 1.102460e-02
*CONN
*I lt_pn2_11_s1:Z O
*I vs_24_2:A I
*CAP
1 pgm_pn2_11_s1:1 1.102460e-02
*RES
1 lt_pn2_11_s1:Z pgm_pn2_11_s1:1 9.930492e+00
2 pgm_pn2_11_s1:1 vs_24_2:A 1.000000e-03
*END

*D_NET pgm_pn2_11_s2 2.003283e-02
*CONN
*I lt_pn2_11_s2:Z O
*I vs_32_2:A I
*CAP
1 pgm_pn2_11_s2:1 2.003283e-02
*RES
1 lt_pn2_11_s2:Z pgm_pn2_11_s2:1 2.273290e+01
2 pgm_pn2_11_s2:1 vs_32_2:A 1.000000e-03
*END

*D_NET pgm_pn2_1_s1 5.744404e-03
*CONN
*I lt_pn2_1_s1:Z O
*I vs_21_2:A I
*I vs_19_2:A I
*CAP
1 pgm_pn2_1_s1:1 5.744404e-03
*RES
1 lt_pn2_1_s1:Z pgm_pn2_1_s1:1 6.518647e+00
2 pgm_pn2_1_s1:1 vs_21_2:A 1.000000e-03
3 pgm_pn2_1_s1:1 vs_19_2:A 1.000000e-03
*END

*D_NET pgm_pn2_1_s2 3.729863e-03
*CONN
*I lt_pn2_1_s2:Z O
*I vs_34_2:A I
*CAP
1 pgm_pn2_1_s2:1 3.729863e-03
*RES
1 lt_pn2_1_s2:Z pgm_pn2_1_s2:1 4.232582e+00
2 pgm_pn2_1_s2:1 vs_34_2:A 1.000000e-03
*END

*D_NET pgm_pn2_2_s1 1.325007e-02
*CONN
*I lt_pn2_2_s1:Z O
*I vs_27_2:A I
*CAP
1 pgm_pn2_2_s1:1 1.325007e-02
*RES
1 lt_pn2_2_s1:Z pgm_pn2_2_s1:1 1.360774e+01
2 pgm_pn2_2_s1:1 vs_27_2:A 1.000000e-03
*END

*D_NET pgm_pn2_2_s2 5.061923e-03
*CONN
*I lt_pn2_2_s2:Z O
*I vs_38_2:A I
*CAP
1 pgm_pn2_2_s2:1 5.061923e-03
*RES
1 lt_pn2_2_s2:Z pgm_pn2_2_s2:1 3.683728e+00
2 pgm_pn2_2_s2:1 vs_38_2:A 1.000000e-03
*END

*D_NET pgm_pn2_2_s3 1.748503e-02
*CONN
*I lt_pn2_2_s3:Z O
*I vs_63_2:A I
*I vs_59_2:A I
*CAP
1 pgm_pn2_2_s3:1 1.748503e-02
*RES
1 lt_pn2_2_s3:Z pgm_pn2_2_s3:1 1.984170e+01
2 pgm_pn2_2_s3:1 vs_63_2:A 1.000000e-03
3 pgm_pn2_2_s3:1 vs_59_2:A 1.000000e-03
*END

*D_NET pgm_pn2_3_s2 1.411956e-02
*CONN
*I lt_pn2_3_s2:Z O
*I vs_46_2:A I
*CAP
1 pgm_pn2_3_s2:1 1.411956e-02
*RES
1 lt_pn2_3_s2:Z pgm_pn2_3_s2:1 1.602262e+01
2 pgm_pn2_3_s2:1 vs_46_2:A 1.000000e-03
*END

*D_NET pgm_pn2_5_s0 3.898729e-03
*CONN
*I lt_pn2_5_s0:Z O
*I vs_7_2:A I
*I vs_4_2:A I
*CAP
1 pgm_pn2_5_s0:1 3.898729e-03
*RES
1 lt_pn2_5_s0:Z pgm_pn2_5_s0:1 4.424208e+00
2 pgm_pn2_5_s0:1 vs_7_2:A 1.000000e-03
3 pgm_pn2_5_s0:1 vs_4_2:A 1.000000e-03
*END

*D_NET pgm_pn2_5_s2 1.747910e-03
*CONN
*I lt_pn2_5_s2:Z O
*I vs_40_2:A I
*CAP
1 pgm_pn2_5_s2:1 1.747910e-03
*RES
1 lt_pn2_5_s2:Z pgm_pn2_5_s2:1 1.983497e+00
2 pgm_pn2_5_s2:1 vs_40_2:A 1.000000e-03
*END

*D_NET pgm_pn2_5_s3 5.113379e-03
*CONN
*I lt_pn2_5_s3:Z O
*I vs_58_2:A I
*CAP
1 pgm_pn2_5_s3:1 5.113379e-03
*RES
1 lt_pn2_5_s3:Z pgm_pn2_5_s3:1 5.802570e+00
2 pgm_pn2_5_s3:1 vs_58_2:A 1.000000e-03
*END

*D_NET pgm_pn2_6_s0 1.431022e-02
*CONN
*I lt_pn2_6_s0:Z O
*I vs_11_2:A I
*I vs_3_2:A I
*CAP
1 pgm_pn2_6_s0:1 1.431022e-02
*RES
1 lt_pn2_6_s0:Z pgm_pn2_6_s0:1 1.466681e+01
2 pgm_pn2_6_s0:1 vs_11_2:A 1.000000e-03
3 pgm_pn2_6_s0:1 vs_3_2:A 1.000000e-03
*END

*D_NET pgm_pn2_7_s1 4.932662e-03
*CONN
*I lt_pn2_7_s1:Z O
*I vs_28_2:A I
*CAP
1 pgm_pn2_7_s1:1 4.932662e-03
*RES
1 lt_pn2_7_s1:Z pgm_pn2_7_s1:1 5.597497e+00
2 pgm_pn2_7_s1:1 vs_28_2:A 1.000000e-03
*END

*D_NET pgm_pn2_7_s2 6.391089e-03
*CONN
*I lt_pn2_7_s2:Z O
*I vs_45_2:A I
*CAP
1 pgm_pn2_7_s2:1 6.391089e-03
*RES
1 lt_pn2_7_s2:Z pgm_pn2_7_s2:1 3.351609e+00
2 pgm_pn2_7_s2:1 vs_45_2:A 1.000000e-03
*END

*D_NET pgm_pn2_8_s0 7.276047e-03
*CONN
*I lt_pn2_8_s0:Z O
*I vs_6_2:A I
*CAP
1 pgm_pn2_8_s0:1 7.276047e-03
*RES
1 lt_pn2_8_s0:Z pgm_pn2_8_s0:1 8.256728e+00
2 pgm_pn2_8_s0:1 vs_6_2:A 1.000000e-03
*END

*D_NET pgm_pn2_8_s2 1.018232e-02
*CONN
*I lt_pn2_8_s2:Z O
*I vs_36_2:A I
*CAP
1 pgm_pn2_8_s2:1 1.018232e-02
*RES
1 lt_pn2_8_s2:Z pgm_pn2_8_s2:1 1.155471e+01
2 pgm_pn2_8_s2:1 vs_36_2:A 1.000000e-03
*END

*D_NET pgm_pn2_9_s2 1.306489e-03
*CONN
*I lt_pn2_9_s2:Z O
*I vs_44_2:A I
*CAP
1 pgm_pn2_9_s2:1 1.306489e-03
*RES
1 lt_pn2_9_s2:Z pgm_pn2_9_s2:1 1.482580e+00
2 pgm_pn2_9_s2:1 vs_44_2:A 1.000000e-03
*END

*D_NET pgm_pn2_9_s3 6.636134e-03
*CONN
*I lt_pn2_9_s3:Z O
*I vs_56_2:A I
*CAP
1 pgm_pn2_9_s3:1 6.636134e-03
*RES
1 lt_pn2_9_s3:Z pgm_pn2_9_s3:1 7.530566e+00
2 pgm_pn2_9_s3:1 vs_56_2:A 1.000000e-03
*END

*D_NET pgm_pn3_0_s0 1.479223e-02
*CONN
*I lt_pn3_0_s0:Z O
*I vs_10_3:A I
*CAP
1 pgm_pn3_0_s0:1 1.479223e-02
*RES
1 lt_pn3_0_s0:Z pgm_pn3_0_s0:1 1.492583e+01
2 pgm_pn3_0_s0:1 vs_10_3:A 1.000000e-03
*END

*D_NET pgm_pn3_12_s3 1.392464e-02
*CONN
*I lt_pn3_12_s3:Z O
*I vs_54_3:A I
*CAP
1 pgm_pn3_12_s3:1 1.392464e-02
*RES
1 lt_pn3_12_s3:Z pgm_pn3_12_s3:1 1.408528e+01
2 pgm_pn3_12_s3:1 vs_54_3:A 1.000000e-03
*END

*D_NET pgm_pn3_1_s0 1.366629e-02
*CONN
*I lt_pn3_1_s0:Z O
*I vs_11_3:A I
*CAP
1 pgm_pn3_1_s0:1 1.366629e-02
*RES
1 lt_pn3_1_s0:Z pgm_pn3_1_s0:1 1.550826e+01
2 pgm_pn3_1_s0:1 vs_11_3:A 1.000000e-03
*END

*D_NET pgm_pn3_1_s1 1.748520e-02
*CONN
*I lt_pn3_1_s1:Z O
*I vs_28_3:A I
*CAP
1 pgm_pn3_1_s1:1 1.748520e-02
*RES
1 lt_pn3_1_s1:Z pgm_pn3_1_s1:1 1.798176e+01
2 pgm_pn3_1_s1:1 vs_28_3:A 1.000000e-03
*END

*D_NET pgm_pn3_1_s2 1.882411e-02
*CONN
*I lt_pn3_1_s2:Z O
*I vs_47_3:A I
*CAP
1 pgm_pn3_1_s2:1 1.882411e-02
*RES
1 lt_pn3_1_s2:Z pgm_pn3_1_s2:1 2.136126e+01
2 pgm_pn3_1_s2:1 vs_47_3:A 1.000000e-03
*END

*D_NET pgm_pn3_1_s3 1.995849e-02
*CONN
*I lt_pn3_1_s3:Z O
*I vs_60_3:A I
*I vs_48_3:A I
*CAP
1 pgm_pn3_1_s3:1 1.995849e-02
*RES
1 lt_pn3_1_s3:Z pgm_pn3_1_s3:1 2.064443e+01
2 pgm_pn3_1_s3:1 vs_60_3:A 1.000000e-03
3 pgm_pn3_1_s3:1 vs_48_3:A 1.000000e-03
*END

*D_NET pgm_pn3_2_s1 1.183246e-02
*CONN
*I lt_pn3_2_s1:Z O
*I vs_27_3:A I
*CAP
1 pgm_pn3_2_s1:1 1.183246e-02
*RES
1 lt_pn3_2_s1:Z pgm_pn3_2_s1:1 1.342727e+01
2 pgm_pn3_2_s1:1 vs_27_3:A 1.000000e-03
*END

*D_NET pgm_pn3_3_s0 2.838132e-03
*CONN
*I lt_pn3_3_s0:Z O
*I vs_3_3:A I
*CAP
1 pgm_pn3_3_s0:1 2.838132e-03
*RES
1 lt_pn3_3_s0:Z pgm_pn3_3_s0:1 3.220662e+00
2 pgm_pn3_3_s0:1 vs_3_3:A 1.000000e-03
*END

*D_NET pgm_pn3_3_s1 3.501746e-03
*CONN
*I lt_pn3_3_s1:Z O
*I vs_18_3:A I
*CAP
1 pgm_pn3_3_s1:1 3.501746e-03
*RES
1 lt_pn3_3_s1:Z pgm_pn3_3_s1:1 3.973719e+00
2 pgm_pn3_3_s1:1 vs_18_3:A 1.000000e-03
*END

*D_NET pgm_pn3_3_s3 9.688753e-03
*CONN
*I lt_pn3_3_s3:Z O
*I vs_56_3:A I
*CAP
1 pgm_pn3_3_s3:1 9.688753e-03
*RES
1 lt_pn3_3_s3:Z pgm_pn3_3_s3:1 2.261039e+00
2 pgm_pn3_3_s3:1 vs_56_3:A 1.000000e-03
*END

*D_NET pgm_pn3_4_s0 3.566922e-03
*CONN
*I lt_pn3_4_s0:Z O
*I vs_7_3:A I
*CAP
1 pgm_pn3_4_s0:1 3.566922e-03
*RES
1 lt_pn3_4_s0:Z pgm_pn3_4_s0:1 4.047679e+00
2 pgm_pn3_4_s0:1 vs_7_3:A 1.000000e-03
*END

*D_NET pgm_pn3_4_s2 2.270285e-02
*CONN
*I lt_pn3_4_s2:Z O
*I vs_46_3:A I
*I vs_37_3:A I
*I vs_32_3:A I
*CAP
1 pgm_pn3_4_s2:1 2.270285e-02
*RES
1 lt_pn3_4_s2:Z pgm_pn3_4_s2:1 2.505449e+01
2 pgm_pn3_4_s2:1 vs_46_3:A 1.000000e-03
3 pgm_pn3_4_s2:1 vs_37_3:A 1.000000e-03
4 pgm_pn3_4_s2:1 vs_32_3:A 1.000000e-03
*END

*D_NET pgm_pn3_5_s0 1.222649e-02
*CONN
*I lt_pn3_5_s0:Z O
*I vs_14_3:A I
*CAP
1 pgm_pn3_5_s0:1 1.222649e-02
*RES
1 lt_pn3_5_s0:Z pgm_pn3_5_s0:1 1.387440e+01
2 pgm_pn3_5_s0:1 vs_14_3:A 1.000000e-03
*END

*D_NET pgm_pn3_6_s3 1.279884e-02
*CONN
*I lt_pn3_6_s3:Z O
*I vs_58_3:A I
*I vs_57_3:A I
*I vs_50_3:A I
*CAP
1 pgm_pn3_6_s3:1 1.279884e-02
*RES
1 lt_pn3_6_s3:Z pgm_pn3_6_s3:1 1.187500e+01
2 pgm_pn3_6_s3:1 vs_58_3:A 1.000000e-03
3 pgm_pn3_6_s3:1 vs_57_3:A 1.000000e-03
4 pgm_pn3_6_s3:1 vs_50_3:A 1.000000e-03
*END

*D_NET pgm_pn3_7_s0 4.437915e-03
*CONN
*I lt_pn3_7_s0:Z O
*I vs_6_3:A I
*CAP
1 pgm_pn3_7_s0:1 4.437915e-03
*RES
1 lt_pn3_7_s0:Z pgm_pn3_7_s0:1 5.036066e+00
2 pgm_pn3_7_s0:1 vs_6_3:A 1.000000e-03
*END

*D_NET pgm_pn3_7_s1 1.199244e-02
*CONN
*I lt_pn3_7_s1:Z O
*I vs_16_3:A I
*CAP
1 pgm_pn3_7_s1:1 1.199244e-02
*RES
1 lt_pn3_7_s1:Z pgm_pn3_7_s1:1 1.360881e+01
2 pgm_pn3_7_s1:1 vs_16_3:A 1.000000e-03
*END

*D_NET pgm_pn3_7_s2 4.035007e-03
*CONN
*I lt_pn3_7_s2:Z O
*I vs_44_3:A I
*I vs_43_3:A I
*CAP
1 pgm_pn3_7_s2:1 4.035007e-03
*RES
1 lt_pn3_7_s2:Z pgm_pn3_7_s2:1 4.578853e+00
2 pgm_pn3_7_s2:1 vs_44_3:A 1.000000e-03
3 pgm_pn3_7_s2:1 vs_43_3:A 1.000000e-03
*END

*D_NET pgm_pn3_7_s3 1.006974e-02
*CONN
*I lt_pn3_7_s3:Z O
*I vs_55_3:A I
*I vs_52_3:A I
*CAP
1 pgm_pn3_7_s3:1 1.006974e-02
*RES
1 lt_pn3_7_s3:Z pgm_pn3_7_s3:1 1.142696e+01
2 pgm_pn3_7_s3:1 vs_55_3:A 1.000000e-03
3 pgm_pn3_7_s3:1 vs_52_3:A 1.000000e-03
*END

*D_NET pgm_pn3_8_s0 1.955586e-02
*CONN
*I lt_pn3_8_s0:Z O
*I vs_15_3:A I
*I vs_2_3:A I
*CAP
1 pgm_pn3_8_s0:1 1.955586e-02
*RES
1 lt_pn3_8_s0:Z pgm_pn3_8_s0:1 2.219164e+01
2 pgm_pn3_8_s0:1 vs_15_3:A 1.000000e-03
3 pgm_pn3_8_s0:1 vs_2_3:A 1.000000e-03
*END

*D_NET pgm_pn3_9_s1 1.049042e-02
*CONN
*I lt_pn3_9_s1:Z O
*I vs_22_3:A I
*CAP
1 pgm_pn3_9_s1:1 1.049042e-02
*RES
1 lt_pn3_9_s1:Z pgm_pn3_9_s1:1 1.190435e+01
2 pgm_pn3_9_s1:1 vs_22_3:A 1.000000e-03
*END

*D_NET pgm_pn3_9_s3 2.968485e-03
*CONN
*I lt_pn3_9_s3:Z O
*I vs_61_3:A I
*CAP
1 pgm_pn3_9_s3:1 2.968485e-03
*RES
1 lt_pn3_9_s3:Z pgm_pn3_9_s3:1 3.368584e+00
2 pgm_pn3_9_s3:1 vs_61_3:A 1.000000e-03
*END

*D_NET pgm_pn4_0_s3 1.444738e-02
*CONN
*I lt_pn4_0_s3:Z O
*I vs_58_4:A I
*CAP
1 pgm_pn4_0_s3:1 1.444738e-02
*RES
1 lt_pn4_0_s3:Z pgm_pn4_0_s3:1 1.511042e+01
2 pgm_pn4_0_s3:1 vs_58_4:A 1.000000e-03
*END

*D_NET pgm_pn4_10_s0 5.913132e-03
*CONN
*I lt_pn4_10_s0:Z O
*I vs_9_4:A I
*CAP
1 pgm_pn4_10_s0:1 5.913132e-03
*RES
1 lt_pn4_10_s0:Z pgm_pn4_10_s0:1 5.713861e+00
2 pgm_pn4_10_s0:1 vs_9_4:A 1.000000e-03
*END

*D_NET pgm_pn4_10_s2 2.701855e-03
*CONN
*I lt_pn4_10_s2:Z O
*I vs_46_4:A I
*CAP
1 pgm_pn4_10_s2:1 2.701855e-03
*RES
1 lt_pn4_10_s2:Z pgm_pn4_10_s2:1 3.066016e+00
2 pgm_pn4_10_s2:1 vs_46_4:A 1.000000e-03
*END

*D_NET pgm_pn4_11_s0 1.712656e-02
*CONN
*I lt_pn4_11_s0:Z O
*I vs_2_4:A I
*CAP
1 pgm_pn4_11_s0:1 1.712656e-02
*RES
1 lt_pn4_11_s0:Z pgm_pn4_11_s0:1 1.943491e+01
2 pgm_pn4_11_s0:1 vs_2_4:A 1.000000e-03
*END

*D_NET pgm_pn4_11_s3 2.103714e-02
*CONN
*I lt_pn4_11_s3:Z O
*I vs_48_4:A I
*CAP
1 pgm_pn4_11_s3:1 2.103714e-02
*RES
1 lt_pn4_11_s3:Z pgm_pn4_11_s3:1 2.387257e+01
2 pgm_pn4_11_s3:1 vs_48_4:A 1.000000e-03
*END

*D_NET pgm_pn4_1_s0 1.874946e-02
*CONN
*I lt_pn4_1_s0:Z O
*I vs_14_4:A I
*I vs_5_4:A I
*CAP
1 pgm_pn4_1_s0:1 1.874946e-02
*RES
1 lt_pn4_1_s0:Z pgm_pn4_1_s0:1 2.013632e+01
2 pgm_pn4_1_s0:1 vs_14_4:A 1.000000e-03
3 pgm_pn4_1_s0:1 vs_5_4:A 1.000000e-03
*END

*D_NET pgm_pn4_1_s2 1.298980e-02
*CONN
*I lt_pn4_1_s2:Z O
*I vs_41_4:A I
*I vs_36_4:A I
*CAP
1 pgm_pn4_1_s2:1 1.298980e-02
*RES
1 lt_pn4_1_s2:Z pgm_pn4_1_s2:1 1.345638e+01
2 pgm_pn4_1_s2:1 vs_41_4:A 1.000000e-03
3 pgm_pn4_1_s2:1 vs_36_4:A 1.000000e-03
*END

*D_NET pgm_pn4_1_s3 1.842416e-02
*CONN
*I lt_pn4_1_s3:Z O
*I vs_61_4:A I
*I vs_59_4:A I
*I vs_51_4:A I
*CAP
1 pgm_pn4_1_s3:1 1.842416e-02
*RES
1 lt_pn4_1_s3:Z pgm_pn4_1_s3:1 2.090741e+01
2 pgm_pn4_1_s3:1 vs_61_4:A 1.000000e-03
3 pgm_pn4_1_s3:1 vs_59_4:A 1.000000e-03
4 pgm_pn4_1_s3:1 vs_51_4:A 1.000000e-03
*END

*D_NET pgm_pn4_2_s0 1.593857e-03
*CONN
*I lt_pn4_2_s0:Z O
*I vs_3_4:A I
*CAP
1 pgm_pn4_2_s0:1 1.593857e-03
*RES
1 lt_pn4_2_s0:Z pgm_pn4_2_s0:1 1.808681e+00
2 pgm_pn4_2_s0:1 vs_3_4:A 1.000000e-03
*END

*D_NET pgm_pn4_2_s1 9.419918e-03
*CONN
*I lt_pn4_2_s1:Z O
*I vs_25_4:A I
*I vs_24_4:A I
*CAP
1 pgm_pn4_2_s1:1 9.419918e-03
*RES
1 lt_pn4_2_s1:Z pgm_pn4_2_s1:1 9.405339e+00
2 pgm_pn4_2_s1:1 vs_25_4:A 1.000000e-03
3 pgm_pn4_2_s1:1 vs_24_4:A 1.000000e-03
*END

*D_NET pgm_pn4_3_s0 1.522756e-03
*CONN
*I lt_pn4_3_s0:Z O
*I vs_4_4:A I
*CAP
1 pgm_pn4_3_s0:1 1.522756e-03
*RES
1 lt_pn4_3_s0:Z pgm_pn4_3_s0:1 1.727996e+00
2 pgm_pn4_3_s0:1 vs_4_4:A 1.000000e-03
*END

*D_NET pgm_pn4_3_s2 1.380257e-02
*CONN
*I lt_pn4_3_s2:Z O
*I vs_45_4:A I
*CAP
1 pgm_pn4_3_s2:1 1.380257e-02
*RES
1 lt_pn4_3_s2:Z pgm_pn4_3_s2:1 1.566291e+01
2 pgm_pn4_3_s2:1 vs_45_4:A 1.000000e-03
*END

*D_NET pgm_pn4_3_s3 1.519201e-02
*CONN
*I lt_pn4_3_s3:Z O
*I vs_63_4:A I
*CAP
1 pgm_pn4_3_s3:1 1.519201e-02
*RES
1 lt_pn4_3_s3:Z pgm_pn4_3_s3:1 1.723962e+01
2 pgm_pn4_3_s3:1 vs_63_4:A 1.000000e-03
*END

*D_NET pgm_pn4_4_s3 1.166360e-02
*CONN
*I lt_pn4_4_s3:Z O
*I vs_60_4:A I
*I vs_57_4:A I
*I vs_53_4:A I
*CAP
1 pgm_pn4_4_s3:1 1.166360e-02
*RES
1 lt_pn4_4_s3:Z pgm_pn4_4_s3:1 1.323564e+01
2 pgm_pn4_4_s3:1 vs_60_4:A 1.000000e-03
3 pgm_pn4_4_s3:1 vs_57_4:A 1.000000e-03
4 pgm_pn4_4_s3:1 vs_53_4:A 1.000000e-03
*END

*D_NET pgm_pn4_5_s1 1.427079e-02
*CONN
*I lt_pn4_5_s1:Z O
*I vs_30_4:A I
*CAP
1 pgm_pn4_5_s1:1 1.427079e-02
*RES
1 lt_pn4_5_s1:Z pgm_pn4_5_s1:1 1.394598e+01
2 pgm_pn4_5_s1:1 vs_30_4:A 1.000000e-03
*END

*D_NET pgm_pn4_6_s2 4.437915e-03
*CONN
*I lt_pn4_6_s2:Z O
*I vs_43_4:A I
*CAP
1 pgm_pn4_6_s2:1 4.437915e-03
*RES
1 lt_pn4_6_s2:Z pgm_pn4_6_s2:1 5.036066e+00
2 pgm_pn4_6_s2:1 vs_43_4:A 1.000000e-03
*END

*D_NET pgm_pn4_7_s1 1.495204e-02
*CONN
*I lt_pn4_7_s1:Z O
*I vs_16_4:A I
*CAP
1 pgm_pn4_7_s1:1 1.495204e-02
*RES
1 lt_pn4_7_s1:Z pgm_pn4_7_s1:1 1.696731e+01
2 pgm_pn4_7_s1:1 vs_16_4:A 1.000000e-03
*END

*D_NET pgm_pn4_7_s2 6.357654e-03
*CONN
*I lt_pn4_7_s2:Z O
*I vs_44_4:A I
*I vs_40_4:A I
*CAP
1 pgm_pn4_7_s2:1 6.357654e-03
*RES
1 lt_pn4_7_s2:Z pgm_pn4_7_s2:1 7.214552e+00
2 pgm_pn4_7_s2:1 vs_44_4:A 1.000000e-03
3 pgm_pn4_7_s2:1 vs_40_4:A 1.000000e-03
*END

*D_NET pgm_pn4_7_s3 1.430916e-03
*CONN
*I lt_pn4_7_s3:Z O
*I vs_56_4:A I
*CAP
1 pgm_pn4_7_s3:1 1.430916e-03
*RES
1 lt_pn4_7_s3:Z pgm_pn4_7_s3:1 1.623778e+00
2 pgm_pn4_7_s3:1 vs_56_4:A 1.000000e-03
*END

*D_NET pgm_pn4_8_s0 6.185825e-03
*CONN
*I lt_pn4_8_s0:Z O
*I vs_6_4:A I
*CAP
1 pgm_pn4_8_s0:1 6.185825e-03
*RES
1 lt_pn4_8_s0:Z pgm_pn4_8_s0:1 7.019564e+00
2 pgm_pn4_8_s0:1 vs_6_4:A 1.000000e-03
*END

*D_NET pgm_pn4_8_s1 1.074064e-02
*CONN
*I lt_pn4_8_s1:Z O
*I vs_20_4:A I
*CAP
1 pgm_pn4_8_s1:1 1.074064e-02
*RES
1 lt_pn4_8_s1:Z pgm_pn4_8_s1:1 9.763835e+00
2 pgm_pn4_8_s1:1 vs_20_4:A 1.000000e-03
*END

*D_NET pgm_pn4_8_s2 1.084273e-02
*CONN
*I lt_pn4_8_s2:Z O
*I vs_38_4:A I
*I vs_35_4:A I
*CAP
1 pgm_pn4_8_s2:1 1.084273e-02
*RES
1 lt_pn4_8_s2:Z pgm_pn4_8_s2:1 1.014352e+01
2 pgm_pn4_8_s2:1 vs_38_4:A 1.000000e-03
3 pgm_pn4_8_s2:1 vs_35_4:A 1.000000e-03
*END

*D_NET pgm_pn4_8_s3 1.572127e-02
*CONN
*I lt_pn4_8_s3:Z O
*I vs_49_4:A I
*CAP
1 pgm_pn4_8_s3:1 1.572127e-02
*RES
1 lt_pn4_8_s3:Z pgm_pn4_8_s3:1 1.610123e+01
2 pgm_pn4_8_s3:1 vs_49_4:A 1.000000e-03
*END

*D_NET pgm_pn4_9_s3 1.041445e-02
*CONN
*I lt_pn4_9_s3:Z O
*I vs_54_4:A I
*CAP
1 pgm_pn4_9_s3:1 1.041445e-02
*RES
1 lt_pn4_9_s3:Z pgm_pn4_9_s3:1 1.024596e+01
2 pgm_pn4_9_s3:1 vs_54_4:A 1.000000e-03
*END

*D_NET pgm_pn5_0_s0 1.298255e-02
*CONN
*I lt_pn5_0_s0:Z O
*I vs_9_5:A I
*CAP
1 pgm_pn5_0_s0:1 1.298255e-02
*RES
1 lt_pn5_0_s0:Z pgm_pn5_0_s0:1 1.301621e+01
2 pgm_pn5_0_s0:1 vs_9_5:A 1.000000e-03
*END

*D_NET pgm_pn5_0_s1 1.918526e-02
*CONN
*I lt_pn5_0_s1:Z O
*I vs_29_5:A I
*I vs_26_5:A I
*CAP
1 pgm_pn5_0_s1:1 1.918526e-02
*RES
1 lt_pn5_0_s1:Z pgm_pn5_0_s1:1 1.976698e+01
2 pgm_pn5_0_s1:1 vs_29_5:A 1.000000e-03
3 pgm_pn5_0_s1:1 vs_26_5:A 1.000000e-03
*END

*D_NET pgm_pn5_0_s2 1.522132e-02
*CONN
*I lt_pn5_0_s2:Z O
*I vs_42_5:A I
*CAP
1 pgm_pn5_0_s2:1 1.522132e-02
*RES
1 lt_pn5_0_s2:Z pgm_pn5_0_s2:1 1.488066e+01
2 pgm_pn5_0_s2:1 vs_42_5:A 1.000000e-03
*END

*D_NET pgm_pn5_0_s3 1.292122e-02
*CONN
*I lt_pn5_0_s3:Z O
*I vs_57_5:A I
*CAP
1 pgm_pn5_0_s3:1 1.292122e-02
*RES
1 lt_pn5_0_s3:Z pgm_pn5_0_s3:1 1.323458e+01
2 pgm_pn5_0_s3:1 vs_57_5:A 1.000000e-03
*END

*D_NET pgm_pn5_11_s0 3.057286e-02
*CONN
*I lt_pn5_11_s0:Z O
*I vs_0_5:A I
*CAP
1 pgm_pn5_11_s0:1 3.057286e-02
*RES
1 lt_pn5_11_s0:Z pgm_pn5_11_s0:1 2.291042e+01
2 pgm_pn5_11_s0:1 vs_0_5:A 1.000000e-03
*END

*D_NET pgm_pn5_1_s0 7.548603e-03
*CONN
*I lt_pn5_1_s0:Z O
*I vs_6_5:A I
*CAP
1 pgm_pn5_1_s0:1 7.548603e-03
*RES
1 lt_pn5_1_s0:Z pgm_pn5_1_s0:1 8.566019e+00
2 pgm_pn5_1_s0:1 vs_6_5:A 1.000000e-03
*END

*D_NET pgm_pn5_1_s2 1.522163e-02
*CONN
*I lt_pn5_1_s2:Z O
*I vs_43_5:A I
*I vs_39_5:A I
*I vs_34_5:A I
*CAP
1 pgm_pn5_1_s2:1 1.522163e-02
*RES
1 lt_pn5_1_s2:Z pgm_pn5_1_s2:1 1.727324e+01
2 pgm_pn5_1_s2:1 vs_43_5:A 1.000000e-03
3 pgm_pn5_1_s2:1 vs_39_5:A 1.000000e-03
4 pgm_pn5_1_s2:1 vs_34_5:A 1.000000e-03
*END

*D_NET pgm_pn5_1_s3 2.013342e-02
*CONN
*I lt_pn5_1_s3:Z O
*I vs_63_5:A I
*I vs_59_5:A I
*CAP
1 pgm_pn5_1_s3:1 2.013342e-02
*RES
1 lt_pn5_1_s3:Z pgm_pn5_1_s3:1 2.185079e+01
2 pgm_pn5_1_s3:1 vs_63_5:A 1.000000e-03
3 pgm_pn5_1_s3:1 vs_59_5:A 1.000000e-03
*END

*D_NET pgm_pn5_2_s0 1.172878e-02
*CONN
*I lt_pn5_2_s0:Z O
*I vs_10_5:A I
*I vs_7_5:A I
*CAP
1 pgm_pn5_2_s0:1 1.172878e-02
*RES
1 lt_pn5_2_s0:Z pgm_pn5_2_s0:1 1.330960e+01
2 pgm_pn5_2_s0:1 vs_10_5:A 1.000000e-03
3 pgm_pn5_2_s0:1 vs_7_5:A 1.000000e-03
*END

*D_NET pgm_pn5_2_s3 6.348766e-03
*CONN
*I lt_pn5_2_s3:Z O
*I vs_54_5:A I
*CAP
1 pgm_pn5_2_s3:1 6.348766e-03
*RES
1 lt_pn5_2_s3:Z pgm_pn5_2_s3:1 7.204466e+00
2 pgm_pn5_2_s3:1 vs_54_5:A 1.000000e-03
*END

*D_NET pgm_pn5_3_s1 1.976028e-03
*CONN
*I lt_pn5_3_s1:Z O
*I vs_19_5:A I
*CAP
1 pgm_pn5_3_s1:1 1.976028e-03
*RES
1 lt_pn5_3_s1:Z pgm_pn5_3_s1:1 2.242361e+00
2 pgm_pn5_3_s1:1 vs_19_5:A 1.000000e-03
*END

*D_NET pgm_pn5_4_s1 2.276833e-02
*CONN
*I lt_pn5_4_s1:Z O
*I vs_30_5:A I
*I vs_16_5:A I
*CAP
1 pgm_pn5_4_s1:1 2.276833e-02
*RES
1 lt_pn5_4_s1:Z pgm_pn5_4_s1:1 2.426492e+01
2 pgm_pn5_4_s1:1 vs_30_5:A 1.000000e-03
3 pgm_pn5_4_s1:1 vs_16_5:A 1.000000e-03
*END

*D_NET pgm_pn5_5_s3 2.968485e-03
*CONN
*I lt_pn5_5_s3:Z O
*I vs_56_5:A I
*CAP
1 pgm_pn5_5_s3:1 2.968485e-03
*RES
1 lt_pn5_5_s3:Z pgm_pn5_5_s3:1 3.368584e+00
2 pgm_pn5_5_s3:1 vs_56_5:A 1.000000e-03
*END

*D_NET pgm_pn5_6_s1 5.788842e-03
*CONN
*I lt_pn5_6_s1:Z O
*I vs_20_5:A I
*CAP
1 pgm_pn5_6_s1:1 5.788842e-03
*RES
1 lt_pn5_6_s1:Z pgm_pn5_6_s1:1 6.569074e+00
2 pgm_pn5_6_s1:1 vs_20_5:A 1.000000e-03
*END

*D_NET pgm_pn5_6_s2 1.238350e-02
*CONN
*I lt_pn5_6_s2:Z O
*I vs_36_5:A I
*I vs_32_5:A I
*CAP
1 pgm_pn5_6_s2:1 1.238350e-02
*RES
1 lt_pn5_6_s2:Z pgm_pn5_6_s2:1 1.405257e+01
2 pgm_pn5_6_s2:1 vs_36_5:A 1.000000e-03
3 pgm_pn5_6_s2:1 vs_32_5:A 1.000000e-03
*END

*D_NET pgm_pn5_7_s0 3.042549e-03
*CONN
*I lt_pn5_7_s0:Z O
*I vs_11_5:A I
*CAP
1 pgm_pn5_7_s0:1 3.042549e-03
*RES
1 lt_pn5_7_s0:Z pgm_pn5_7_s0:1 3.452630e+00
2 pgm_pn5_7_s0:1 vs_11_5:A 1.000000e-03
*END

*D_NET pgm_pn5_7_s2 2.725555e-04
*CONN
*I lt_pn5_7_s2:Z O
*I vs_41_5:A I
*CAP
1 pgm_pn5_7_s2:1 2.725555e-04
*RES
1 lt_pn5_7_s2:Z pgm_pn5_7_s2:1 3.092911e-01
2 pgm_pn5_7_s2:1 vs_41_5:A 1.000000e-03
*END

*D_NET pgm_pn5_9_s1 1.573119e-03
*CONN
*I lt_pn5_9_s1:Z O
*I vs_28_5:A I
*CAP
1 pgm_pn5_9_s1:1 1.573119e-03
*RES
1 lt_pn5_9_s1:Z pgm_pn5_9_s1:1 1.785148e+00
2 pgm_pn5_9_s1:1 vs_28_5:A 1.000000e-03
*END

*D_NET pgm_pn5_9_s2 8.380945e-03
*CONN
*I lt_pn5_9_s2:Z O
*I vs_38_5:A I
*CAP
1 pgm_pn5_9_s2:1 8.380945e-03
*RES
1 lt_pn5_9_s2:Z pgm_pn5_9_s2:1 8.514290e+00
2 pgm_pn5_9_s2:1 vs_38_5:A 1.000000e-03
*END

*D_NET pgm_pn5_9_s3 1.433583e-02
*CONN
*I lt_pn5_9_s3:Z O
*I vs_51_5:A I
*I vs_50_5:A I
*CAP
1 pgm_pn5_9_s3:1 1.433583e-02
*RES
1 lt_pn5_9_s3:Z pgm_pn5_9_s3:1 1.626804e+01
2 pgm_pn5_9_s3:1 vs_51_5:A 1.000000e-03
3 pgm_pn5_9_s3:1 vs_50_5:A 1.000000e-03
*END

*D_NET pgm_pn6_0_s2 2.275246e-02
*CONN
*I lt_pn6_0_s2:Z O
*I vs_47_6:A I
*I vs_35_6:A I
*I vs_34_6:A I
*CAP
1 pgm_pn6_0_s2:1 2.275246e-02
*RES
1 lt_pn6_0_s2:Z pgm_pn6_0_s2:1 2.581908e+01
2 pgm_pn6_0_s2:1 vs_47_6:A 1.000000e-03
3 pgm_pn6_0_s2:1 vs_35_6:A 1.000000e-03
4 pgm_pn6_0_s2:1 vs_34_6:A 1.000000e-03
*END

*D_NET pgm_pn6_0_s3 2.119732e-02
*CONN
*I lt_pn6_0_s3:Z O
*I vs_61_6:A I
*CAP
1 pgm_pn6_0_s3:1 2.119732e-02
*RES
1 lt_pn6_0_s3:Z pgm_pn6_0_s3:1 1.932621e+01
2 pgm_pn6_0_s3:1 vs_61_6:A 1.000000e-03
*END

*D_NET pgm_pn6_11_s0 1.023537e-02
*CONN
*I lt_pn6_11_s0:Z O
*I vs_8_6:A I
*CAP
1 pgm_pn6_11_s0:1 1.023537e-02
*RES
1 lt_pn6_11_s0:Z pgm_pn6_11_s0:1 9.610803e+00
2 pgm_pn6_11_s0:1 vs_8_6:A 1.000000e-03
*END

*D_NET pgm_pn6_12_s0 2.185794e-02
*CONN
*I lt_pn6_12_s0:Z O
*I vs_0_6:A I
*CAP
1 pgm_pn6_12_s0:1 2.185794e-02
*RES
1 lt_pn6_12_s0:Z pgm_pn6_12_s0:1 2.294386e+01
2 pgm_pn6_12_s0:1 vs_0_6:A 1.000000e-03
*END

*D_NET pgm_pn6_1_s0 1.747910e-02
*CONN
*I lt_pn6_1_s0:Z O
*I vs_14_6:A I
*CAP
1 pgm_pn6_1_s0:1 1.747910e-02
*RES
1 lt_pn6_1_s0:Z pgm_pn6_1_s0:1 1.983497e+01
2 pgm_pn6_1_s0:1 vs_14_6:A 1.000000e-03
*END

*D_NET pgm_pn6_1_s1 3.866141e-03
*CONN
*I lt_pn6_1_s1:Z O
*I vs_18_6:A I
*I vs_16_6:A I
*CAP
1 pgm_pn6_1_s1:1 3.866141e-03
*RES
1 lt_pn6_1_s1:Z pgm_pn6_1_s1:1 4.387227e+00
2 pgm_pn6_1_s1:1 vs_18_6:A 1.000000e-03
3 pgm_pn6_1_s1:1 vs_16_6:A 1.000000e-03
*END

*D_NET pgm_pn6_1_s2 5.824256e-03
*CONN
*I lt_pn6_1_s2:Z O
*I vs_36_6:A I
*CAP
1 pgm_pn6_1_s2:1 5.824256e-03
*RES
1 lt_pn6_1_s2:Z pgm_pn6_1_s2:1 5.613005e+00
2 pgm_pn6_1_s2:1 vs_36_6:A 1.000000e-03
*END

*D_NET pgm_pn6_2_s1 3.679500e-03
*CONN
*I lt_pn6_2_s1:Z O
*I vs_20_6:A I
*CAP
1 pgm_pn6_2_s1:1 3.679500e-03
*RES
1 lt_pn6_2_s1:Z pgm_pn6_2_s1:1 4.175430e+00
2 pgm_pn6_2_s1:1 vs_20_6:A 1.000000e-03
*END

*D_NET pgm_pn6_2_s2 3.898592e-03
*CONN
*I lt_pn6_2_s2:Z O
*I vs_33_6:A I
*CAP
1 pgm_pn6_2_s2:1 3.898592e-03
*RES
1 lt_pn6_2_s2:Z pgm_pn6_2_s2:1 3.427796e+00
2 pgm_pn6_2_s2:1 vs_33_6:A 1.000000e-03
*END

*D_NET pgm_pn6_2_s3 7.978037e-03
*CONN
*I lt_pn6_2_s3:Z O
*I vs_56_6:A I
*CAP
1 pgm_pn6_2_s3:1 7.978037e-03
*RES
1 lt_pn6_2_s3:Z pgm_pn6_2_s3:1 8.057077e+00
2 pgm_pn6_2_s3:1 vs_56_6:A 1.000000e-03
*END

*D_NET pgm_pn6_3_s0 1.030675e-02
*CONN
*I lt_pn6_3_s0:Z O
*I vs_11_6:A I
*CAP
1 pgm_pn6_3_s0:1 1.030675e-02
*RES
1 lt_pn6_3_s0:Z pgm_pn6_3_s0:1 1.169591e+01
2 pgm_pn6_3_s0:1 vs_11_6:A 1.000000e-03
*END

*D_NET pgm_pn6_4_s1 3.098838e-03
*CONN
*I lt_pn6_4_s1:Z O
*I vs_23_6:A I
*CAP
1 pgm_pn6_4_s1:1 3.098838e-03
*RES
1 lt_pn6_4_s1:Z pgm_pn6_4_s1:1 3.516506e+00
2 pgm_pn6_4_s1:1 vs_23_6:A 1.000000e-03
*END

*D_NET pgm_pn6_4_s2 7.406400e-03
*CONN
*I lt_pn6_4_s2:Z O
*I vs_42_6:A I
*CAP
1 pgm_pn6_4_s2:1 7.406400e-03
*RES
1 lt_pn6_4_s2:Z pgm_pn6_4_s2:1 8.404650e+00
2 pgm_pn6_4_s2:1 vs_42_6:A 1.000000e-03
*END

*D_NET pgm_pn6_5_s1 1.994692e-02
*CONN
*I lt_pn6_5_s1:Z O
*I vs_31_6:A I
*I vs_19_6:A I
*CAP
1 pgm_pn6_5_s1:1 1.994692e-02
*RES
1 lt_pn6_5_s1:Z pgm_pn6_5_s1:1 2.263540e+01
2 pgm_pn6_5_s1:1 vs_31_6:A 1.000000e-03
3 pgm_pn6_5_s1:1 vs_19_6:A 1.000000e-03
*END

*D_NET pgm_pn6_5_s3 1.121921e-02
*CONN
*I lt_pn6_5_s3:Z O
*I vs_62_6:A I
*CAP
1 pgm_pn6_5_s3:1 1.121921e-02
*RES
1 lt_pn6_5_s3:Z pgm_pn6_5_s3:1 1.273136e+01
2 pgm_pn6_5_s3:1 vs_62_6:A 1.000000e-03
*END

*D_NET pgm_pn6_6_s0 2.701855e-03
*CONN
*I lt_pn6_6_s0:Z O
*I vs_9_6:A I
*CAP
1 pgm_pn6_6_s0:1 2.701855e-03
*RES
1 lt_pn6_6_s0:Z pgm_pn6_6_s0:1 3.066016e+00
2 pgm_pn6_6_s0:1 vs_9_6:A 1.000000e-03
*END

*D_NET pgm_pn6_6_s1 6.085098e-03
*CONN
*I lt_pn6_6_s1:Z O
*I vs_28_6:A I
*CAP
1 pgm_pn6_6_s1:1 6.085098e-03
*RES
1 lt_pn6_6_s1:Z pgm_pn6_6_s1:1 6.905260e+00
2 pgm_pn6_6_s1:1 vs_28_6:A 1.000000e-03
*END

*D_NET pgm_pn6_7_s2 7.370849e-03
*CONN
*I lt_pn6_7_s2:Z O
*I vs_43_6:A I
*I vs_39_6:A I
*CAP
1 pgm_pn6_7_s2:1 7.370849e-03
*RES
1 lt_pn6_7_s2:Z pgm_pn6_7_s2:1 8.364308e+00
2 pgm_pn6_7_s2:1 vs_43_6:A 1.000000e-03
3 pgm_pn6_7_s2:1 vs_39_6:A 1.000000e-03
*END

*D_NET pgm_pn6_7_s3 9.335027e-03
*CONN
*I lt_pn6_7_s3:Z O
*I vs_51_6:A I
*CAP
1 pgm_pn6_7_s3:1 9.335027e-03
*RES
1 lt_pn6_7_s3:Z pgm_pn6_7_s3:1 1.059322e+01
2 pgm_pn6_7_s3:1 vs_51_6:A 1.000000e-03
*END

*D_NET pgm_pn6_8_s0 8.976557e-04
*CONN
*I lt_pn6_8_s0:Z O
*I vs_10_6:A I
*CAP
1 pgm_pn6_8_s0:1 8.976557e-04
*RES
1 lt_pn6_8_s0:Z pgm_pn6_8_s0:1 1.018644e+00
2 pgm_pn6_8_s0:1 vs_10_6:A 1.000000e-03
*END

*D_NET pgm_pn6_8_s2 6.470231e-03
*CONN
*I lt_pn6_8_s2:Z O
*I vs_46_6:A I
*I vs_44_6:A I
*CAP
1 pgm_pn6_8_s2:1 6.470231e-03
*RES
1 lt_pn6_8_s2:Z pgm_pn6_8_s2:1 7.342302e+00
2 pgm_pn6_8_s2:1 vs_46_6:A 1.000000e-03
3 pgm_pn6_8_s2:1 vs_44_6:A 1.000000e-03
*END

*D_NET pgm_pn6_8_s3 2.142820e-02
*CONN
*I lt_pn6_8_s3:Z O
*I vs_63_6:A I
*I vs_48_6:A I
*CAP
1 pgm_pn6_8_s3:1 2.142820e-02
*RES
1 lt_pn6_8_s3:Z pgm_pn6_8_s3:1 2.431633e+01
2 pgm_pn6_8_s3:1 vs_63_6:A 1.000000e-03
3 pgm_pn6_8_s3:1 vs_48_6:A 1.000000e-03
*END

*D_NET pgm_pn6_9_s0 1.335818e-02
*CONN
*I lt_pn6_9_s0:Z O
*I vs_2_6:A I
*CAP
1 pgm_pn6_9_s0:1 1.335818e-02
*RES
1 lt_pn6_9_s0:Z pgm_pn6_9_s0:1 1.515863e+01
2 pgm_pn6_9_s0:1 vs_2_6:A 1.000000e-03
*END

*D_NET pgm_pn6_9_s1 9.551293e-03
*CONN
*I lt_pn6_9_s1:Z O
*I vs_21_6:A I
*CAP
1 pgm_pn6_9_s1:1 9.551293e-03
*RES
1 lt_pn6_9_s1:Z pgm_pn6_9_s1:1 1.083864e+01
2 pgm_pn6_9_s1:1 vs_21_6:A 1.000000e-03
*END

*D_NET pgm_pn6_9_s2 9.074321e-03
*CONN
*I lt_pn6_9_s2:Z O
*I vs_38_6:A I
*CAP
1 pgm_pn6_9_s2:1 9.074321e-03
*RES
1 lt_pn6_9_s2:Z pgm_pn6_9_s2:1 1.029738e+01
2 pgm_pn6_9_s2:1 vs_38_6:A 1.000000e-03
*END

*D_NET pgm_pn6_9_s3 1.535780e-02
*CONN
*I lt_pn6_9_s3:Z O
*I vs_52_6:A I
*CAP
1 pgm_pn6_9_s3:1 1.535780e-02
*RES
1 lt_pn6_9_s3:Z pgm_pn6_9_s3:1 1.356352e+01
2 pgm_pn6_9_s3:1 vs_52_6:A 1.000000e-03
*END

*D_NET pgm_pn7_0_s0 1.853262e-02
*CONN
*I lt_pn7_0_s0:Z O
*I vs_12_7:A I
*I vs_9_7:A I
*CAP
1 pgm_pn7_0_s0:1 1.853262e-02
*RES
1 lt_pn7_0_s0:Z pgm_pn7_0_s0:1 1.873841e+01
2 pgm_pn7_0_s0:1 vs_12_7:A 1.000000e-03
3 pgm_pn7_0_s0:1 vs_9_7:A 1.000000e-03
*END

*D_NET pgm_pn7_10_s3 2.621866e-03
*CONN
*I lt_pn7_10_s3:Z O
*I vs_61_7:A I
*I vs_60_7:A I
*CAP
1 pgm_pn7_10_s3:1 2.621866e-03
*RES
1 lt_pn7_10_s3:Z pgm_pn7_10_s3:1 2.975246e+00
2 pgm_pn7_10_s3:1 vs_61_7:A 1.000000e-03
3 pgm_pn7_10_s3:1 vs_60_7:A 1.000000e-03
*END

*D_NET pgm_pn7_11_s0 9.248532e-03
*CONN
*I lt_pn7_11_s0:Z O
*I vs_8_7:A I
*CAP
1 pgm_pn7_11_s0:1 9.248532e-03
*RES
1 lt_pn7_11_s0:Z pgm_pn7_11_s0:1 9.354833e+00
2 pgm_pn7_11_s0:1 vs_8_7:A 1.000000e-03
*END

*D_NET pgm_pn7_12_s0 1.266007e-02
*CONN
*I lt_pn7_12_s0:Z O
*I vs_7_7:A I
*CAP
1 pgm_pn7_12_s0:1 1.266007e-02
*RES
1 lt_pn7_12_s0:Z pgm_pn7_12_s0:1 1.279425e+01
2 pgm_pn7_12_s0:1 vs_7_7:A 1.000000e-03
*END

*D_NET pgm_pn7_12_s3 2.326221e-03
*CONN
*I lt_pn7_12_s3:Z O
*I vs_63_7:A I
*CAP
1 pgm_pn7_12_s3:1 2.326221e-03
*RES
1 lt_pn7_12_s3:Z pgm_pn7_12_s3:1 9.236005e-01
2 pgm_pn7_12_s3:1 vs_63_7:A 1.000000e-03
*END

*D_NET pgm_pn7_1_s0 2.168594e-03
*CONN
*I lt_pn7_1_s0:Z O
*I vs_1_7:A I
*CAP
1 pgm_pn7_1_s0:1 2.168594e-03
*RES
1 lt_pn7_1_s0:Z pgm_pn7_1_s0:1 2.460882e+00
2 pgm_pn7_1_s0:1 vs_1_7:A 1.000000e-03
*END

*D_NET pgm_pn7_1_s1 1.897407e-02
*CONN
*I lt_pn7_1_s1:Z O
*I vs_28_7:A I
*CAP
1 pgm_pn7_1_s1:1 1.897407e-02
*RES
1 lt_pn7_1_s1:Z pgm_pn7_1_s1:1 1.637137e+01
2 pgm_pn7_1_s1:1 vs_28_7:A 1.000000e-03
*END

*D_NET pgm_pn7_1_s2 1.289708e-02
*CONN
*I lt_pn7_1_s2:Z O
*I vs_42_7:A I
*I vs_41_7:A I
*CAP
1 pgm_pn7_1_s2:1 1.289708e-02
*RES
1 lt_pn7_1_s2:Z pgm_pn7_1_s2:1 1.306320e+01
2 pgm_pn7_1_s2:1 vs_42_7:A 1.000000e-03
3 pgm_pn7_1_s2:1 vs_41_7:A 1.000000e-03
*END

*D_NET pgm_pn7_2_s0 3.475083e-03
*CONN
*I lt_pn7_2_s0:Z O
*I vs_2_7:A I
*CAP
1 pgm_pn7_2_s0:1 3.475083e-03
*RES
1 lt_pn7_2_s0:Z pgm_pn7_2_s0:1 3.943462e+00
2 pgm_pn7_2_s0:1 vs_2_7:A 1.000000e-03
*END

*D_NET pgm_pn7_2_s2 1.593857e-03
*CONN
*I lt_pn7_2_s2:Z O
*I vs_35_7:A I
*CAP
1 pgm_pn7_2_s2:1 1.593857e-03
*RES
1 lt_pn7_2_s2:Z pgm_pn7_2_s2:1 1.808681e+00
2 pgm_pn7_2_s2:1 vs_35_7:A 1.000000e-03
*END

*D_NET pgm_pn7_3_s0 1.268864e-02
*CONN
*I lt_pn7_3_s0:Z O
*I vs_13_7:A I
*CAP
1 pgm_pn7_3_s0:1 1.268864e-02
*RES
1 lt_pn7_3_s0:Z pgm_pn7_3_s0:1 1.439885e+01
2 pgm_pn7_3_s0:1 vs_13_7:A 1.000000e-03
*END

*D_NET pgm_pn7_3_s2 1.102665e-02
*CONN
*I lt_pn7_3_s2:Z O
*I vs_44_7:A I
*CAP
1 pgm_pn7_3_s2:1 1.102665e-02
*RES
1 lt_pn7_3_s2:Z pgm_pn7_3_s2:1 1.251284e+01
2 pgm_pn7_3_s2:1 vs_44_7:A 1.000000e-03
*END

*D_NET pgm_pn7_4_s1 8.875830e-03
*CONN
*I lt_pn7_4_s1:Z O
*I vs_24_7:A I
*I vs_18_7:A I
*CAP
1 pgm_pn7_4_s1:1 8.875830e-03
*RES
1 lt_pn7_4_s1:Z pgm_pn7_4_s1:1 1.007213e+01
2 pgm_pn7_4_s1:1 vs_24_7:A 1.000000e-03
3 pgm_pn7_4_s1:1 vs_18_7:A 1.000000e-03
*END

*D_NET pgm_pn7_4_s3 5.193368e-03
*CONN
*I lt_pn7_4_s3:Z O
*I vs_57_7:A I
*CAP
1 pgm_pn7_4_s3:1 5.193368e-03
*RES
1 lt_pn7_4_s3:Z pgm_pn7_4_s3:1 5.893341e+00
2 pgm_pn7_4_s3:1 vs_57_7:A 1.000000e-03
*END

*D_NET pgm_pn7_5_s0 1.278048e-02
*CONN
*I lt_pn7_5_s0:Z O
*I vs_15_7:A I
*I vs_11_7:A I
*CAP
1 pgm_pn7_5_s0:1 1.278048e-02
*RES
1 lt_pn7_5_s0:Z pgm_pn7_5_s0:1 1.450306e+01
2 pgm_pn7_5_s0:1 vs_15_7:A 1.000000e-03
3 pgm_pn7_5_s0:1 vs_11_7:A 1.000000e-03
*END

*D_NET pgm_pn7_5_s1 1.415320e-02
*CONN
*I lt_pn7_5_s1:Z O
*I vs_31_7:A I
*CAP
1 pgm_pn7_5_s1:1 1.415320e-02
*RES
1 lt_pn7_5_s1:Z pgm_pn7_5_s1:1 1.448863e+01
2 pgm_pn7_5_s1:1 vs_31_7:A 1.000000e-03
*END

*D_NET pgm_pn7_5_s2 8.917306e-03
*CONN
*I lt_pn7_5_s2:Z O
*I vs_33_7:A I
*CAP
1 pgm_pn7_5_s2:1 8.917306e-03
*RES
1 lt_pn7_5_s2:Z pgm_pn7_5_s2:1 1.011920e+01
2 pgm_pn7_5_s2:1 vs_33_7:A 1.000000e-03
*END

*D_NET pgm_pn7_5_s3 9.924576e-04
*CONN
*I lt_pn7_5_s3:Z O
*I vs_54_7:A I
*CAP
1 pgm_pn7_5_s3:1 9.924576e-04
*RES
1 lt_pn7_5_s3:Z pgm_pn7_5_s3:1 1.126223e+00
2 pgm_pn7_5_s3:1 vs_54_7:A 1.000000e-03
*END

*D_NET pgm_pn7_6_s2 6.096948e-03
*CONN
*I lt_pn7_6_s2:Z O
*I vs_37_7:A I
*CAP
1 pgm_pn7_6_s2:1 6.096948e-03
*RES
1 lt_pn7_6_s2:Z pgm_pn7_6_s2:1 6.918708e+00
2 pgm_pn7_6_s2:1 vs_37_7:A 1.000000e-03
*END

*D_NET pgm_pn7_7_s2 2.219550e-02
*CONN
*I lt_pn7_7_s2:Z O
*I vs_47_7:A I
*I vs_32_7:A I
*CAP
1 pgm_pn7_7_s2:1 2.219550e-02
*RES
1 lt_pn7_7_s2:Z pgm_pn7_7_s2:1 2.518706e+01
2 pgm_pn7_7_s2:1 vs_47_7:A 1.000000e-03
3 pgm_pn7_7_s2:1 vs_32_7:A 1.000000e-03
*END

*D_NET pgm_pn7_7_s3 9.063593e-03
*CONN
*I lt_pn7_7_s3:Z O
*I vs_56_7:A I
*I vs_51_7:A I
*CAP
1 pgm_pn7_7_s3:1 9.063593e-03
*RES
1 lt_pn7_7_s3:Z pgm_pn7_7_s3:1 8.944649e+00
2 pgm_pn7_7_s3:1 vs_56_7:A 1.000000e-03
3 pgm_pn7_7_s3:1 vs_51_7:A 1.000000e-03
*END

*D_NET pgm_pn7_8_s0 7.276047e-03
*CONN
*I lt_pn7_8_s0:Z O
*I vs_6_7:A I
*CAP
1 pgm_pn7_8_s0:1 7.276047e-03
*RES
1 lt_pn7_8_s0:Z pgm_pn7_8_s0:1 8.256728e+00
2 pgm_pn7_8_s0:1 vs_6_7:A 1.000000e-03
*END

*D_NET pgm_pn7_8_s1 6.781300e-03
*CONN
*I lt_pn7_8_s1:Z O
*I vs_22_7:A I
*CAP
1 pgm_pn7_8_s1:1 6.781300e-03
*RES
1 lt_pn7_8_s1:Z pgm_pn7_8_s1:1 7.695298e+00
2 pgm_pn7_8_s1:1 vs_22_7:A 1.000000e-03
*END

*D_NET pgm_pn7_9_s1 9.960127e-03
*CONN
*I lt_pn7_9_s1:Z O
*I vs_21_7:A I
*CAP
1 pgm_pn7_9_s1:1 9.960127e-03
*RES
1 lt_pn7_9_s1:Z pgm_pn7_9_s1:1 1.130257e+01
2 pgm_pn7_9_s1:1 vs_21_7:A 1.000000e-03
*END

*D_NET pgm_pn7_9_s3 6.997567e-03
*CONN
*I lt_pn7_9_s3:Z O
*I vs_55_7:A I
*CAP
1 pgm_pn7_9_s3:1 6.997567e-03
*RES
1 lt_pn7_9_s3:Z pgm_pn7_9_s3:1 7.940713e+00
2 pgm_pn7_9_s3:1 vs_55_7:A 1.000000e-03
*END

*D_NET pgm_pn8_0_s0 7.830657e-03
*CONN
*I lt_pn8_0_s0:Z O
*I vs_5_8:A I
*CAP
1 pgm_pn8_0_s0:1 7.830657e-03
*RES
1 lt_pn8_0_s0:Z pgm_pn8_0_s0:1 7.169936e+00
2 pgm_pn8_0_s0:1 vs_5_8:A 1.000000e-03
*END

*D_NET pgm_pn8_0_s2 1.730074e-02
*CONN
*I lt_pn8_0_s2:Z O
*I vs_43_8:A I
*I vs_34_8:A I
*CAP
1 pgm_pn8_0_s2:1 1.730074e-02
*RES
1 lt_pn8_0_s2:Z pgm_pn8_0_s2:1 1.810421e+01
2 pgm_pn8_0_s2:1 vs_43_8:A 1.000000e-03
3 pgm_pn8_0_s2:1 vs_34_8:A 1.000000e-03
*END

*D_NET pgm_pn8_10_s0 2.167571e-03
*CONN
*I lt_pn8_10_s0:Z O
*I vs_12_8:A I
*CAP
1 pgm_pn8_10_s0:1 2.167571e-03
*RES
1 lt_pn8_10_s0:Z pgm_pn8_10_s0:1 1.175506e+00
2 pgm_pn8_10_s0:1 vs_12_8:A 1.000000e-03
*END

*D_NET pgm_pn8_11_s2 1.804792e-02
*CONN
*I lt_pn8_11_s2:Z O
*I vs_42_8:A I
*I vs_37_8:A I
*I vs_35_8:A I
*CAP
1 pgm_pn8_11_s2:1 1.804792e-02
*RES
1 lt_pn8_11_s2:Z pgm_pn8_11_s2:1 2.048045e+01
2 pgm_pn8_11_s2:1 vs_42_8:A 1.000000e-03
3 pgm_pn8_11_s2:1 vs_37_8:A 1.000000e-03
4 pgm_pn8_11_s2:1 vs_35_8:A 1.000000e-03
*END

*D_NET pgm_pn8_12_s0 1.733070e-02
*CONN
*I lt_pn8_12_s0:Z O
*I vs_4_8:A I
*CAP
1 pgm_pn8_12_s0:1 1.733070e-02
*RES
1 lt_pn8_12_s0:Z pgm_pn8_12_s0:1 1.766246e+01
2 pgm_pn8_12_s0:1 vs_4_8:A 1.000000e-03
*END

*D_NET pgm_pn8_1_s0 1.895446e-02
*CONN
*I lt_pn8_1_s0:Z O
*I vs_15_8:A I
*CAP
1 pgm_pn8_1_s0:1 1.895446e-02
*RES
1 lt_pn8_1_s0:Z pgm_pn8_1_s0:1 2.150918e+01
2 pgm_pn8_1_s0:1 vs_15_8:A 1.000000e-03
*END

*D_NET pgm_pn8_1_s2 1.938256e-02
*CONN
*I lt_pn8_1_s2:Z O
*I vs_47_8:A I
*I vs_45_8:A I
*CAP
1 pgm_pn8_1_s2:1 1.938256e-02
*RES
1 lt_pn8_1_s2:Z pgm_pn8_1_s2:1 2.056679e+01
2 pgm_pn8_1_s2:1 vs_47_8:A 1.000000e-03
3 pgm_pn8_1_s2:1 vs_45_8:A 1.000000e-03
*END

*D_NET pgm_pn8_2_s1 3.184752e-03
*CONN
*I lt_pn8_2_s1:Z O
*I vs_17_8:A I
*CAP
1 pgm_pn8_2_s1:1 3.184752e-03
*RES
1 lt_pn8_2_s1:Z pgm_pn8_2_s1:1 3.613999e+00
2 pgm_pn8_2_s1:1 vs_17_8:A 1.000000e-03
*END

*D_NET pgm_pn8_2_s2 1.250200e-02
*CONN
*I lt_pn8_2_s2:Z O
*I vs_44_8:A I
*CAP
1 pgm_pn8_2_s2:1 1.250200e-02
*RES
1 lt_pn8_2_s2:Z pgm_pn8_2_s2:1 1.418705e+01
2 pgm_pn8_2_s2:1 vs_44_8:A 1.000000e-03
*END

*D_NET pgm_pn8_2_s3 1.976028e-03
*CONN
*I lt_pn8_2_s3:Z O
*I vs_50_8:A I
*CAP
1 pgm_pn8_2_s3:1 1.976028e-03
*RES
1 lt_pn8_2_s3:Z pgm_pn8_2_s3:1 2.242361e+00
2 pgm_pn8_2_s3:1 vs_50_8:A 1.000000e-03
*END

*D_NET pgm_pn8_3_s0 2.156744e-03
*CONN
*I lt_pn8_3_s0:Z O
*I vs_3_8:A I
*CAP
1 pgm_pn8_3_s0:1 2.156744e-03
*RES
1 lt_pn8_3_s0:Z pgm_pn8_3_s0:1 2.447434e+00
2 pgm_pn8_3_s0:1 vs_3_8:A 1.000000e-03
*END

*D_NET pgm_pn8_4_s3 1.164286e-03
*CONN
*I lt_pn8_4_s3:Z O
*I vs_54_8:A I
*CAP
1 pgm_pn8_4_s3:1 1.164286e-03
*RES
1 lt_pn8_4_s3:Z pgm_pn8_4_s3:1 1.321211e+00
2 pgm_pn8_4_s3:1 vs_54_8:A 1.000000e-03
*END

*D_NET pgm_pn8_5_s0 8.292205e-03
*CONN
*I lt_pn8_5_s0:Z O
*I vs_1_8:A I
*CAP
1 pgm_pn8_5_s0:1 8.292205e-03
*RES
1 lt_pn8_5_s0:Z pgm_pn8_5_s0:1 9.409846e+00
2 pgm_pn8_5_s0:1 vs_1_8:A 1.000000e-03
*END

*D_NET pgm_pn8_5_s1 4.301637e-03
*CONN
*I lt_pn8_5_s1:Z O
*I vs_24_8:A I
*I vs_21_8:A I
*CAP
1 pgm_pn8_5_s1:1 4.301637e-03
*RES
1 lt_pn8_5_s1:Z pgm_pn8_5_s1:1 4.881421e+00
2 pgm_pn8_5_s1:1 vs_24_8:A 1.000000e-03
3 pgm_pn8_5_s1:1 vs_21_8:A 1.000000e-03
*END

*D_NET pgm_pn8_6_s0 1.184431e-02
*CONN
*I lt_pn8_6_s0:Z O
*I vs_0_8:A I
*CAP
1 pgm_pn8_6_s0:1 1.184431e-02
*RES
1 lt_pn8_6_s0:Z pgm_pn8_6_s0:1 1.344072e+01
2 pgm_pn8_6_s0:1 vs_0_8:A 1.000000e-03
*END

*D_NET pgm_pn8_6_s1 6.538370e-03
*CONN
*I lt_pn8_6_s1:Z O
*I vs_20_8:A I
*I vs_19_8:A I
*CAP
1 pgm_pn8_6_s1:1 6.538370e-03
*RES
1 lt_pn8_6_s1:Z pgm_pn8_6_s1:1 7.419625e+00
2 pgm_pn8_6_s1:1 vs_20_8:A 1.000000e-03
3 pgm_pn8_6_s1:1 vs_19_8:A 1.000000e-03
*END

*D_NET pgm_pn8_7_s3 4.088333e-04
*CONN
*I lt_pn8_7_s3:Z O
*I vs_57_8:A I
*CAP
1 pgm_pn8_7_s3:1 4.088333e-04
*RES
1 lt_pn8_7_s3:Z pgm_pn8_7_s3:1 4.639367e-01
2 pgm_pn8_7_s3:1 vs_57_8:A 1.000000e-03
*END

*D_NET pgm_pn8_8_s3 7.972554e-03
*CONN
*I lt_pn8_8_s3:Z O
*I vs_53_8:A I
*CAP
1 pgm_pn8_8_s3:1 7.972554e-03
*RES
1 lt_pn8_8_s3:Z pgm_pn8_8_s3:1 8.194835e+00
2 pgm_pn8_8_s3:1 vs_53_8:A 1.000000e-03
*END

*D_NET pgm_pn8_9_s3 1.795015e-02
*CONN
*I lt_pn8_9_s3:Z O
*I vs_48_8:A I
*CAP
1 pgm_pn8_9_s3:1 1.795015e-02
*RES
1 lt_pn8_9_s3:Z pgm_pn8_9_s3:1 2.036951e+01
2 pgm_pn8_9_s3:1 vs_48_8:A 1.000000e-03
*END

*D_NET pgm_pn9_0_s1 1.293219e-02
*CONN
*I lt_pn9_0_s1:Z O
*I vs_25_9:A I
*CAP
1 pgm_pn9_0_s1:1 1.293219e-02
*RES
1 lt_pn9_0_s1:Z pgm_pn9_0_s1:1 1.295906e+01
2 pgm_pn9_0_s1:1 vs_25_9:A 1.000000e-03
*END

*D_NET pgm_pn9_0_s2 2.958197e-02
*CONN
*I lt_pn9_0_s2:Z O
*I vs_47_9:A I
*CAP
1 pgm_pn9_0_s2:1 2.958197e-02
*RES
1 lt_pn9_0_s2:Z pgm_pn9_0_s2:1 2.384551e+01
2 pgm_pn9_0_s2:1 vs_47_9:A 1.000000e-03
*END

*D_NET pgm_pn9_10_s0 3.977252e-03
*CONN
*I lt_pn9_10_s0:Z O
*I vs_11_9:A I
*CAP
1 pgm_pn9_10_s0:1 3.977252e-03
*RES
1 lt_pn9_10_s0:Z pgm_pn9_10_s0:1 3.085120e+00
2 pgm_pn9_10_s0:1 vs_11_9:A 1.000000e-03
*END

*D_NET pgm_pn9_10_s1 1.769537e-02
*CONN
*I lt_pn9_10_s1:Z O
*I vs_16_9:A I
*CAP
1 pgm_pn9_10_s1:1 1.769537e-02
*RES
1 lt_pn9_10_s1:Z pgm_pn9_10_s1:1 2.008039e+01
2 pgm_pn9_10_s1:1 vs_16_9:A 1.000000e-03
*END

*D_NET pgm_pn9_11_s1 9.759727e-03
*CONN
*I lt_pn9_11_s1:Z O
*I vs_27_9:A I
*I vs_24_9:A I
*CAP
1 pgm_pn9_11_s1:1 9.759727e-03
*RES
1 lt_pn9_11_s1:Z pgm_pn9_11_s1:1 9.502989e+00
2 pgm_pn9_11_s1:1 vs_27_9:A 1.000000e-03
3 pgm_pn9_11_s1:1 vs_24_9:A 1.000000e-03
*END

*D_NET pgm_pn9_12_s0 2.301317e-02
*CONN
*I lt_pn9_12_s0:Z O
*I vs_0_9:A I
*CAP
1 pgm_pn9_12_s0:1 2.301317e-02
*RES
1 lt_pn9_12_s0:Z pgm_pn9_12_s0:1 2.611493e+01
2 pgm_pn9_12_s0:1 vs_0_9:A 1.000000e-03
*END

*D_NET pgm_pn9_1_s0 1.579044e-03
*CONN
*I lt_pn9_1_s0:Z O
*I vs_2_9:A I
*CAP
1 pgm_pn9_1_s0:1 1.579044e-03
*RES
1 lt_pn9_1_s0:Z pgm_pn9_1_s0:1 1.791871e+00
2 pgm_pn9_1_s0:1 vs_2_9:A 1.000000e-03
*END

*D_NET pgm_pn9_2_s0 6.514669e-03
*CONN
*I lt_pn9_2_s0:Z O
*I vs_7_9:A I
*CAP
1 pgm_pn9_2_s0:1 6.514669e-03
*RES
1 lt_pn9_2_s0:Z pgm_pn9_2_s0:1 7.392730e+00
2 pgm_pn9_2_s0:1 vs_7_9:A 1.000000e-03
*END

*D_NET pgm_pn9_2_s1 1.066212e-02
*CONN
*I lt_pn9_2_s1:Z O
*I vs_26_9:A I
*CAP
1 pgm_pn9_2_s1:1 1.066212e-02
*RES
1 lt_pn9_2_s1:Z pgm_pn9_2_s1:1 1.110292e+01
2 pgm_pn9_2_s1:1 vs_26_9:A 1.000000e-03
*END

*D_NET pgm_pn9_3_s2 3.552109e-03
*CONN
*I lt_pn9_3_s2:Z O
*I vs_34_9:A I
*CAP
1 pgm_pn9_3_s2:1 3.552109e-03
*RES
1 lt_pn9_3_s2:Z pgm_pn9_3_s2:1 4.030870e+00
2 pgm_pn9_3_s2:1 vs_34_9:A 1.000000e-03
*END

*D_NET pgm_pn9_3_s3 1.917607e-02
*CONN
*I lt_pn9_3_s3:Z O
*I vs_63_9:A I
*I vs_62_9:A I
*I vs_52_9:A I
*CAP
1 pgm_pn9_3_s3:1 1.917607e-02
*RES
1 lt_pn9_3_s3:Z pgm_pn9_3_s3:1 2.062043e+01
2 pgm_pn9_3_s3:1 vs_63_9:A 1.000000e-03
3 pgm_pn9_3_s3:1 vs_62_9:A 1.000000e-03
4 pgm_pn9_3_s3:1 vs_52_9:A 1.000000e-03
*END

*D_NET pgm_pn9_4_s1 2.020466e-03
*CONN
*I lt_pn9_4_s1:Z O
*I vs_20_9:A I
*CAP
1 pgm_pn9_4_s1:1 2.020466e-03
*RES
1 lt_pn9_4_s1:Z pgm_pn9_4_s1:1 2.292789e+00
2 pgm_pn9_4_s1:1 vs_20_9:A 1.000000e-03
*END

*D_NET pgm_pn9_4_s3 4.882299e-03
*CONN
*I lt_pn9_4_s3:Z O
*I vs_56_9:A I
*CAP
1 pgm_pn9_4_s3:1 4.882299e-03
*RES
1 lt_pn9_4_s3:Z pgm_pn9_4_s3:1 5.540345e+00
2 pgm_pn9_4_s3:1 vs_56_9:A 1.000000e-03
*END

*D_NET pgm_pn9_5_s1 7.883372e-03
*CONN
*I lt_pn9_5_s1:Z O
*I vs_28_9:A I
*CAP
1 pgm_pn9_5_s1:1 7.883372e-03
*RES
1 lt_pn9_5_s1:Z pgm_pn9_5_s1:1 8.945909e+00
2 pgm_pn9_5_s1:1 vs_28_9:A 1.000000e-03
*END

*D_NET pgm_pn9_6_s2 1.170211e-02
*CONN
*I lt_pn9_6_s2:Z O
*I vs_32_9:A I
*CAP
1 pgm_pn9_6_s2:1 1.170211e-02
*RES
1 lt_pn9_6_s2:Z pgm_pn9_6_s2:1 1.327935e+01
2 pgm_pn9_6_s2:1 vs_32_9:A 1.000000e-03
*END

*D_NET pgm_pn9_7_s0 4.983026e-03
*CONN
*I lt_pn9_7_s0:Z O
*I vs_12_9:A I
*CAP
1 pgm_pn9_7_s0:1 4.983026e-03
*RES
1 lt_pn9_7_s0:Z pgm_pn9_7_s0:1 5.654649e+00
2 pgm_pn9_7_s0:1 vs_12_9:A 1.000000e-03
*END

*D_NET pgm_pn9_7_s2 6.855364e-03
*CONN
*I lt_pn9_7_s2:Z O
*I vs_46_9:A I
*CAP
1 pgm_pn9_7_s2:1 6.855364e-03
*RES
1 lt_pn9_7_s2:Z pgm_pn9_7_s2:1 7.779344e+00
2 pgm_pn9_7_s2:1 vs_46_9:A 1.000000e-03
*END

*D_NET pgm_pn9_7_s3 1.044302e-02
*CONN
*I lt_pn9_7_s3:Z O
*I vs_50_9:A I
*CAP
1 pgm_pn9_7_s3:1 1.044302e-02
*RES
1 lt_pn9_7_s3:Z pgm_pn9_7_s3:1 1.185056e+01
2 pgm_pn9_7_s3:1 vs_50_9:A 1.000000e-03
*END

*D_NET pgm_pn9_8_s1 1.358630e-02
*CONN
*I lt_pn9_8_s1:Z O
*I vs_17_9:A I
*CAP
1 pgm_pn9_8_s1:1 1.358630e-02
*RES
1 lt_pn9_8_s1:Z pgm_pn9_8_s1:1 1.541749e+01
2 pgm_pn9_8_s1:1 vs_17_9:A 1.000000e-03
*END

*D_NET pgm_pn9_8_s2 1.209998e-02
*CONN
*I lt_pn9_8_s2:Z O
*I vs_35_9:A I
*CAP
1 pgm_pn9_8_s2:1 1.209998e-02
*RES
1 lt_pn9_8_s2:Z pgm_pn9_8_s2:1 1.077429e+01
2 pgm_pn9_8_s2:1 vs_35_9:A 1.000000e-03
*END

*D_NET pgm_pn9_9_s0 1.089630e-02
*CONN
*I lt_pn9_9_s0:Z O
*I vs_4_9:A I
*CAP
1 pgm_pn9_9_s0:1 1.089630e-02
*RES
1 lt_pn9_9_s0:Z pgm_pn9_9_s0:1 1.236492e+01
2 pgm_pn9_9_s0:1 vs_4_9:A 1.000000e-03
*END

*D_NET pgm_pn9_9_s3 2.723647e-03
*CONN
*I lt_pn9_9_s3:Z O
*I vs_59_9:A I
*CAP
1 pgm_pn9_9_s3:1 2.723647e-03
*RES
1 lt_pn9_9_s3:Z pgm_pn9_9_s3:1 1.518572e+00
2 pgm_pn9_9_s3:1 vs_59_9:A 1.000000e-03
*END

*D_NET pgm_pp0_0_s0 1.105627e-02
*CONN
*I lt_pp0_0_s0:Z O
*I vs_6_0:A I
*I vs_0_0:A I
*CAP
1 pgm_pp0_0_s0:1 1.105627e-02
*RES
1 lt_pp0_0_s0:Z pgm_pp0_0_s0:1 1.254646e+01
2 pgm_pp0_0_s0:1 vs_6_0:A 1.000000e-03
3 pgm_pp0_0_s0:1 vs_0_0:A 1.000000e-03
*END

*D_NET pgm_pp0_0_s1 2.045024e-02
*CONN
*I lt_pp0_0_s1:Z O
*I vs_27_0:A I
*I vs_23_0:A I
*I vs_17_0:A I
*CAP
1 pgm_pp0_0_s1:1 2.045024e-02
*RES
1 lt_pp0_0_s1:Z pgm_pp0_0_s1:1 2.082594e+01
2 pgm_pp0_0_s1:1 vs_27_0:A 1.000000e-03
3 pgm_pp0_0_s1:1 vs_23_0:A 1.000000e-03
4 pgm_pp0_0_s1:1 vs_17_0:A 1.000000e-03
*END

*D_NET pgm_pp0_11_s3 1.042378e-02
*CONN
*I lt_pp0_11_s3:Z O
*I vs_55_0:A I
*CAP
1 pgm_pp0_11_s3:1 1.042378e-02
*RES
1 lt_pp0_11_s3:Z pgm_pp0_11_s3:1 1.040053e+01
2 pgm_pp0_11_s3:1 vs_55_0:A 1.000000e-03
*END

*D_NET pgm_pp0_1_s1 2.571502e-03
*CONN
*I lt_pp0_1_s1:Z O
*I vs_18_0:A I
*CAP
1 pgm_pp0_1_s1:1 2.571502e-03
*RES
1 lt_pp0_1_s1:Z pgm_pp0_1_s1:1 2.918094e+00
2 pgm_pp0_1_s1:1 vs_18_0:A 1.000000e-03
*END

*D_NET pgm_pp0_2_s0 1.837083e-02
*CONN
*I lt_pp0_2_s0:Z O
*I vs_15_0:A I
*CAP
1 pgm_pp0_2_s0:1 1.837083e-02
*RES
1 lt_pp0_2_s0:Z pgm_pp0_2_s0:1 2.084689e+01
2 pgm_pp0_2_s0:1 vs_15_0:A 1.000000e-03
*END

*D_NET pgm_pp0_2_s1 1.519201e-02
*CONN
*I lt_pp0_2_s1:Z O
*I vs_29_0:A I
*CAP
1 pgm_pp0_2_s1:1 1.519201e-02
*RES
1 lt_pp0_2_s1:Z pgm_pp0_2_s1:1 1.723962e+01
2 pgm_pp0_2_s1:1 vs_29_0:A 1.000000e-03
*END

*D_NET pgm_pp0_2_s3 3.846457e-03
*CONN
*I lt_pp0_2_s3:Z O
*I vs_52_0:A I
*CAP
1 pgm_pp0_2_s3:1 3.846457e-03
*RES
1 lt_pp0_2_s3:Z pgm_pp0_2_s3:1 2.792717e+00
2 pgm_pp0_2_s3:1 vs_52_0:A 1.000000e-03
*END

*D_NET pgm_pp0_3_s1 1.226772e-02
*CONN
*I lt_pp0_3_s1:Z O
*I vs_28_0:A I
*CAP
1 pgm_pp0_3_s1:1 1.226772e-02
*RES
1 lt_pp0_3_s1:Z pgm_pp0_3_s1:1 1.176058e+01
2 pgm_pp0_3_s1:1 vs_28_0:A 1.000000e-03
*END

*D_NET pgm_pp0_3_s3 5.489624e-03
*CONN
*I lt_pp0_3_s3:Z O
*I vs_54_0:A I
*CAP
1 pgm_pp0_3_s3:1 5.489624e-03
*RES
1 lt_pp0_3_s3:Z pgm_pp0_3_s3:1 6.229527e+00
2 pgm_pp0_3_s3:1 vs_54_0:A 1.000000e-03
*END

*D_NET pgm_pp0_4_s0 8.292205e-03
*CONN
*I lt_pp0_4_s0:Z O
*I vs_10_0:A I
*CAP
1 pgm_pp0_4_s0:1 8.292205e-03
*RES
1 lt_pp0_4_s0:Z pgm_pp0_4_s0:1 9.409846e+00
2 pgm_pp0_4_s0:1 vs_10_0:A 1.000000e-03
*END

*D_NET pgm_pp0_4_s2 2.205922e-02
*CONN
*I lt_pp0_4_s2:Z O
*I vs_47_0:A I
*I vs_32_0:A I
*CAP
1 pgm_pp0_4_s2:1 2.205922e-02
*RES
1 lt_pp0_4_s2:Z pgm_pp0_4_s2:1 2.503241e+01
2 pgm_pp0_4_s2:1 vs_47_0:A 1.000000e-03
3 pgm_pp0_4_s2:1 vs_32_0:A 1.000000e-03
*END

*D_NET pgm_pp0_5_s0 4.710470e-03
*CONN
*I lt_pp0_5_s0:Z O
*I vs_9_0:A I
*CAP
1 pgm_pp0_5_s0:1 4.710470e-03
*RES
1 lt_pp0_5_s0:Z pgm_pp0_5_s0:1 5.345357e+00
2 pgm_pp0_5_s0:1 vs_9_0:A 1.000000e-03
*END

*D_NET pgm_pp0_5_s1 2.775919e-03
*CONN
*I lt_pp0_5_s1:Z O
*I vs_20_0:A I
*CAP
1 pgm_pp0_5_s1:1 2.775919e-03
*RES
1 lt_pp0_5_s1:Z pgm_pp0_5_s1:1 3.150063e+00
2 pgm_pp0_5_s1:1 vs_20_0:A 1.000000e-03
*END

*D_NET pgm_pp0_5_s2 1.747910e-03
*CONN
*I lt_pp0_5_s2:Z O
*I vs_37_0:A I
*CAP
1 pgm_pp0_5_s2:1 1.747910e-03
*RES
1 lt_pp0_5_s2:Z pgm_pp0_5_s2:1 1.983497e+00
2 pgm_pp0_5_s2:1 vs_37_0:A 1.000000e-03
*END

*D_NET pgm_pp0_5_s3 1.835306e-02
*CONN
*I lt_pp0_5_s3:Z O
*I vs_62_0:A I
*I vs_50_0:A I
*CAP
1 pgm_pp0_5_s3:1 1.835306e-02
*RES
1 lt_pp0_5_s3:Z pgm_pp0_5_s3:1 2.082672e+01
2 pgm_pp0_5_s3:1 vs_62_0:A 1.000000e-03
3 pgm_pp0_5_s3:1 vs_50_0:A 1.000000e-03
*END

*D_NET pgm_pp0_6_s0 1.158361e-03
*CONN
*I lt_pp0_6_s0:Z O
*I vs_8_0:A I
*CAP
1 pgm_pp0_6_s0:1 1.158361e-03
*RES
1 lt_pp0_6_s0:Z pgm_pp0_6_s0:1 1.314487e+00
2 pgm_pp0_6_s0:1 vs_8_0:A 1.000000e-03
*END

*D_NET pgm_pp0_6_s2 1.176433e-02
*CONN
*I lt_pp0_6_s2:Z O
*I vs_33_0:A I
*CAP
1 pgm_pp0_6_s2:1 1.176433e-02
*RES
1 lt_pp0_6_s2:Z pgm_pp0_6_s2:1 1.334995e+01
2 pgm_pp0_6_s2:1 vs_33_0:A 1.000000e-03
*END

*D_NET pgm_pp0_7_s3 1.044786e-02
*CONN
*I lt_pp0_7_s3:Z O
*I vs_63_0:A I
*CAP
1 pgm_pp0_7_s3:1 1.044786e-02
*RES
1 lt_pp0_7_s3:Z pgm_pp0_7_s3:1 9.795589e+00
2 pgm_pp0_7_s3:1 vs_63_0:A 1.000000e-03
*END

*D_NET pgm_pp0_8_s0 1.343521e-02
*CONN
*I lt_pp0_8_s0:Z O
*I vs_1_0:A I
*CAP
1 pgm_pp0_8_s0:1 1.343521e-02
*RES
1 lt_pp0_8_s0:Z pgm_pp0_8_s0:1 1.524604e+01
2 pgm_pp0_8_s0:1 vs_1_0:A 1.000000e-03
*END

*D_NET pgm_pp0_8_s1 2.207107e-03
*CONN
*I lt_pp0_8_s1:Z O
*I vs_25_0:A I
*CAP
1 pgm_pp0_8_s1:1 2.207107e-03
*RES
1 lt_pp0_8_s1:Z pgm_pp0_8_s1:1 2.504586e+00
2 pgm_pp0_8_s1:1 vs_25_0:A 1.000000e-03
*END

*D_NET pgm_pp0_8_s3 2.091271e-02
*CONN
*I lt_pp0_8_s3:Z O
*I vs_61_0:A I
*I vs_58_0:A I
*I vs_48_0:A I
*CAP
1 pgm_pp0_8_s3:1 2.091271e-02
*RES
1 lt_pp0_8_s3:Z pgm_pp0_8_s3:1 2.373137e+01
2 pgm_pp0_8_s3:1 vs_61_0:A 1.000000e-03
3 pgm_pp0_8_s3:1 vs_58_0:A 1.000000e-03
4 pgm_pp0_8_s3:1 vs_48_0:A 1.000000e-03
*END

*D_NET pgm_pp0_9_s0 2.293021e-03
*CONN
*I lt_pp0_9_s0:Z O
*I vs_12_0:A I
*CAP
1 pgm_pp0_9_s0:1 2.293021e-03
*RES
1 lt_pp0_9_s0:Z pgm_pp0_9_s0:1 2.602080e+00
2 pgm_pp0_9_s0:1 vs_12_0:A 1.000000e-03
*END

*D_NET pgm_pp0_9_s1 1.109631e-02
*CONN
*I lt_pp0_9_s1:Z O
*I vs_22_0:A I
*CAP
1 pgm_pp0_9_s1:1 1.109631e-02
*RES
1 lt_pp0_9_s1:Z pgm_pp0_9_s1:1 7.751098e+00
2 pgm_pp0_9_s1:1 vs_22_0:A 1.000000e-03
*END

*D_NET pgm_pp0_9_s2 1.890113e-03
*CONN
*I lt_pp0_9_s2:Z O
*I vs_44_0:A I
*CAP
1 pgm_pp0_9_s2:1 1.890113e-03
*RES
1 lt_pp0_9_s2:Z pgm_pp0_9_s2:1 2.144867e+00
2 pgm_pp0_9_s2:1 vs_44_0:A 1.000000e-03
*END

*D_NET pgm_pp0_9_s3 1.717100e-02
*CONN
*I lt_pp0_9_s3:Z O
*I vs_59_0:A I
*I vs_56_0:A I
*I vs_49_0:A I
*CAP
1 pgm_pp0_9_s3:1 1.717100e-02
*RES
1 lt_pp0_9_s3:Z pgm_pp0_9_s3:1 1.948534e+01
2 pgm_pp0_9_s3:1 vs_59_0:A 1.000000e-03
3 pgm_pp0_9_s3:1 vs_56_0:A 1.000000e-03
4 pgm_pp0_9_s3:1 vs_49_0:A 1.000000e-03
*END

*D_NET pgm_pp10_0_s1 9.404337e-03
*CONN
*I lt_pp10_0_s1:Z O
*I vs_21_10:A I
*CAP
1 pgm_pp10_0_s1:1 9.404337e-03
*RES
1 lt_pp10_0_s1:Z pgm_pp10_0_s1:1 8.007334e+00
2 pgm_pp10_0_s1:1 vs_21_10:A 1.000000e-03
*END

*D_NET pgm_pp10_0_s3 5.750329e-03
*CONN
*I lt_pp10_0_s3:Z O
*I vs_51_10:A I
*CAP
1 pgm_pp10_0_s3:1 5.750329e-03
*RES
1 lt_pp10_0_s3:Z pgm_pp10_0_s3:1 6.525370e+00
2 pgm_pp10_0_s3:1 vs_51_10:A 1.000000e-03
*END

*D_NET pgm_pp10_11_s0 1.882411e-02
*CONN
*I lt_pp10_11_s0:Z O
*I vs_0_10:A I
*CAP
1 pgm_pp10_11_s0:1 1.882411e-02
*RES
1 lt_pp10_11_s0:Z pgm_pp10_11_s0:1 2.136126e+01
2 pgm_pp10_11_s0:1 vs_0_10:A 1.000000e-03
*END

*D_NET pgm_pp10_11_s1 1.986396e-02
*CONN
*I lt_pp10_11_s1:Z O
*I vs_16_10:A I
*CAP
1 pgm_pp10_11_s1:1 1.986396e-02
*RES
1 lt_pp10_11_s1:Z pgm_pp10_11_s1:1 2.254127e+01
2 pgm_pp10_11_s1:1 vs_16_10:A 1.000000e-03
*END

*D_NET pgm_pp10_12_s2 5.261507e-03
*CONN
*I lt_pp10_12_s2:Z O
*I vs_44_10:A I
*CAP
1 pgm_pp10_12_s2:1 5.261507e-03
*RES
1 lt_pp10_12_s2:Z pgm_pp10_12_s2:1 5.970663e+00
2 pgm_pp10_12_s2:1 vs_44_10:A 1.000000e-03
*END

*D_NET pgm_pp10_1_s1 1.500056e-02
*CONN
*I lt_pp10_1_s1:Z O
*I vs_26_10:A I
*I vs_18_10:A I
*I vs_17_10:A I
*CAP
1 pgm_pp10_1_s1:1 1.500056e-02
*RES
1 lt_pp10_1_s1:Z pgm_pp10_1_s1:1 1.568182e+01
2 pgm_pp10_1_s1:1 vs_26_10:A 1.000000e-03
3 pgm_pp10_1_s1:1 vs_18_10:A 1.000000e-03
4 pgm_pp10_1_s1:1 vs_17_10:A 1.000000e-03
*END

*D_NET pgm_pp10_1_s2 1.629217e-02
*CONN
*I lt_pp10_1_s2:Z O
*I vs_42_10:A I
*I vs_36_10:A I
*CAP
1 pgm_pp10_1_s2:1 1.629217e-02
*RES
1 lt_pp10_1_s2:Z pgm_pp10_1_s2:1 1.691589e+01
2 pgm_pp10_1_s2:1 vs_42_10:A 1.000000e-03
3 pgm_pp10_1_s2:1 vs_36_10:A 1.000000e-03
*END

*D_NET pgm_pp10_1_s3 1.976620e-02
*CONN
*I lt_pp10_1_s3:Z O
*I vs_63_10:A I
*CAP
1 pgm_pp10_1_s3:1 1.976620e-02
*RES
1 lt_pp10_1_s3:Z pgm_pp10_1_s3:1 2.243033e+01
2 pgm_pp10_1_s3:1 vs_63_10:A 1.000000e-03
*END

*D_NET pgm_pp10_2_s0 2.005639e-02
*CONN
*I lt_pp10_2_s0:Z O
*I vs_14_10:A I
*I vs_6_10:A I
*CAP
1 pgm_pp10_2_s0:1 2.005639e-02
*RES
1 lt_pp10_2_s0:Z pgm_pp10_2_s0:1 1.795685e+01
2 pgm_pp10_2_s0:1 vs_14_10:A 1.000000e-03
3 pgm_pp10_2_s0:1 vs_6_10:A 1.000000e-03
*END

*D_NET pgm_pp10_2_s1 1.556825e-02
*CONN
*I lt_pp10_2_s1:Z O
*I vs_28_10:A I
*I vs_24_10:A I
*I vs_20_10:A I
*CAP
1 pgm_pp10_2_s1:1 1.556825e-02
*RES
1 lt_pp10_2_s1:Z pgm_pp10_2_s1:1 1.766657e+01
2 pgm_pp10_2_s1:1 vs_28_10:A 1.000000e-03
3 pgm_pp10_2_s1:1 vs_24_10:A 1.000000e-03
4 pgm_pp10_2_s1:1 vs_20_10:A 1.000000e-03
*END

*D_NET pgm_pp10_2_s2 2.025811e-03
*CONN
*I lt_pp10_2_s2:Z O
*I vs_35_10:A I
*CAP
1 pgm_pp10_2_s2:1 2.025811e-03
*RES
1 lt_pp10_2_s2:Z pgm_pp10_2_s2:1 1.158619e+00
2 pgm_pp10_2_s2:1 vs_35_10:A 1.000000e-03
*END

*D_NET pgm_pp10_3_s0 8.359321e-03
*CONN
*I lt_pp10_3_s0:Z O
*I vs_8_10:A I
*CAP
1 pgm_pp10_3_s0:1 8.359321e-03
*RES
1 lt_pp10_3_s0:Z pgm_pp10_3_s0:1 8.201793e+00
2 pgm_pp10_3_s0:1 vs_8_10:A 1.000000e-03
*END

*D_NET pgm_pp10_3_s1 1.426176e-02
*CONN
*I lt_pp10_3_s1:Z O
*I vs_29_10:A I
*CAP
1 pgm_pp10_3_s1:1 1.426176e-02
*RES
1 lt_pp10_3_s1:Z pgm_pp10_3_s1:1 1.618399e+01
2 pgm_pp10_3_s1:1 vs_29_10:A 1.000000e-03
*END

*D_NET pgm_pp10_4_s3 1.060835e-02
*CONN
*I lt_pp10_4_s3:Z O
*I vs_59_10:A I
*CAP
1 pgm_pp10_4_s3:1 1.060835e-02
*RES
1 lt_pp10_4_s3:Z pgm_pp10_4_s3:1 1.089793e+01
2 pgm_pp10_4_s3:1 vs_59_10:A 1.000000e-03
*END

*D_NET pgm_pp10_5_s0 8.298131e-03
*CONN
*I lt_pp10_5_s0:Z O
*I vs_11_10:A I
*CAP
1 pgm_pp10_5_s0:1 8.298131e-03
*RES
1 lt_pp10_5_s0:Z pgm_pp10_5_s0:1 9.416570e+00
2 pgm_pp10_5_s0:1 vs_11_10:A 1.000000e-03
*END

*D_NET pgm_pp10_5_s2 1.054375e-02
*CONN
*I lt_pp10_5_s2:Z O
*I vs_45_10:A I
*CAP
1 pgm_pp10_5_s2:1 1.054375e-02
*RES
1 lt_pp10_5_s2:Z pgm_pp10_5_s2:1 1.196486e+01
2 pgm_pp10_5_s2:1 vs_45_10:A 1.000000e-03
*END

*D_NET pgm_pp10_5_s3 8.008105e-03
*CONN
*I lt_pp10_5_s3:Z O
*I vs_58_10:A I
*CAP
1 pgm_pp10_5_s3:1 8.008105e-03
*RES
1 lt_pp10_5_s3:Z pgm_pp10_5_s3:1 8.235178e+00
2 pgm_pp10_5_s3:1 vs_58_10:A 1.000000e-03
*END

*D_NET pgm_pp10_6_s1 3.350655e-03
*CONN
*I lt_pp10_6_s1:Z O
*I vs_22_10:A I
*CAP
1 pgm_pp10_6_s1:1 3.350655e-03
*RES
1 lt_pp10_6_s1:Z pgm_pp10_6_s1:1 3.802264e+00
2 pgm_pp10_6_s1:1 vs_22_10:A 1.000000e-03
*END

*D_NET pgm_pp10_6_s2 8.671413e-03
*CONN
*I lt_pp10_6_s2:Z O
*I vs_38_10:A I
*I vs_34_10:A I
*CAP
1 pgm_pp10_6_s2:1 8.671413e-03
*RES
1 lt_pp10_6_s2:Z pgm_pp10_6_s2:1 9.840164e+00
2 pgm_pp10_6_s2:1 vs_38_10:A 1.000000e-03
3 pgm_pp10_6_s2:1 vs_34_10:A 1.000000e-03
*END

*D_NET pgm_pp10_7_s2 6.061398e-03
*CONN
*I lt_pp10_7_s2:Z O
*I vs_37_10:A I
*CAP
1 pgm_pp10_7_s2:1 6.061398e-03
*RES
1 lt_pp10_7_s2:Z pgm_pp10_7_s2:1 6.878366e+00
2 pgm_pp10_7_s2:1 vs_37_10:A 1.000000e-03
*END

*D_NET pgm_pp10_7_s3 6.452456e-03
*CONN
*I lt_pp10_7_s3:Z O
*I vs_61_10:A I
*CAP
1 pgm_pp10_7_s3:1 6.452456e-03
*RES
1 lt_pp10_7_s3:Z pgm_pp10_7_s3:1 7.322131e+00
2 pgm_pp10_7_s3:1 vs_61_10:A 1.000000e-03
*END

*D_NET pgm_pp10_8_s0 1.389117e-02
*CONN
*I lt_pp10_8_s0:Z O
*I vs_12_10:A I
*I vs_5_10:A I
*CAP
1 pgm_pp10_8_s0:1 1.389117e-02
*RES
1 lt_pp10_8_s0:Z pgm_pp10_8_s0:1 1.375934e+01
2 pgm_pp10_8_s0:1 vs_12_10:A 1.000000e-03
3 pgm_pp10_8_s0:1 vs_5_10:A 1.000000e-03
*END

*D_NET pgm_pp10_8_s3 2.859619e-03
*CONN
*I lt_pp10_8_s3:Z O
*I vs_56_10:A I
*CAP
1 pgm_pp10_8_s3:1 2.859619e-03
*RES
1 lt_pp10_8_s3:Z pgm_pp10_8_s3:1 2.536747e+00
2 pgm_pp10_8_s3:1 vs_56_10:A 1.000000e-03
*END

*D_NET pgm_pp10_9_s0 1.296120e-02
*CONN
*I lt_pp10_9_s0:Z O
*I vs_2_10:A I
*CAP
1 pgm_pp10_9_s0:1 1.296120e-02
*RES
1 lt_pp10_9_s0:Z pgm_pp10_9_s0:1 1.470814e+01
2 pgm_pp10_9_s0:1 vs_2_10:A 1.000000e-03
*END

*D_NET pgm_pp10_9_s2 3.098838e-03
*CONN
*I lt_pp10_9_s2:Z O
*I vs_41_10:A I
*CAP
1 pgm_pp10_9_s2:1 3.098838e-03
*RES
1 lt_pp10_9_s2:Z pgm_pp10_9_s2:1 3.516506e+00
2 pgm_pp10_9_s2:1 vs_41_10:A 1.000000e-03
*END

*D_NET pgm_pp11_0_s1 1.790884e-02
*CONN
*I lt_pp11_0_s1:Z O
*I vs_28_11:A I
*CAP
1 pgm_pp11_0_s1:1 1.790884e-02
*RES
1 lt_pp11_0_s1:Z pgm_pp11_0_s1:1 1.846250e+01
2 pgm_pp11_0_s1:1 vs_28_11:A 1.000000e-03
*END

*D_NET pgm_pp11_0_s3 1.790884e-02
*CONN
*I lt_pp11_0_s3:Z O
*I vs_60_11:A I
*CAP
1 pgm_pp11_0_s3:1 1.790884e-02
*RES
1 lt_pp11_0_s3:Z pgm_pp11_0_s3:1 1.846250e+01
2 pgm_pp11_0_s3:1 vs_60_11:A 1.000000e-03
*END

*D_NET pgm_pp11_10_s3 3.723938e-03
*CONN
*I lt_pp11_10_s3:Z O
*I vs_58_11:A I
*CAP
1 pgm_pp11_10_s3:1 3.723938e-03
*RES
1 lt_pp11_10_s3:Z pgm_pp11_10_s3:1 4.225858e+00
2 pgm_pp11_10_s3:1 vs_58_11:A 1.000000e-03
*END

*D_NET pgm_pp11_11_s1 7.666899e-03
*CONN
*I lt_pp11_11_s1:Z O
*I vs_25_11:A I
*CAP
1 pgm_pp11_11_s1:1 7.666899e-03
*RES
1 lt_pp11_11_s1:Z pgm_pp11_11_s1:1 6.927767e+00
2 pgm_pp11_11_s1:1 vs_25_11:A 1.000000e-03
*END

*D_NET pgm_pp11_12_s1 1.735410e-02
*CONN
*I lt_pp11_12_s1:Z O
*I vs_24_11:A I
*I vs_19_11:A I
*CAP
1 pgm_pp11_12_s1:1 1.735410e-02
*RES
1 lt_pp11_12_s1:Z pgm_pp11_12_s1:1 1.855288e+01
2 pgm_pp11_12_s1:1 vs_24_11:A 1.000000e-03
3 pgm_pp11_12_s1:1 vs_19_11:A 1.000000e-03
*END

*D_NET pgm_pp11_12_s2 1.670649e-02
*CONN
*I lt_pp11_12_s2:Z O
*I vs_44_11:A I
*I vs_39_11:A I
*I vs_36_11:A I
*CAP
1 pgm_pp11_12_s2:1 1.670649e-02
*RES
1 lt_pp11_12_s2:Z pgm_pp11_12_s2:1 1.724207e+01
2 pgm_pp11_12_s2:1 vs_44_11:A 1.000000e-03
3 pgm_pp11_12_s2:1 vs_39_11:A 1.000000e-03
4 pgm_pp11_12_s2:1 vs_36_11:A 1.000000e-03
*END

*D_NET pgm_pp11_12_s3 1.112710e-02
*CONN
*I lt_pp11_12_s3:Z O
*I vs_56_11:A I
*CAP
1 pgm_pp11_12_s3:1 1.112710e-02
*RES
1 lt_pp11_12_s3:Z pgm_pp11_12_s3:1 1.062272e+01
2 pgm_pp11_12_s3:1 vs_56_11:A 1.000000e-03
*END

*D_NET pgm_pp11_1_s1 2.707780e-03
*CONN
*I lt_pp11_1_s1:Z O
*I vs_18_11:A I
*CAP
1 pgm_pp11_1_s1:1 2.707780e-03
*RES
1 lt_pp11_1_s1:Z pgm_pp11_1_s1:1 3.072740e+00
2 pgm_pp11_1_s1:1 vs_18_11:A 1.000000e-03
*END

*D_NET pgm_pp11_2_s0 1.104340e-02
*CONN
*I lt_pp11_2_s0:Z O
*I vs_9_11:A I
*CAP
1 pgm_pp11_2_s0:1 1.104340e-02
*RES
1 lt_pp11_2_s0:Z pgm_pp11_2_s0:1 1.124764e+01
2 pgm_pp11_2_s0:1 vs_9_11:A 1.000000e-03
*END

*D_NET pgm_pp11_2_s2 6.194984e-03
*CONN
*I lt_pp11_2_s2:Z O
*I vs_38_11:A I
*CAP
1 pgm_pp11_2_s2:1 6.194984e-03
*RES
1 lt_pp11_2_s2:Z pgm_pp11_2_s2:1 5.789562e+00
2 pgm_pp11_2_s2:1 vs_38_11:A 1.000000e-03
*END

*D_NET pgm_pp11_2_s3 6.147312e-03
*CONN
*I lt_pp11_2_s3:Z O
*I vs_54_11:A I
*CAP
1 pgm_pp11_2_s3:1 6.147312e-03
*RES
1 lt_pp11_2_s3:Z pgm_pp11_2_s3:1 6.975859e+00
2 pgm_pp11_2_s3:1 vs_54_11:A 1.000000e-03
*END

*D_NET pgm_pp11_3_s1 2.968485e-03
*CONN
*I lt_pp11_3_s1:Z O
*I vs_21_11:A I
*CAP
1 pgm_pp11_3_s1:1 2.968485e-03
*RES
1 lt_pp11_3_s1:Z pgm_pp11_3_s1:1 3.368584e+00
2 pgm_pp11_3_s1:1 vs_21_11:A 1.000000e-03
*END

*D_NET pgm_pp11_3_s2 1.376702e-02
*CONN
*I lt_pp11_3_s2:Z O
*I vs_45_11:A I
*CAP
1 pgm_pp11_3_s2:1 1.376702e-02
*RES
1 lt_pp11_3_s2:Z pgm_pp11_3_s2:1 1.562256e+01
2 pgm_pp11_3_s2:1 vs_45_11:A 1.000000e-03
*END

*D_NET pgm_pp11_3_s3 2.968485e-03
*CONN
*I lt_pp11_3_s3:Z O
*I vs_50_11:A I
*CAP
1 pgm_pp11_3_s3:1 2.968485e-03
*RES
1 lt_pp11_3_s3:Z pgm_pp11_3_s3:1 3.368584e+00
2 pgm_pp11_3_s3:1 vs_50_11:A 1.000000e-03
*END

*D_NET pgm_pp11_4_s0 1.645998e-02
*CONN
*I lt_pp11_4_s0:Z O
*I vs_13_11:A I
*I vs_8_11:A I
*I vs_4_11:A I
*CAP
1 pgm_pp11_4_s0:1 1.645998e-02
*RES
1 lt_pp11_4_s0:Z pgm_pp11_4_s0:1 1.867849e+01
2 pgm_pp11_4_s0:1 vs_13_11:A 1.000000e-03
3 pgm_pp11_4_s0:1 vs_8_11:A 1.000000e-03
4 pgm_pp11_4_s0:1 vs_4_11:A 1.000000e-03
*END

*D_NET pgm_pp11_4_s2 2.344941e-02
*CONN
*I lt_pp11_4_s2:Z O
*I vs_47_11:A I
*I vs_32_11:A I
*CAP
1 pgm_pp11_4_s2:1 2.344941e-02
*RES
1 lt_pp11_4_s2:Z pgm_pp11_4_s2:1 2.590167e+01
2 pgm_pp11_4_s2:1 vs_47_11:A 1.000000e-03
3 pgm_pp11_4_s2:1 vs_32_11:A 1.000000e-03
*END

*D_NET pgm_pp11_4_s3 8.739552e-03
*CONN
*I lt_pp11_4_s3:Z O
*I vs_59_11:A I
*CAP
1 pgm_pp11_4_s3:1 8.739552e-03
*RES
1 lt_pp11_4_s3:Z pgm_pp11_4_s3:1 9.917487e+00
2 pgm_pp11_4_s3:1 vs_59_11:A 1.000000e-03
*END

*D_NET pgm_pp11_5_s0 1.557094e-02
*CONN
*I lt_pp11_5_s0:Z O
*I vs_15_11:A I
*CAP
1 pgm_pp11_5_s0:1 1.557094e-02
*RES
1 lt_pp11_5_s0:Z pgm_pp11_5_s0:1 1.566551e+01
2 pgm_pp11_5_s0:1 vs_15_11:A 1.000000e-03
*END

*D_NET pgm_pp11_5_s1 8.484772e-03
*CONN
*I lt_pp11_5_s1:Z O
*I vs_27_11:A I
*CAP
1 pgm_pp11_5_s1:1 8.484772e-03
*RES
1 lt_pp11_5_s1:Z pgm_pp11_5_s1:1 9.628367e+00
2 pgm_pp11_5_s1:1 vs_27_11:A 1.000000e-03
*END

*D_NET pgm_pp11_6_s0 7.972997e-03
*CONN
*I lt_pp11_6_s0:Z O
*I vs_12_11:A I
*CAP
1 pgm_pp11_6_s0:1 7.972997e-03
*RES
1 lt_pp11_6_s0:Z pgm_pp11_6_s0:1 8.339317e+00
2 pgm_pp11_6_s0:1 vs_12_11:A 1.000000e-03
*END

*D_NET pgm_pp11_6_s2 6.322103e-03
*CONN
*I lt_pp11_6_s2:Z O
*I vs_35_11:A I
*CAP
1 pgm_pp11_6_s2:1 6.322103e-03
*RES
1 lt_pp11_6_s2:Z pgm_pp11_6_s2:1 7.174209e+00
2 pgm_pp11_6_s2:1 vs_35_11:A 1.000000e-03
*END

*D_NET pgm_pp11_7_s0 6.253964e-03
*CONN
*I lt_pp11_7_s0:Z O
*I vs_5_11:A I
*CAP
1 pgm_pp11_7_s0:1 6.253964e-03
*RES
1 lt_pp11_7_s0:Z pgm_pp11_7_s0:1 7.096886e+00
2 pgm_pp11_7_s0:1 vs_5_11:A 1.000000e-03
*END

*D_NET pgm_pp11_8_s0 1.072447e-02
*CONN
*I lt_pp11_8_s0:Z O
*I vs_3_11:A I
*CAP
1 pgm_pp11_8_s0:1 1.072447e-02
*RES
1 lt_pp11_8_s0:Z pgm_pp11_8_s0:1 1.216993e+01
2 pgm_pp11_8_s0:1 vs_3_11:A 1.000000e-03
*END

*D_NET pgm_pp11_8_s2 1.146289e-02
*CONN
*I lt_pp11_8_s2:Z O
*I vs_34_11:A I
*CAP
1 pgm_pp11_8_s2:1 1.146289e-02
*RES
1 lt_pp11_8_s2:Z pgm_pp11_8_s2:1 1.229959e+01
2 pgm_pp11_8_s2:1 vs_34_11:A 1.000000e-03
*END

*D_NET pgm_pp11_8_s3 1.709043e-02
*CONN
*I lt_pp11_8_s3:Z O
*I vs_53_11:A I
*I vs_48_11:A I
*CAP
1 pgm_pp11_8_s3:1 1.709043e-02
*RES
1 lt_pp11_8_s3:Z pgm_pp11_8_s3:1 1.825368e+01
2 pgm_pp11_8_s3:1 vs_53_11:A 1.000000e-03
3 pgm_pp11_8_s3:1 vs_48_11:A 1.000000e-03
*END

*D_NET pgm_pp11_9_s0 1.325746e-02
*CONN
*I lt_pp11_9_s0:Z O
*I vs_2_11:A I
*CAP
1 pgm_pp11_9_s0:1 1.325746e-02
*RES
1 lt_pp11_9_s0:Z pgm_pp11_9_s0:1 1.504432e+01
2 pgm_pp11_9_s0:1 vs_2_11:A 1.000000e-03
*END

*D_NET pgm_pp12_0_s0 1.364691e-02
*CONN
*I lt_pp12_0_s0:Z O
*I vs_8_12:A I
*CAP
1 pgm_pp12_0_s0:1 1.364691e-02
*RES
1 lt_pp12_0_s0:Z pgm_pp12_0_s0:1 1.305022e+01
2 pgm_pp12_0_s0:1 vs_8_12:A 1.000000e-03
*END

*D_NET pgm_pp12_0_s2 2.450752e-02
*CONN
*I lt_pp12_0_s2:Z O
*I vs_47_12:A I
*CAP
1 pgm_pp12_0_s2:1 2.450752e-02
*RES
1 lt_pp12_0_s2:Z pgm_pp12_0_s2:1 2.436679e+01
2 pgm_pp12_0_s2:1 vs_47_12:A 1.000000e-03
*END

*D_NET pgm_pp12_0_s3 1.771611e-03
*CONN
*I lt_pp12_0_s3:Z O
*I vs_48_12:A I
*CAP
1 pgm_pp12_0_s3:1 1.771611e-03
*RES
1 lt_pp12_0_s3:Z pgm_pp12_0_s3:1 2.010392e+00
2 pgm_pp12_0_s3:1 vs_48_12:A 1.000000e-03
*END

*D_NET pgm_pp12_10_s0 1.317747e-02
*CONN
*I lt_pp12_10_s0:Z O
*I vs_3_12:A I
*CAP
1 pgm_pp12_10_s0:1 1.317747e-02
*RES
1 lt_pp12_10_s0:Z pgm_pp12_10_s0:1 1.495355e+01
2 pgm_pp12_10_s0:1 vs_3_12:A 1.000000e-03
*END

*D_NET pgm_pp12_10_s1 1.542605e-02
*CONN
*I lt_pp12_10_s1:Z O
*I vs_20_12:A I
*I vs_18_12:A I
*CAP
1 pgm_pp12_10_s1:1 1.542605e-02
*RES
1 lt_pp12_10_s1:Z pgm_pp12_10_s1:1 1.750521e+01
2 pgm_pp12_10_s1:1 vs_20_12:A 1.000000e-03
3 pgm_pp12_10_s1:1 vs_18_12:A 1.000000e-03
*END

*D_NET pgm_pp12_11_s0 1.481280e-02
*CONN
*I lt_pp12_11_s0:Z O
*I vs_4_12:A I
*CAP
1 pgm_pp12_11_s0:1 1.481280e-02
*RES
1 lt_pp12_11_s0:Z pgm_pp12_11_s0:1 1.680930e+01
2 pgm_pp12_11_s0:1 vs_4_12:A 1.000000e-03
*END

*D_NET pgm_pp12_11_s1 1.249904e-02
*CONN
*I lt_pp12_11_s1:Z O
*I vs_22_12:A I
*CAP
1 pgm_pp12_11_s1:1 1.249904e-02
*RES
1 lt_pp12_11_s1:Z pgm_pp12_11_s1:1 1.418369e+01
2 pgm_pp12_11_s1:1 vs_22_12:A 1.000000e-03
*END

*D_NET pgm_pp12_1_s0 2.707780e-03
*CONN
*I lt_pp12_1_s0:Z O
*I vs_1_12:A I
*I vs_0_12:A I
*CAP
1 pgm_pp12_1_s0:1 2.707780e-03
*RES
1 lt_pp12_1_s0:Z pgm_pp12_1_s0:1 3.072740e+00
2 pgm_pp12_1_s0:1 vs_1_12:A 1.000000e-03
3 pgm_pp12_1_s0:1 vs_0_12:A 1.000000e-03
*END

*D_NET pgm_pp12_1_s1 6.791684e-03
*CONN
*I lt_pp12_1_s1:Z O
*I vs_21_12:A I
*CAP
1 pgm_pp12_1_s1:1 6.791684e-03
*RES
1 lt_pp12_1_s1:Z pgm_pp12_1_s1:1 6.278887e+00
2 pgm_pp12_1_s1:1 vs_21_12:A 1.000000e-03
*END

*D_NET pgm_pp12_1_s2 1.835306e-02
*CONN
*I lt_pp12_1_s2:Z O
*I vs_45_12:A I
*I vs_39_12:A I
*I vs_36_12:A I
*CAP
1 pgm_pp12_1_s2:1 1.835306e-02
*RES
1 lt_pp12_1_s2:Z pgm_pp12_1_s2:1 2.082672e+01
2 pgm_pp12_1_s2:1 vs_45_12:A 1.000000e-03
3 pgm_pp12_1_s2:1 vs_39_12:A 1.000000e-03
4 pgm_pp12_1_s2:1 vs_36_12:A 1.000000e-03
*END

*D_NET pgm_pp12_1_s3 1.748503e-02
*CONN
*I lt_pp12_1_s3:Z O
*I vs_61_12:A I
*CAP
1 pgm_pp12_1_s3:1 1.748503e-02
*RES
1 lt_pp12_1_s3:Z pgm_pp12_1_s3:1 1.984170e+01
2 pgm_pp12_1_s3:1 vs_61_12:A 1.000000e-03
*END

*D_NET pgm_pp12_2_s1 1.390626e-02
*CONN
*I lt_pp12_2_s1:Z O
*I vs_24_12:A I
*I vs_16_12:A I
*CAP
1 pgm_pp12_2_s1:1 1.390626e-02
*RES
1 lt_pp12_2_s1:Z pgm_pp12_2_s1:1 1.578057e+01
2 pgm_pp12_2_s1:1 vs_24_12:A 1.000000e-03
3 pgm_pp12_2_s1:1 vs_16_12:A 1.000000e-03
*END

*D_NET pgm_pp12_2_s2 9.182913e-03
*CONN
*I lt_pp12_2_s2:Z O
*I vs_40_12:A I
*CAP
1 pgm_pp12_2_s2:1 9.182913e-03
*RES
1 lt_pp12_2_s2:Z pgm_pp12_2_s2:1 9.136390e+00
2 pgm_pp12_2_s2:1 vs_40_12:A 1.000000e-03
*END

*D_NET pgm_pp12_5_s2 8.336507e-03
*CONN
*I lt_pp12_5_s2:Z O
*I vs_33_12:A I
*CAP
1 pgm_pp12_5_s2:1 8.336507e-03
*RES
1 lt_pp12_5_s2:Z pgm_pp12_5_s2:1 8.463862e+00
2 pgm_pp12_5_s2:1 vs_33_12:A 1.000000e-03
*END

*D_NET pgm_pp12_5_s3 1.110960e-02
*CONN
*I lt_pp12_5_s3:Z O
*I vs_60_12:A I
*CAP
1 pgm_pp12_5_s3:1 1.110960e-02
*RES
1 lt_pp12_5_s3:Z pgm_pp12_5_s3:1 1.260698e+01
2 pgm_pp12_5_s3:1 vs_60_12:A 1.000000e-03
*END

*D_NET pgm_pp12_6_s0 3.552109e-03
*CONN
*I lt_pp12_6_s0:Z O
*I vs_5_12:A I
*CAP
1 pgm_pp12_6_s0:1 3.552109e-03
*RES
1 lt_pp12_6_s0:Z pgm_pp12_6_s0:1 4.030870e+00
2 pgm_pp12_6_s0:1 vs_5_12:A 1.000000e-03
*END

*D_NET pgm_pp12_6_s1 1.295718e-02
*CONN
*I lt_pp12_6_s1:Z O
*I vs_27_12:A I
*I vs_19_12:A I
*CAP
1 pgm_pp12_6_s1:1 1.295718e-02
*RES
1 lt_pp12_6_s1:Z pgm_pp12_6_s1:1 1.303124e+01
2 pgm_pp12_6_s1:1 vs_27_12:A 1.000000e-03
3 pgm_pp12_6_s1:1 vs_19_12:A 1.000000e-03
*END

*D_NET pgm_pp12_6_s2 9.954202e-03
*CONN
*I lt_pp12_6_s2:Z O
*I vs_46_12:A I
*CAP
1 pgm_pp12_6_s2:1 9.954202e-03
*RES
1 lt_pp12_6_s2:Z pgm_pp12_6_s2:1 1.129585e+01
2 pgm_pp12_6_s2:1 vs_46_12:A 1.000000e-03
*END

*D_NET pgm_pp12_6_s3 2.639641e-03
*CONN
*I lt_pp12_6_s3:Z O
*I vs_57_12:A I
*CAP
1 pgm_pp12_6_s3:1 2.639641e-03
*RES
1 lt_pp12_6_s3:Z pgm_pp12_6_s3:1 2.995417e+00
2 pgm_pp12_6_s3:1 vs_57_12:A 1.000000e-03
*END

*D_NET pgm_pp12_8_s1 1.214650e-03
*CONN
*I lt_pp12_8_s1:Z O
*I vs_26_12:A I
*CAP
1 pgm_pp12_8_s1:1 1.214650e-03
*RES
1 lt_pp12_8_s1:Z pgm_pp12_8_s1:1 1.378363e+00
2 pgm_pp12_8_s1:1 vs_26_12:A 1.000000e-03
*END

*D_NET pgm_pp12_8_s2 1.379664e-02
*CONN
*I lt_pp12_8_s2:Z O
*I vs_32_12:A I
*CAP
1 pgm_pp12_8_s2:1 1.379664e-02
*RES
1 lt_pp12_8_s2:Z pgm_pp12_8_s2:1 1.565618e+01
2 pgm_pp12_8_s2:1 vs_32_12:A 1.000000e-03
*END

*D_NET pgm_pp12_8_s3 1.704436e-02
*CONN
*I lt_pp12_8_s3:Z O
*I vs_54_12:A I
*I vs_49_12:A I
*CAP
1 pgm_pp12_8_s3:1 1.704436e-02
*RES
1 lt_pp12_8_s3:Z pgm_pp12_8_s3:1 1.863333e+01
2 pgm_pp12_8_s3:1 vs_54_12:A 1.000000e-03
3 pgm_pp12_8_s3:1 vs_49_12:A 1.000000e-03
*END

*D_NET pgm_pp12_9_s3 1.514525e-02
*CONN
*I lt_pp12_9_s3:Z O
*I vs_63_12:A I
*I vs_55_12:A I
*I vs_53_12:A I
*CAP
1 pgm_pp12_9_s3:1 1.514525e-02
*RES
1 lt_pp12_9_s3:Z pgm_pp12_9_s3:1 1.531391e+01
2 pgm_pp12_9_s3:1 vs_63_12:A 1.000000e-03
3 pgm_pp12_9_s3:1 vs_55_12:A 1.000000e-03
4 pgm_pp12_9_s3:1 vs_53_12:A 1.000000e-03
*END

*D_NET pgm_pp13_0_s1 1.079366e-02
*CONN
*I lt_pp13_0_s1:Z O
*I vs_22_13:A I
*CAP
1 pgm_pp13_0_s1:1 1.079366e-02
*RES
1 lt_pp13_0_s1:Z pgm_pp13_0_s1:1 1.067628e+01
2 pgm_pp13_0_s1:1 vs_22_13:A 1.000000e-03
*END

*D_NET pgm_pp13_0_s2 5.310710e-03
*CONN
*I lt_pp13_0_s2:Z O
*I vs_34_13:A I
*CAP
1 pgm_pp13_0_s2:1 5.310710e-03
*RES
1 lt_pp13_0_s2:Z pgm_pp13_0_s2:1 3.734428e+00
2 pgm_pp13_0_s2:1 vs_34_13:A 1.000000e-03
*END

*D_NET pgm_pp13_0_s3 2.213049e-02
*CONN
*I lt_pp13_0_s3:Z O
*I vs_63_13:A I
*I vs_61_13:A I
*CAP
1 pgm_pp13_0_s3:1 2.213049e-02
*RES
1 lt_pp13_0_s3:Z pgm_pp13_0_s3:1 2.325315e+01
2 pgm_pp13_0_s3:1 vs_63_13:A 1.000000e-03
3 pgm_pp13_0_s3:1 vs_61_13:A 1.000000e-03
*END

*D_NET pgm_pp13_10_s2 1.086299e-02
*CONN
*I lt_pp13_10_s2:Z O
*I vs_38_13:A I
*I vs_37_13:A I
*CAP
1 pgm_pp13_10_s2:1 1.086299e-02
*RES
1 lt_pp13_10_s2:Z pgm_pp13_10_s2:1 9.634417e+00
2 pgm_pp13_10_s2:1 vs_38_13:A 1.000000e-03
3 pgm_pp13_10_s2:1 vs_37_13:A 1.000000e-03
*END

*D_NET pgm_pp13_11_s0 3.018268e-03
*CONN
*I lt_pp13_11_s0:Z O
*I vs_12_13:A I
*CAP
1 pgm_pp13_11_s0:1 3.018268e-03
*RES
1 lt_pp13_11_s0:Z pgm_pp13_11_s0:1 2.284842e+00
2 pgm_pp13_11_s0:1 vs_12_13:A 1.000000e-03
*END

*D_NET pgm_pp13_11_s1 9.598694e-03
*CONN
*I lt_pp13_11_s1:Z O
*I vs_30_13:A I
*I vs_25_13:A I
*CAP
1 pgm_pp13_11_s1:1 9.598694e-03
*RES
1 lt_pp13_11_s1:Z pgm_pp13_11_s1:1 1.089243e+01
2 pgm_pp13_11_s1:1 vs_30_13:A 1.000000e-03
3 pgm_pp13_11_s1:1 vs_25_13:A 1.000000e-03
*END

*D_NET pgm_pp13_11_s3 1.472542e-02
*CONN
*I lt_pp13_11_s3:Z O
*I vs_52_13:A I
*CAP
1 pgm_pp13_11_s3:1 1.472542e-02
*RES
1 lt_pp13_11_s3:Z pgm_pp13_11_s3:1 1.528195e+01
2 pgm_pp13_11_s3:1 vs_52_13:A 1.000000e-03
*END

*D_NET pgm_pp13_1_s0 1.281116e-02
*CONN
*I lt_pp13_1_s0:Z O
*I vs_9_13:A I
*CAP
1 pgm_pp13_1_s0:1 1.281116e-02
*RES
1 lt_pp13_1_s0:Z pgm_pp13_1_s0:1 1.296570e+01
2 pgm_pp13_1_s0:1 vs_9_13:A 1.000000e-03
*END

*D_NET pgm_pp13_1_s1 2.440989e-02
*CONN
*I lt_pp13_1_s1:Z O
*I vs_31_13:A I
*I vs_24_13:A I
*CAP
1 pgm_pp13_1_s1:1 2.440989e-02
*RES
1 lt_pp13_1_s1:Z pgm_pp13_1_s1:1 2.526966e+01
2 pgm_pp13_1_s1:1 vs_31_13:A 1.000000e-03
3 pgm_pp13_1_s1:1 vs_24_13:A 1.000000e-03
*END

*D_NET pgm_pp13_1_s2 1.918659e-02
*CONN
*I lt_pp13_1_s2:Z O
*I vs_46_13:A I
*CAP
1 pgm_pp13_1_s2:1 1.918659e-02
*RES
1 lt_pp13_1_s2:Z pgm_pp13_1_s2:1 2.020043e+01
2 pgm_pp13_1_s2:1 vs_46_13:A 1.000000e-03
*END

*D_NET pgm_pp13_2_s0 1.488373e-02
*CONN
*I lt_pp13_2_s0:Z O
*I vs_10_13:A I
*I vs_3_13:A I
*CAP
1 pgm_pp13_2_s0:1 1.488373e-02
*RES
1 lt_pp13_2_s0:Z pgm_pp13_2_s0:1 1.224930e+01
2 pgm_pp13_2_s0:1 vs_10_13:A 1.000000e-03
3 pgm_pp13_2_s0:1 vs_3_13:A 1.000000e-03
*END

*D_NET pgm_pp13_2_s1 1.916184e-02
*CONN
*I lt_pp13_2_s1:Z O
*I vs_29_13:A I
*I vs_21_13:A I
*I vs_18_13:A I
*CAP
1 pgm_pp13_2_s1:1 1.916184e-02
*RES
1 lt_pp13_2_s1:Z pgm_pp13_2_s1:1 2.174451e+01
2 pgm_pp13_2_s1:1 vs_29_13:A 1.000000e-03
3 pgm_pp13_2_s1:1 vs_21_13:A 1.000000e-03
4 pgm_pp13_2_s1:1 vs_18_13:A 1.000000e-03
*END

*D_NET pgm_pp13_2_s3 7.406400e-03
*CONN
*I lt_pp13_2_s3:Z O
*I vs_55_13:A I
*I vs_53_13:A I
*CAP
1 pgm_pp13_2_s3:1 7.406400e-03
*RES
1 lt_pp13_2_s3:Z pgm_pp13_2_s3:1 8.404650e+00
2 pgm_pp13_2_s3:1 vs_55_13:A 1.000000e-03
3 pgm_pp13_2_s3:1 vs_53_13:A 1.000000e-03
*END

*D_NET pgm_pp13_3_s0 1.612818e-02
*CONN
*I lt_pp13_3_s0:Z O
*I vs_15_13:A I
*CAP
1 pgm_pp13_3_s0:1 1.612818e-02
*RES
1 lt_pp13_3_s0:Z pgm_pp13_3_s0:1 1.830197e+01
2 pgm_pp13_3_s0:1 vs_15_13:A 1.000000e-03
*END

*D_NET pgm_pp13_3_s2 1.573119e-03
*CONN
*I lt_pp13_3_s2:Z O
*I vs_35_13:A I
*CAP
1 pgm_pp13_3_s2:1 1.573119e-03
*RES
1 lt_pp13_3_s2:Z pgm_pp13_3_s2:1 1.785148e+00
2 pgm_pp13_3_s2:1 vs_35_13:A 1.000000e-03
*END

*D_NET pgm_pp13_3_s3 5.702928e-03
*CONN
*I lt_pp13_3_s3:Z O
*I vs_48_13:A I
*CAP
1 pgm_pp13_3_s3:1 5.702928e-03
*RES
1 lt_pp13_3_s3:Z pgm_pp13_3_s3:1 6.471580e+00
2 pgm_pp13_3_s3:1 vs_48_13:A 1.000000e-03
*END

*D_NET pgm_pp13_4_s3 5.380009e-03
*CONN
*I lt_pp13_4_s3:Z O
*I vs_49_13:A I
*CAP
1 pgm_pp13_4_s3:1 5.380009e-03
*RES
1 lt_pp13_4_s3:Z pgm_pp13_4_s3:1 6.105138e+00
2 pgm_pp13_4_s3:1 vs_49_13:A 1.000000e-03
*END

*D_NET pgm_pp13_5_s0 2.725555e-04
*CONN
*I lt_pp13_5_s0:Z O
*I vs_6_13:A I
*CAP
1 pgm_pp13_5_s0:1 2.725555e-04
*RES
1 lt_pp13_5_s0:Z pgm_pp13_5_s0:1 3.092911e-01
2 pgm_pp13_5_s0:1 vs_6_13:A 1.000000e-03
*END

*D_NET pgm_pp13_5_s1 9.440247e-03
*CONN
*I lt_pp13_5_s1:Z O
*I vs_16_13:A I
*CAP
1 pgm_pp13_5_s1:1 9.440247e-03
*RES
1 lt_pp13_5_s1:Z pgm_pp13_5_s1:1 9.127929e+00
2 pgm_pp13_5_s1:1 vs_16_13:A 1.000000e-03
*END

*D_NET pgm_pp13_5_s2 1.222945e-02
*CONN
*I lt_pp13_5_s2:Z O
*I vs_47_13:A I
*CAP
1 pgm_pp13_5_s2:1 1.222945e-02
*RES
1 lt_pp13_5_s2:Z pgm_pp13_5_s2:1 1.387776e+01
2 pgm_pp13_5_s2:1 vs_47_13:A 1.000000e-03
*END

*D_NET pgm_pp13_5_s3 1.216131e-02
*CONN
*I lt_pp13_5_s3:Z O
*I vs_62_13:A I
*I vs_60_13:A I
*CAP
1 pgm_pp13_5_s3:1 1.216131e-02
*RES
1 lt_pp13_5_s3:Z pgm_pp13_5_s3:1 1.380044e+01
2 pgm_pp13_5_s3:1 vs_62_13:A 1.000000e-03
3 pgm_pp13_5_s3:1 vs_60_13:A 1.000000e-03
*END

*D_NET pgm_pp13_6_s0 9.080246e-03
*CONN
*I lt_pp13_6_s0:Z O
*I vs_2_13:A I
*CAP
1 pgm_pp13_6_s0:1 9.080246e-03
*RES
1 lt_pp13_6_s0:Z pgm_pp13_6_s0:1 1.030410e+01
2 pgm_pp13_6_s0:1 vs_2_13:A 1.000000e-03
*END

*D_NET pgm_pp13_6_s3 8.484772e-03
*CONN
*I lt_pp13_6_s3:Z O
*I vs_50_13:A I
*CAP
1 pgm_pp13_6_s3:1 8.484772e-03
*RES
1 lt_pp13_6_s3:Z pgm_pp13_6_s3:1 9.628367e+00
2 pgm_pp13_6_s3:1 vs_50_13:A 1.000000e-03
*END

*D_NET pgm_pp13_7_s1 1.089630e-02
*CONN
*I lt_pp13_7_s1:Z O
*I vs_17_13:A I
*CAP
1 pgm_pp13_7_s1:1 1.089630e-02
*RES
1 lt_pp13_7_s1:Z pgm_pp13_7_s1:1 1.236492e+01
2 pgm_pp13_7_s1:1 vs_17_13:A 1.000000e-03
*END

*D_NET pgm_pp13_7_s2 8.917306e-04
*CONN
*I lt_pp13_7_s2:Z O
*I vs_41_13:A I
*CAP
1 pgm_pp13_7_s2:1 8.917306e-04
*RES
1 lt_pp13_7_s2:Z pgm_pp13_7_s2:1 1.011920e+00
2 pgm_pp13_7_s2:1 vs_41_13:A 1.000000e-03
*END

*D_NET pgm_pp13_8_s1 1.031860e-02
*CONN
*I lt_pp13_8_s1:Z O
*I vs_23_13:A I
*I vs_19_13:A I
*CAP
1 pgm_pp13_8_s1:1 1.031860e-02
*RES
1 lt_pp13_8_s1:Z pgm_pp13_8_s1:1 1.170936e+01
2 pgm_pp13_8_s1:1 vs_23_13:A 1.000000e-03
3 pgm_pp13_8_s1:1 vs_19_13:A 1.000000e-03
*END

*D_NET pgm_pp13_8_s2 4.891187e-03
*CONN
*I lt_pp13_8_s2:Z O
*I vs_45_13:A I
*CAP
1 pgm_pp13_8_s2:1 4.891187e-03
*RES
1 lt_pp13_8_s2:Z pgm_pp13_8_s2:1 5.550431e+00
2 pgm_pp13_8_s2:1 vs_45_13:A 1.000000e-03
*END

*D_NET pgm_pp13_9_s0 5.837976e-03
*CONN
*I lt_pp13_9_s0:Z O
*I vs_8_13:A I
*CAP
1 pgm_pp13_9_s0:1 5.837976e-03
*RES
1 lt_pp13_9_s0:Z pgm_pp13_9_s0:1 3.556524e+00
2 pgm_pp13_9_s0:1 vs_8_13:A 1.000000e-03
*END

*D_NET pgm_pp13_9_s2 6.277665e-03
*CONN
*I lt_pp13_9_s2:Z O
*I vs_39_13:A I
*CAP
1 pgm_pp13_9_s2:1 6.277665e-03
*RES
1 lt_pp13_9_s2:Z pgm_pp13_9_s2:1 7.123781e+00
2 pgm_pp13_9_s2:1 vs_39_13:A 1.000000e-03
*END

*D_NET pgm_pp14_0_s0 1.266007e-02
*CONN
*I lt_pp14_0_s0:Z O
*I vs_8_14:A I
*CAP
1 pgm_pp14_0_s0:1 1.266007e-02
*RES
1 lt_pp14_0_s0:Z pgm_pp14_0_s0:1 1.279425e+01
2 pgm_pp14_0_s0:1 vs_8_14:A 1.000000e-03
*END

*D_NET pgm_pp14_0_s3 4.663238e-03
*CONN
*I lt_pp14_0_s3:Z O
*I vs_50_14:A I
*CAP
1 pgm_pp14_0_s3:1 4.663238e-03
*RES
1 lt_pp14_0_s3:Z pgm_pp14_0_s3:1 3.431626e+00
2 pgm_pp14_0_s3:1 vs_50_14:A 1.000000e-03
*END

*D_NET pgm_pp14_10_s3 1.195675e-02
*CONN
*I lt_pp14_10_s3:Z O
*I vs_52_14:A I
*CAP
1 pgm_pp14_10_s3:1 1.195675e-02
*RES
1 lt_pp14_10_s3:Z pgm_pp14_10_s3:1 1.257206e+01
2 pgm_pp14_10_s3:1 vs_52_14:A 1.000000e-03
*END

*D_NET pgm_pp14_11_s1 1.747910e-02
*CONN
*I lt_pp14_11_s1:Z O
*I vs_17_14:A I
*CAP
1 pgm_pp14_11_s1:1 1.747910e-02
*RES
1 lt_pp14_11_s1:Z pgm_pp14_11_s1:1 1.983497e+01
2 pgm_pp14_11_s1:1 vs_17_14:A 1.000000e-03
*END

*D_NET pgm_pp14_1_s0 1.760118e-02
*CONN
*I lt_pp14_1_s0:Z O
*I vs_13_14:A I
*CAP
1 pgm_pp14_1_s0:1 1.760118e-02
*RES
1 lt_pp14_1_s0:Z pgm_pp14_1_s0:1 1.825735e+01
2 pgm_pp14_1_s0:1 vs_13_14:A 1.000000e-03
*END

*D_NET pgm_pp14_1_s1 1.520386e-02
*CONN
*I lt_pp14_1_s1:Z O
*I vs_27_14:A I
*CAP
1 pgm_pp14_1_s1:1 1.520386e-02
*RES
1 lt_pp14_1_s1:Z pgm_pp14_1_s1:1 1.725307e+01
2 pgm_pp14_1_s1:1 vs_27_14:A 1.000000e-03
*END

*D_NET pgm_pp14_1_s2 1.551939e-02
*CONN
*I lt_pp14_1_s2:Z O
*I vs_44_14:A I
*CAP
1 pgm_pp14_1_s2:1 1.551939e-02
*RES
1 lt_pp14_1_s2:Z pgm_pp14_1_s2:1 1.618293e+01
2 pgm_pp14_1_s2:1 vs_44_14:A 1.000000e-03
*END

*D_NET pgm_pp14_2_s0 1.579542e-02
*CONN
*I lt_pp14_2_s0:Z O
*I vs_10_14:A I
*I vs_0_14:A I
*CAP
1 pgm_pp14_2_s0:1 1.579542e-02
*RES
1 lt_pp14_2_s0:Z pgm_pp14_2_s0:1 1.687176e+01
2 pgm_pp14_2_s0:1 vs_10_14:A 1.000000e-03
3 pgm_pp14_2_s0:1 vs_0_14:A 1.000000e-03
*END

*D_NET pgm_pp14_2_s1 9.885040e-03
*CONN
*I lt_pp14_2_s1:Z O
*I vs_24_14:A I
*I vs_22_14:A I
*CAP
1 pgm_pp14_2_s1:1 9.885040e-03
*RES
1 lt_pp14_2_s1:Z pgm_pp14_2_s1:1 9.933151e+00
2 pgm_pp14_2_s1:1 vs_24_14:A 1.000000e-03
3 pgm_pp14_2_s1:1 vs_22_14:A 1.000000e-03
*END

*D_NET pgm_pp14_2_s2 2.407410e-02
*CONN
*I lt_pp14_2_s2:Z O
*I vs_47_14:A I
*I vs_43_14:A I
*I vs_41_14:A I
*I vs_35_14:A I
*CAP
1 pgm_pp14_2_s2:1 2.407410e-02
*RES
1 lt_pp14_2_s2:Z pgm_pp14_2_s2:1 2.034828e+01
2 pgm_pp14_2_s2:1 vs_47_14:A 1.000000e-03
3 pgm_pp14_2_s2:1 vs_43_14:A 1.000000e-03
4 pgm_pp14_2_s2:1 vs_41_14:A 1.000000e-03
5 pgm_pp14_2_s2:1 vs_35_14:A 1.000000e-03
*END

*D_NET pgm_pp14_2_s3 1.889533e-03
*CONN
*I lt_pp14_2_s3:Z O
*I vs_51_14:A I
*CAP
1 pgm_pp14_2_s3:1 1.889533e-03
*RES
1 lt_pp14_2_s3:Z pgm_pp14_2_s3:1 1.003973e+00
2 pgm_pp14_2_s3:1 vs_51_14:A 1.000000e-03
*END

*D_NET pgm_pp14_3_s0 1.573119e-03
*CONN
*I lt_pp14_3_s0:Z O
*I vs_3_14:A I
*CAP
1 pgm_pp14_3_s0:1 1.573119e-03
*RES
1 lt_pp14_3_s0:Z pgm_pp14_3_s0:1 1.785148e+00
2 pgm_pp14_3_s0:1 vs_3_14:A 1.000000e-03
*END

*D_NET pgm_pp14_3_s1 1.881198e-02
*CONN
*I lt_pp14_3_s1:Z O
*I vs_29_14:A I
*I vs_20_14:A I
*CAP
1 pgm_pp14_3_s1:1 1.881198e-02
*RES
1 lt_pp14_3_s1:Z pgm_pp14_3_s1:1 1.934339e+01
2 pgm_pp14_3_s1:1 vs_29_14:A 1.000000e-03
3 pgm_pp14_3_s1:1 vs_20_14:A 1.000000e-03
*END

*D_NET pgm_pp14_3_s2 6.076211e-03
*CONN
*I lt_pp14_3_s2:Z O
*I vs_39_14:A I
*CAP
1 pgm_pp14_3_s2:1 6.076211e-03
*RES
1 lt_pp14_3_s2:Z pgm_pp14_3_s2:1 6.895175e+00
2 pgm_pp14_3_s2:1 vs_39_14:A 1.000000e-03
*END

*D_NET pgm_pp14_4_s1 6.610116e-03
*CONN
*I lt_pp14_4_s1:Z O
*I vs_16_14:A I
*CAP
1 pgm_pp14_4_s1:1 6.610116e-03
*RES
1 lt_pp14_4_s1:Z pgm_pp14_4_s1:1 5.628389e+00
2 pgm_pp14_4_s1:1 vs_16_14:A 1.000000e-03
*END

*D_NET pgm_pp14_4_s2 4.221648e-03
*CONN
*I lt_pp14_4_s2:Z O
*I vs_34_14:A I
*CAP
1 pgm_pp14_4_s2:1 4.221648e-03
*RES
1 lt_pp14_4_s2:Z pgm_pp14_4_s2:1 4.790650e+00
2 pgm_pp14_4_s2:1 vs_34_14:A 1.000000e-03
*END

*D_NET pgm_pp14_5_s0 1.555967e-02
*CONN
*I lt_pp14_5_s0:Z O
*I vs_12_14:A I
*I vs_2_14:A I
*CAP
1 pgm_pp14_5_s0:1 1.555967e-02
*RES
1 lt_pp14_5_s0:Z pgm_pp14_5_s0:1 1.680456e+01
2 pgm_pp14_5_s0:1 vs_12_14:A 1.000000e-03
3 pgm_pp14_5_s0:1 vs_2_14:A 1.000000e-03
*END

*D_NET pgm_pp14_5_s1 6.413942e-03
*CONN
*I lt_pp14_5_s1:Z O
*I vs_18_14:A I
*CAP
1 pgm_pp14_5_s1:1 6.413942e-03
*RES
1 lt_pp14_5_s1:Z pgm_pp14_5_s1:1 7.278427e+00
2 pgm_pp14_5_s1:1 vs_18_14:A 1.000000e-03
*END

*D_NET pgm_pp14_6_s1 1.204727e-02
*CONN
*I lt_pp14_6_s1:Z O
*I vs_30_14:A I
*CAP
1 pgm_pp14_6_s1:1 1.204727e-02
*RES
1 lt_pp14_6_s1:Z pgm_pp14_6_s1:1 1.224283e+01
2 pgm_pp14_6_s1:1 vs_30_14:A 1.000000e-03
*END

*D_NET pgm_pp14_6_s2 1.022676e-02
*CONN
*I lt_pp14_6_s2:Z O
*I vs_46_14:A I
*CAP
1 pgm_pp14_6_s2:1 1.022676e-02
*RES
1 lt_pp14_6_s2:Z pgm_pp14_6_s2:1 1.160514e+01
2 pgm_pp14_6_s2:1 vs_46_14:A 1.000000e-03
*END

*D_NET pgm_pp14_7_s0 9.109872e-03
*CONN
*I lt_pp14_7_s0:Z O
*I vs_4_14:A I
*CAP
1 pgm_pp14_7_s0:1 9.109872e-03
*RES
1 lt_pp14_7_s0:Z pgm_pp14_7_s0:1 1.033772e+01
2 pgm_pp14_7_s0:1 vs_4_14:A 1.000000e-03
*END

*D_NET pgm_pp14_7_s1 2.690004e-03
*CONN
*I lt_pp14_7_s1:Z O
*I vs_26_14:A I
*CAP
1 pgm_pp14_7_s1:1 2.690004e-03
*RES
1 lt_pp14_7_s1:Z pgm_pp14_7_s1:1 3.052569e+00
2 pgm_pp14_7_s1:1 vs_26_14:A 1.000000e-03
*END

*D_NET pgm_pp14_7_s3 1.013492e-02
*CONN
*I lt_pp14_7_s3:Z O
*I vs_62_14:A I
*I vs_60_14:A I
*I vs_55_14:A I
*CAP
1 pgm_pp14_7_s3:1 1.013492e-02
*RES
1 lt_pp14_7_s3:Z pgm_pp14_7_s3:1 1.150092e+01
2 pgm_pp14_7_s3:1 vs_62_14:A 1.000000e-03
3 pgm_pp14_7_s3:1 vs_60_14:A 1.000000e-03
4 pgm_pp14_7_s3:1 vs_55_14:A 1.000000e-03
*END

*D_NET pgm_pp14_8_s0 5.410688e-03
*CONN
*I lt_pp14_8_s0:Z O
*I vs_6_14:A I
*CAP
1 pgm_pp14_8_s0:1 5.410688e-03
*RES
1 lt_pp14_8_s0:Z pgm_pp14_8_s0:1 4.023160e+00
2 pgm_pp14_8_s0:1 vs_6_14:A 1.000000e-03
*END

*D_NET pgm_pp15_0_s0 1.032084e-02
*CONN
*I lt_pp15_0_s0:Z O
*I vs_6_15:A I
*CAP
1 pgm_pp15_0_s0:1 1.032084e-02
*RES
1 lt_pp15_0_s0:Z pgm_pp15_0_s0:1 9.563815e+00
2 pgm_pp15_0_s0:1 vs_6_15:A 1.000000e-03
*END

*D_NET pgm_pp15_0_s1 6.390242e-03
*CONN
*I lt_pp15_0_s1:Z O
*I vs_19_15:A I
*I vs_17_15:A I
*CAP
1 pgm_pp15_0_s1:1 6.390242e-03
*RES
1 lt_pp15_0_s1:Z pgm_pp15_0_s1:1 7.251532e+00
2 pgm_pp15_0_s1:1 vs_19_15:A 1.000000e-03
3 pgm_pp15_0_s1:1 vs_17_15:A 1.000000e-03
*END

*D_NET pgm_pp15_11_s0 1.523083e-02
*CONN
*I lt_pp15_11_s0:Z O
*I vs_3_15:A I
*CAP
1 pgm_pp15_11_s0:1 1.523083e-02
*RES
1 lt_pp15_11_s0:Z pgm_pp15_11_s0:1 1.643139e+01
2 pgm_pp15_11_s0:1 vs_3_15:A 1.000000e-03
*END

*D_NET pgm_pp15_12_s1 9.559906e-03
*CONN
*I lt_pp15_12_s1:Z O
*I vs_25_15:A I
*CAP
1 pgm_pp15_12_s1:1 9.559906e-03
*RES
1 lt_pp15_12_s1:Z pgm_pp15_12_s1:1 8.844299e+00
2 pgm_pp15_12_s1:1 vs_25_15:A 1.000000e-03
*END

*D_NET pgm_pp15_1_s0 1.633661e-02
*CONN
*I lt_pp15_1_s0:Z O
*I vs_12_15:A I
*CAP
1 pgm_pp15_1_s0:1 1.633661e-02
*RES
1 lt_pp15_1_s0:Z pgm_pp15_1_s0:1 1.696632e+01
2 pgm_pp15_1_s0:1 vs_12_15:A 1.000000e-03
*END

*D_NET pgm_pp15_2_s0 1.233114e-02
*CONN
*I lt_pp15_2_s0:Z O
*I vs_10_15:A I
*CAP
1 pgm_pp15_2_s0:1 1.233114e-02
*RES
1 lt_pp15_2_s0:Z pgm_pp15_2_s0:1 1.335685e+01
2 pgm_pp15_2_s0:1 vs_10_15:A 1.000000e-03
*END

*D_NET pgm_pp15_2_s2 4.449765e-03
*CONN
*I lt_pp15_2_s2:Z O
*I vs_32_15:A I
*CAP
1 pgm_pp15_2_s2:1 4.449765e-03
*RES
1 lt_pp15_2_s2:Z pgm_pp15_2_s2:1 5.049514e+00
2 pgm_pp15_2_s2:1 vs_32_15:A 1.000000e-03
*END

*D_NET pgm_pp15_3_s0 5.463709e-03
*CONN
*I lt_pp15_3_s0:Z O
*I vs_7_15:A I
*CAP
1 pgm_pp15_3_s0:1 5.463709e-03
*RES
1 lt_pp15_3_s0:Z pgm_pp15_3_s0:1 5.491822e+00
2 pgm_pp15_3_s0:1 vs_7_15:A 1.000000e-03
*END

*D_NET pgm_pp15_3_s1 4.126846e-03
*CONN
*I lt_pp15_3_s1:Z O
*I vs_22_15:A I
*CAP
1 pgm_pp15_3_s1:1 4.126846e-03
*RES
1 lt_pp15_3_s1:Z pgm_pp15_3_s1:1 4.683071e+00
2 pgm_pp15_3_s1:1 vs_22_15:A 1.000000e-03
*END

*D_NET pgm_pp15_4_s3 1.425911e-02
*CONN
*I lt_pp15_4_s3:Z O
*I vs_62_15:A I
*I vs_60_15:A I
*I vs_54_15:A I
*CAP
1 pgm_pp15_4_s3:1 1.425911e-02
*RES
1 lt_pp15_4_s3:Z pgm_pp15_4_s3:1 1.532870e+01
2 pgm_pp15_4_s3:1 vs_62_15:A 1.000000e-03
3 pgm_pp15_4_s3:1 vs_60_15:A 1.000000e-03
4 pgm_pp15_4_s3:1 vs_54_15:A 1.000000e-03
*END

*D_NET pgm_pp15_5_s3 1.292211e-02
*CONN
*I lt_pp15_5_s3:Z O
*I vs_58_15:A I
*I vs_57_15:A I
*I vs_50_15:A I
*CAP
1 pgm_pp15_5_s3:1 1.292211e-02
*RES
1 lt_pp15_5_s3:Z pgm_pp15_5_s3:1 1.352354e+01
2 pgm_pp15_5_s3:1 vs_58_15:A 1.000000e-03
3 pgm_pp15_5_s3:1 vs_57_15:A 1.000000e-03
4 pgm_pp15_5_s3:1 vs_50_15:A 1.000000e-03
*END

*D_NET pgm_pp15_6_s2 4.630481e-03
*CONN
*I lt_pp15_6_s2:Z O
*I vs_42_15:A I
*CAP
1 pgm_pp15_6_s2:1 4.630481e-03
*RES
1 lt_pp15_6_s2:Z pgm_pp15_6_s2:1 5.254587e+00
2 pgm_pp15_6_s2:1 vs_42_15:A 1.000000e-03
*END

*D_NET pgm_pp15_8_s1 5.385934e-03
*CONN
*I lt_pp15_8_s1:Z O
*I vs_29_15:A I
*CAP
1 pgm_pp15_8_s1:1 5.385934e-03
*RES
1 lt_pp15_8_s1:Z pgm_pp15_8_s1:1 6.111861e+00
2 pgm_pp15_8_s1:1 vs_29_15:A 1.000000e-03
*END

*D_NET pgm_pp15_8_s3 8.348494e-03
*CONN
*I lt_pp15_8_s3:Z O
*I vs_63_15:A I
*CAP
1 pgm_pp15_8_s3:1 8.348494e-03
*RES
1 lt_pp15_8_s3:Z pgm_pp15_8_s3:1 9.473721e+00
2 pgm_pp15_8_s3:1 vs_63_15:A 1.000000e-03
*END

*D_NET pgm_pp15_9_s2 1.520832e-02
*CONN
*I lt_pp15_9_s2:Z O
*I vs_33_15:A I
*CAP
1 pgm_pp15_9_s2:1 1.520832e-02
*RES
1 lt_pp15_9_s2:Z pgm_pp15_9_s2:1 1.582993e+01
2 pgm_pp15_9_s2:1 vs_33_15:A 1.000000e-03
*END

*D_NET pgm_pp16_0_s0 2.057794e-02
*CONN
*I lt_pp16_0_s0:Z O
*I vs_14_16:A I
*CAP
1 pgm_pp16_0_s0:1 2.057794e-02
*RES
1 lt_pp16_0_s0:Z pgm_pp16_0_s0:1 2.335148e+01
2 pgm_pp16_0_s0:1 vs_14_16:A 1.000000e-03
*END

*D_NET pgm_pp16_0_s3 2.178980e-02
*CONN
*I lt_pp16_0_s3:Z O
*I vs_62_16:A I
*I vs_52_16:A I
*CAP
1 pgm_pp16_0_s3:1 2.178980e-02
*RES
1 lt_pp16_0_s3:Z pgm_pp16_0_s3:1 2.286654e+01
2 pgm_pp16_0_s3:1 vs_62_16:A 1.000000e-03
3 pgm_pp16_0_s3:1 vs_52_16:A 1.000000e-03
*END

*D_NET pgm_pp16_10_s1 3.638024e-03
*CONN
*I lt_pp16_10_s1:Z O
*I vs_30_16:A I
*CAP
1 pgm_pp16_10_s1:1 3.638024e-03
*RES
1 lt_pp16_10_s1:Z pgm_pp16_10_s1:1 4.128364e+00
2 pgm_pp16_10_s1:1 vs_30_16:A 1.000000e-03
*END

*D_NET pgm_pp16_10_s3 1.419955e-02
*CONN
*I lt_pp16_10_s3:Z O
*I vs_50_16:A I
*CAP
1 pgm_pp16_10_s3:1 1.419955e-02
*RES
1 lt_pp16_10_s3:Z pgm_pp16_10_s3:1 1.611339e+01
2 pgm_pp16_10_s3:1 vs_50_16:A 1.000000e-03
*END

*D_NET pgm_pp16_11_s2 1.492538e-02
*CONN
*I lt_pp16_11_s2:Z O
*I vs_35_16:A I
*CAP
1 pgm_pp16_11_s2:1 1.492538e-02
*RES
1 lt_pp16_11_s2:Z pgm_pp16_11_s2:1 1.693705e+01
2 pgm_pp16_11_s2:1 vs_35_16:A 1.000000e-03
*END

*D_NET pgm_pp16_1_s0 2.793694e-03
*CONN
*I lt_pp16_1_s0:Z O
*I vs_2_16:A I
*CAP
1 pgm_pp16_1_s0:1 2.793694e-03
*RES
1 lt_pp16_1_s0:Z pgm_pp16_1_s0:1 3.170234e+00
2 pgm_pp16_1_s0:1 vs_2_16:A 1.000000e-03
*END

*D_NET pgm_pp16_1_s1 1.909921e-02
*CONN
*I lt_pp16_1_s1:Z O
*I vs_29_16:A I
*I vs_19_16:A I
*CAP
1 pgm_pp16_1_s1:1 1.909921e-02
*RES
1 lt_pp16_1_s1:Z pgm_pp16_1_s1:1 1.867308e+01
2 pgm_pp16_1_s1:1 vs_29_16:A 1.000000e-03
3 pgm_pp16_1_s1:1 vs_19_16:A 1.000000e-03
*END

*D_NET pgm_pp16_1_s2 9.204674e-03
*CONN
*I lt_pp16_1_s2:Z O
*I vs_39_16:A I
*CAP
1 pgm_pp16_1_s2:1 9.204674e-03
*RES
1 lt_pp16_1_s2:Z pgm_pp16_1_s2:1 1.044530e+01
2 pgm_pp16_1_s2:1 vs_39_16:A 1.000000e-03
*END

*D_NET pgm_pp16_1_s3 1.082077e-02
*CONN
*I lt_pp16_1_s3:Z O
*I vs_56_16:A I
*CAP
1 pgm_pp16_1_s3:1 1.082077e-02
*RES
1 lt_pp16_1_s3:Z pgm_pp16_1_s3:1 1.085102e+01
2 pgm_pp16_1_s3:1 vs_56_16:A 1.000000e-03
*END

*D_NET pgm_pp16_2_s2 1.679772e-03
*CONN
*I lt_pp16_2_s2:Z O
*I vs_34_16:A I
*CAP
1 pgm_pp16_2_s2:1 1.679772e-03
*RES
1 lt_pp16_2_s2:Z pgm_pp16_2_s2:1 1.906175e+00
2 pgm_pp16_2_s2:1 vs_34_16:A 1.000000e-03
*END

*D_NET pgm_pp16_3_s0 1.142898e-02
*CONN
*I lt_pp16_3_s0:Z O
*I vs_11_16:A I
*CAP
1 pgm_pp16_3_s0:1 1.142898e-02
*RES
1 lt_pp16_3_s0:Z pgm_pp16_3_s0:1 1.182916e+01
2 pgm_pp16_3_s0:1 vs_11_16:A 1.000000e-03
*END

*D_NET pgm_pp16_3_s2 6.011034e-03
*CONN
*I lt_pp16_3_s2:Z O
*I vs_32_16:A I
*CAP
1 pgm_pp16_3_s2:1 6.011034e-03
*RES
1 lt_pp16_3_s2:Z pgm_pp16_3_s2:1 6.821214e+00
2 pgm_pp16_3_s2:1 vs_32_16:A 1.000000e-03
*END

*D_NET pgm_pp16_4_s0 1.478910e-02
*CONN
*I lt_pp16_4_s0:Z O
*I vs_15_16:A I
*I vs_12_16:A I
*CAP
1 pgm_pp16_4_s0:1 1.478910e-02
*RES
1 lt_pp16_4_s0:Z pgm_pp16_4_s0:1 1.678241e+01
2 pgm_pp16_4_s0:1 vs_15_16:A 1.000000e-03
3 pgm_pp16_4_s0:1 vs_12_16:A 1.000000e-03
*END

*D_NET pgm_pp16_4_s3 1.178210e-02
*CONN
*I lt_pp16_4_s3:Z O
*I vs_61_16:A I
*CAP
1 pgm_pp16_4_s3:1 1.178210e-02
*RES
1 lt_pp16_4_s3:Z pgm_pp16_4_s3:1 1.337012e+01
2 pgm_pp16_4_s3:1 vs_61_16:A 1.000000e-03
*END

*D_NET pgm_pp16_5_s0 6.242114e-03
*CONN
*I lt_pp16_5_s0:Z O
*I vs_10_16:A I
*CAP
1 pgm_pp16_5_s0:1 6.242114e-03
*RES
1 lt_pp16_5_s0:Z pgm_pp16_5_s0:1 7.083439e+00
2 pgm_pp16_5_s0:1 vs_10_16:A 1.000000e-03
*END

*D_NET pgm_pp16_5_s2 1.213761e-02
*CONN
*I lt_pp16_5_s2:Z O
*I vs_45_16:A I
*CAP
1 pgm_pp16_5_s2:1 1.213761e-02
*RES
1 lt_pp16_5_s2:Z pgm_pp16_5_s2:1 1.377354e+01
2 pgm_pp16_5_s2:1 vs_45_16:A 1.000000e-03
*END

*D_NET pgm_pp16_6_s0 8.615124e-03
*CONN
*I lt_pp16_6_s0:Z O
*I vs_3_16:A I
*CAP
1 pgm_pp16_6_s0:1 8.615124e-03
*RES
1 lt_pp16_6_s0:Z pgm_pp16_6_s0:1 9.776289e+00
2 pgm_pp16_6_s0:1 vs_3_16:A 1.000000e-03
*END

*D_NET pgm_pp16_7_s0 6.594659e-03
*CONN
*I lt_pp16_7_s0:Z O
*I vs_4_16:A I
*CAP
1 pgm_pp16_7_s0:1 6.594659e-03
*RES
1 lt_pp16_7_s0:Z pgm_pp16_7_s0:1 7.483500e+00
2 pgm_pp16_7_s0:1 vs_4_16:A 1.000000e-03
*END

*D_NET pgm_pp16_7_s1 1.102695e-02
*CONN
*I lt_pp16_7_s1:Z O
*I vs_31_16:A I
*CAP
1 pgm_pp16_7_s1:1 1.102695e-02
*RES
1 lt_pp16_7_s1:Z pgm_pp16_7_s1:1 1.166091e+01
2 pgm_pp16_7_s1:1 vs_31_16:A 1.000000e-03
*END

*D_NET pgm_pp16_8_s3 6.588733e-03
*CONN
*I lt_pp16_8_s3:Z O
*I vs_53_16:A I
*CAP
1 pgm_pp16_8_s3:1 6.588733e-03
*RES
1 lt_pp16_8_s3:Z pgm_pp16_8_s3:1 7.476777e+00
2 pgm_pp16_8_s3:1 vs_53_16:A 1.000000e-03
*END

*D_NET pgm_pp16_9_s1 6.757599e-03
*CONN
*I lt_pp16_9_s1:Z O
*I vs_27_16:A I
*I vs_24_16:A I
*CAP
1 pgm_pp16_9_s1:1 6.757599e-03
*RES
1 lt_pp16_9_s1:Z pgm_pp16_9_s1:1 7.668403e+00
2 pgm_pp16_9_s1:1 vs_27_16:A 1.000000e-03
3 pgm_pp16_9_s1:1 vs_24_16:A 1.000000e-03
*END

*D_NET pgm_pp16_9_s2 1.331967e-02
*CONN
*I lt_pp16_9_s2:Z O
*I vs_47_16:A I
*I vs_38_16:A I
*CAP
1 pgm_pp16_9_s2:1 1.331967e-02
*RES
1 lt_pp16_9_s2:Z pgm_pp16_9_s2:1 1.511492e+01
2 pgm_pp16_9_s2:1 vs_47_16:A 1.000000e-03
3 pgm_pp16_9_s2:1 vs_38_16:A 1.000000e-03
*END

*D_NET pgm_pp17_0_s1 1.443584e-02
*CONN
*I lt_pp17_0_s1:Z O
*I vs_25_17:A I
*I vs_23_17:A I
*CAP
1 pgm_pp17_0_s1:1 1.443584e-02
*RES
1 lt_pp17_0_s1:Z pgm_pp17_0_s1:1 1.423344e+01
2 pgm_pp17_0_s1:1 vs_25_17:A 1.000000e-03
3 pgm_pp17_0_s1:1 vs_23_17:A 1.000000e-03
*END

*D_NET pgm_pp17_0_s2 1.966547e-02
*CONN
*I lt_pp17_0_s2:Z O
*I vs_44_17:A I
*I vs_33_17:A I
*CAP
1 pgm_pp17_0_s2:1 1.966547e-02
*RES
1 lt_pp17_0_s2:Z pgm_pp17_0_s2:1 2.231603e+01
2 pgm_pp17_0_s2:1 vs_44_17:A 1.000000e-03
3 pgm_pp17_0_s2:1 vs_33_17:A 1.000000e-03
*END

*D_NET pgm_pp17_0_s3 1.771611e-03
*CONN
*I lt_pp17_0_s3:Z O
*I vs_48_17:A I
*CAP
1 pgm_pp17_0_s3:1 1.771611e-03
*RES
1 lt_pp17_0_s3:Z pgm_pp17_0_s3:1 2.010392e+00
2 pgm_pp17_0_s3:1 vs_48_17:A 1.000000e-03
*END

*D_NET pgm_pp17_10_s0 1.058243e-02
*CONN
*I lt_pp17_10_s0:Z O
*I vs_6_17:A I
*CAP
1 pgm_pp17_10_s0:1 1.058243e-02
*RES
1 lt_pp17_10_s0:Z pgm_pp17_10_s0:1 1.014862e+01
2 pgm_pp17_10_s0:1 vs_6_17:A 1.000000e-03
*END

*D_NET pgm_pp17_10_s1 1.030675e-02
*CONN
*I lt_pp17_10_s1:Z O
*I vs_21_17:A I
*CAP
1 pgm_pp17_10_s1:1 1.030675e-02
*RES
1 lt_pp17_10_s1:Z pgm_pp17_10_s1:1 1.169591e+01
2 pgm_pp17_10_s1:1 vs_21_17:A 1.000000e-03
*END

*D_NET pgm_pp17_10_s3 1.820951e-03
*CONN
*I lt_pp17_10_s3:Z O
*I vs_60_17:A I
*CAP
1 pgm_pp17_10_s3:1 1.820951e-03
*RES
1 lt_pp17_10_s3:Z pgm_pp17_10_s3:1 7.821683e-01
2 pgm_pp17_10_s3:1 vs_60_17:A 1.000000e-03
*END

*D_NET pgm_pp17_11_s2 2.382364e-02
*CONN
*I lt_pp17_11_s2:Z O
*I vs_32_17:A I
*CAP
1 pgm_pp17_11_s2:1 2.382364e-02
*RES
1 lt_pp17_11_s2:Z pgm_pp17_11_s2:1 2.086673e+01
2 pgm_pp17_11_s2:1 vs_32_17:A 1.000000e-03
*END

*D_NET pgm_pp17_12_s2 1.297158e-02
*CONN
*I lt_pp17_12_s2:Z O
*I vs_38_17:A I
*CAP
1 pgm_pp17_12_s2:1 1.297158e-02
*RES
1 lt_pp17_12_s2:Z pgm_pp17_12_s2:1 1.329173e+01
2 pgm_pp17_12_s2:1 vs_38_17:A 1.000000e-03
*END

*D_NET pgm_pp17_12_s3 8.017298e-03
*CONN
*I lt_pp17_12_s3:Z O
*I vs_58_17:A I
*CAP
1 pgm_pp17_12_s3:1 8.017298e-03
*RES
1 lt_pp17_12_s3:Z pgm_pp17_12_s3:1 7.381734e+00
2 pgm_pp17_12_s3:1 vs_58_17:A 1.000000e-03
*END

*D_NET pgm_pp17_2_s0 1.439658e-02
*CONN
*I lt_pp17_2_s0:Z O
*I vs_12_17:A I
*CAP
1 pgm_pp17_2_s0:1 1.439658e-02
*RES
1 lt_pp17_2_s0:Z pgm_pp17_2_s0:1 1.490878e+01
2 pgm_pp17_2_s0:1 vs_12_17:A 1.000000e-03
*END

*D_NET pgm_pp17_2_s1 1.229656e-02
*CONN
*I lt_pp17_2_s1:Z O
*I vs_26_17:A I
*CAP
1 pgm_pp17_2_s1:1 1.229656e-02
*RES
1 lt_pp17_2_s1:Z pgm_pp17_2_s1:1 1.266971e+01
2 pgm_pp17_2_s1:1 vs_26_17:A 1.000000e-03
*END

*D_NET pgm_pp17_2_s2 1.796793e-02
*CONN
*I lt_pp17_2_s2:Z O
*I vs_47_17:A I
*CAP
1 pgm_pp17_2_s2:1 1.796793e-02
*RES
1 lt_pp17_2_s2:Z pgm_pp17_2_s2:1 2.038968e+01
2 pgm_pp17_2_s2:1 vs_47_17:A 1.000000e-03
*END

*D_NET pgm_pp17_2_s3 5.649602e-03
*CONN
*I lt_pp17_2_s3:Z O
*I vs_52_17:A I
*I vs_49_17:A I
*CAP
1 pgm_pp17_2_s3:1 5.649602e-03
*RES
1 lt_pp17_2_s3:Z pgm_pp17_2_s3:1 6.411067e+00
2 pgm_pp17_2_s3:1 vs_52_17:A 1.000000e-03
3 pgm_pp17_2_s3:1 vs_49_17:A 1.000000e-03
*END

*D_NET pgm_pp17_3_s2 3.241041e-03
*CONN
*I lt_pp17_3_s2:Z O
*I vs_35_17:A I
*I vs_34_17:A I
*CAP
1 pgm_pp17_3_s2:1 3.241041e-03
*RES
1 lt_pp17_3_s2:Z pgm_pp17_3_s2:1 3.677875e+00
2 pgm_pp17_3_s2:1 vs_35_17:A 1.000000e-03
3 pgm_pp17_3_s2:1 vs_34_17:A 1.000000e-03
*END

*D_NET pgm_pp17_4_s2 1.147399e-02
*CONN
*I lt_pp17_4_s2:Z O
*I vs_45_17:A I
*CAP
1 pgm_pp17_4_s2:1 1.147399e-02
*RES
1 lt_pp17_4_s2:Z pgm_pp17_4_s2:1 1.302048e+01
2 pgm_pp17_4_s2:1 vs_45_17:A 1.000000e-03
*END

*D_NET pgm_pp17_4_s3 3.012924e-03
*CONN
*I lt_pp17_4_s3:Z O
*I vs_51_17:A I
*CAP
1 pgm_pp17_4_s3:1 3.012924e-03
*RES
1 lt_pp17_4_s3:Z pgm_pp17_4_s3:1 3.419012e+00
2 pgm_pp17_4_s3:1 vs_51_17:A 1.000000e-03
*END

*D_NET pgm_pp17_5_s3 2.725555e-04
*CONN
*I lt_pp17_5_s3:Z O
*I vs_54_17:A I
*CAP
1 pgm_pp17_5_s3:1 2.725555e-04
*RES
1 lt_pp17_5_s3:Z pgm_pp17_5_s3:1 3.092911e-01
2 pgm_pp17_5_s3:1 vs_54_17:A 1.000000e-03
*END

*D_NET pgm_pp17_6_s0 2.342254e-02
*CONN
*I lt_pp17_6_s0:Z O
*I vs_15_17:A I
*I vs_2_17:A I
*CAP
1 pgm_pp17_6_s0:1 2.342254e-02
*RES
1 lt_pp17_6_s0:Z pgm_pp17_6_s0:1 2.408709e+01
2 pgm_pp17_6_s0:1 vs_15_17:A 1.000000e-03
3 pgm_pp17_6_s0:1 vs_2_17:A 1.000000e-03
*END

*D_NET pgm_pp17_6_s1 5.646639e-03
*CONN
*I lt_pp17_6_s1:Z O
*I vs_27_17:A I
*CAP
1 pgm_pp17_6_s1:1 5.646639e-03
*RES
1 lt_pp17_6_s1:Z pgm_pp17_6_s1:1 6.407705e+00
2 pgm_pp17_6_s1:1 vs_27_17:A 1.000000e-03
*END

*D_NET pgm_pp17_6_s2 3.904654e-03
*CONN
*I lt_pp17_6_s2:Z O
*I vs_39_17:A I
*I vs_37_17:A I
*CAP
1 pgm_pp17_6_s2:1 3.904654e-03
*RES
1 lt_pp17_6_s2:Z pgm_pp17_6_s2:1 4.430931e+00
2 pgm_pp17_6_s2:1 vs_39_17:A 1.000000e-03
3 pgm_pp17_6_s2:1 vs_37_17:A 1.000000e-03
*END

*D_NET pgm_pp17_7_s0 6.564896e-03
*CONN
*I lt_pp17_7_s0:Z O
*I vs_5_17:A I
*CAP
1 pgm_pp17_7_s0:1 6.564896e-03
*RES
1 lt_pp17_7_s0:Z pgm_pp17_7_s0:1 6.453470e+00
2 pgm_pp17_7_s0:1 vs_5_17:A 1.000000e-03
*END

*D_NET pgm_pp17_7_s1 6.754637e-04
*CONN
*I lt_pp17_7_s1:Z O
*I vs_24_17:A I
*CAP
1 pgm_pp17_7_s1:1 6.754637e-04
*RES
1 lt_pp17_7_s1:Z pgm_pp17_7_s1:1 7.665041e-01
2 pgm_pp17_7_s1:1 vs_24_17:A 1.000000e-03
*END

*D_NET pgm_pp17_7_s3 4.977101e-03
*CONN
*I lt_pp17_7_s3:Z O
*I vs_53_17:A I
*CAP
1 pgm_pp17_7_s3:1 4.977101e-03
*RES
1 lt_pp17_7_s3:Z pgm_pp17_7_s3:1 5.647925e+00
2 pgm_pp17_7_s3:1 vs_53_17:A 1.000000e-03
*END

*D_NET pgm_pp17_8_s0 2.373011e-03
*CONN
*I lt_pp17_8_s0:Z O
*I vs_11_17:A I
*CAP
1 pgm_pp17_8_s0:1 2.373011e-03
*RES
1 lt_pp17_8_s0:Z pgm_pp17_8_s0:1 2.692850e+00
2 pgm_pp17_8_s0:1 vs_11_17:A 1.000000e-03
*END

*D_NET pgm_pp17_8_s2 9.098022e-03
*CONN
*I lt_pp17_8_s2:Z O
*I vs_42_17:A I
*I vs_36_17:A I
*CAP
1 pgm_pp17_8_s2:1 9.098022e-03
*RES
1 lt_pp17_8_s2:Z pgm_pp17_8_s2:1 1.032427e+01
2 pgm_pp17_8_s2:1 vs_42_17:A 1.000000e-03
3 pgm_pp17_8_s2:1 vs_36_17:A 1.000000e-03
*END

*D_NET pgm_pp17_9_s1 3.451382e-03
*CONN
*I lt_pp17_9_s1:Z O
*I vs_29_17:A I
*CAP
1 pgm_pp17_9_s1:1 3.451382e-03
*RES
1 lt_pp17_9_s1:Z pgm_pp17_9_s1:1 3.916567e+00
2 pgm_pp17_9_s1:1 vs_29_17:A 1.000000e-03
*END

*D_NET pgm_pp18_0_s0 1.184152e-02
*CONN
*I lt_pp18_0_s0:Z O
*I vs_7_18:A I
*I vs_3_18:A I
*CAP
1 pgm_pp18_0_s0:1 1.184152e-02
*RES
1 lt_pp18_0_s0:Z pgm_pp18_0_s0:1 1.157741e+01
2 pgm_pp18_0_s0:1 vs_7_18:A 1.000000e-03
3 pgm_pp18_0_s0:1 vs_3_18:A 1.000000e-03
*END

*D_NET pgm_pp18_0_s2 2.108175e-02
*CONN
*I lt_pp18_0_s2:Z O
*I vs_46_18:A I
*CAP
1 pgm_pp18_0_s2:1 2.108175e-02
*RES
1 lt_pp18_0_s2:Z pgm_pp18_0_s2:1 2.206305e+01
2 pgm_pp18_0_s2:1 vs_46_18:A 1.000000e-03
*END

*D_NET pgm_pp18_11_s0 1.129658e-02
*CONN
*I lt_pp18_11_s0:Z O
*I vs_8_18:A I
*CAP
1 pgm_pp18_11_s0:1 1.129658e-02
*RES
1 lt_pp18_11_s0:Z pgm_pp18_11_s0:1 9.098889e+00
2 pgm_pp18_11_s0:1 vs_8_18:A 1.000000e-03
*END

*D_NET pgm_pp18_11_s1 1.791003e-02
*CONN
*I lt_pp18_11_s1:Z O
*I vs_20_18:A I
*CAP
1 pgm_pp18_11_s1:1 1.791003e-02
*RES
1 lt_pp18_11_s1:Z pgm_pp18_11_s1:1 1.788794e+01
2 pgm_pp18_11_s1:1 vs_20_18:A 1.000000e-03
*END

*D_NET pgm_pp18_11_s3 3.377318e-03
*CONN
*I lt_pp18_11_s3:Z O
*I vs_63_18:A I
*CAP
1 pgm_pp18_11_s3:1 3.377318e-03
*RES
1 lt_pp18_11_s3:Z pgm_pp18_11_s3:1 3.832520e+00
2 pgm_pp18_11_s3:1 vs_63_18:A 1.000000e-03
*END

*D_NET pgm_pp18_12_s0 6.177991e-03
*CONN
*I lt_pp18_12_s0:Z O
*I vs_11_18:A I
*CAP
1 pgm_pp18_12_s0:1 6.177991e-03
*RES
1 lt_pp18_12_s0:Z pgm_pp18_12_s0:1 5.438500e+00
2 pgm_pp18_12_s0:1 vs_11_18:A 1.000000e-03
*END

*D_NET pgm_pp18_12_s2 1.261162e-02
*CONN
*I lt_pp18_12_s2:Z O
*I vs_39_18:A I
*CAP
1 pgm_pp18_12_s2:1 1.261162e-02
*RES
1 lt_pp18_12_s2:Z pgm_pp18_12_s2:1 1.431144e+01
2 pgm_pp18_12_s2:1 vs_39_18:A 1.000000e-03
*END

*D_NET pgm_pp18_1_s1 2.011874e-02
*CONN
*I lt_pp18_1_s1:Z O
*I vs_31_18:A I
*CAP
1 pgm_pp18_1_s1:1 2.011874e-02
*RES
1 lt_pp18_1_s1:Z pgm_pp18_1_s1:1 2.283039e+01
2 pgm_pp18_1_s1:1 vs_31_18:A 1.000000e-03
*END

*D_NET pgm_pp18_1_s2 4.118569e-03
*CONN
*I lt_pp18_1_s2:Z O
*I vs_35_18:A I
*CAP
1 pgm_pp18_1_s2:1 4.118569e-03
*RES
1 lt_pp18_1_s2:Z pgm_pp18_1_s2:1 2.957526e+00
2 pgm_pp18_1_s2:1 vs_35_18:A 1.000000e-03
*END

*D_NET pgm_pp18_2_s0 2.050272e-02
*CONN
*I lt_pp18_2_s0:Z O
*I vs_15_18:A I
*CAP
1 pgm_pp18_2_s0:1 2.050272e-02
*RES
1 lt_pp18_2_s0:Z pgm_pp18_2_s0:1 2.097405e+01
2 pgm_pp18_2_s0:1 vs_15_18:A 1.000000e-03
*END

*D_NET pgm_pp18_2_s1 1.850476e-02
*CONN
*I lt_pp18_2_s1:Z O
*I vs_30_18:A I
*I vs_27_18:A I
*CAP
1 pgm_pp18_2_s1:1 1.850476e-02
*RES
1 lt_pp18_2_s1:Z pgm_pp18_2_s1:1 1.928272e+01
2 pgm_pp18_2_s1:1 vs_30_18:A 1.000000e-03
3 pgm_pp18_2_s1:1 vs_27_18:A 1.000000e-03
*END

*D_NET pgm_pp18_3_s2 9.198611e-03
*CONN
*I lt_pp18_3_s2:Z O
*I vs_41_18:A I
*CAP
1 pgm_pp18_3_s2:1 9.198611e-03
*RES
1 lt_pp18_3_s2:Z pgm_pp18_3_s2:1 9.442164e+00
2 pgm_pp18_3_s2:1 vs_41_18:A 1.000000e-03
*END

*D_NET pgm_pp18_3_s3 5.702928e-03
*CONN
*I lt_pp18_3_s3:Z O
*I vs_48_18:A I
*CAP
1 pgm_pp18_3_s3:1 5.702928e-03
*RES
1 lt_pp18_3_s3:Z pgm_pp18_3_s3:1 6.471580e+00
2 pgm_pp18_3_s3:1 vs_48_18:A 1.000000e-03
*END

*D_NET pgm_pp18_4_s0 7.734221e-03
*CONN
*I lt_pp18_4_s0:Z O
*I vs_9_18:A I
*CAP
1 pgm_pp18_4_s0:1 7.734221e-03
*RES
1 lt_pp18_4_s0:Z pgm_pp18_4_s0:1 7.492441e+00
2 pgm_pp18_4_s0:1 vs_9_18:A 1.000000e-03
*END

*D_NET pgm_pp18_4_s1 5.249656e-03
*CONN
*I lt_pp18_4_s1:Z O
*I vs_24_18:A I
*CAP
1 pgm_pp18_4_s1:1 5.249656e-03
*RES
1 lt_pp18_4_s1:Z pgm_pp18_4_s1:1 5.957216e+00
2 pgm_pp18_4_s1:1 vs_24_18:A 1.000000e-03
*END

*D_NET pgm_pp18_5_s3 9.915688e-03
*CONN
*I lt_pp18_5_s3:Z O
*I vs_60_18:A I
*CAP
1 pgm_pp18_5_s3:1 9.915688e-03
*RES
1 lt_pp18_5_s3:Z pgm_pp18_5_s3:1 1.125215e+01
2 pgm_pp18_5_s3:1 vs_60_18:A 1.000000e-03
*END

*D_NET pgm_pp18_6_s0 1.602745e-02
*CONN
*I lt_pp18_6_s0:Z O
*I vs_14_18:A I
*I vs_4_18:A I
*CAP
1 pgm_pp18_6_s0:1 1.602745e-02
*RES
1 lt_pp18_6_s0:Z pgm_pp18_6_s0:1 1.818766e+01
2 pgm_pp18_6_s0:1 vs_14_18:A 1.000000e-03
3 pgm_pp18_6_s0:1 vs_4_18:A 1.000000e-03
*END

*D_NET pgm_pp18_6_s3 1.522061e-02
*CONN
*I lt_pp18_6_s3:Z O
*I vs_58_18:A I
*I vs_56_18:A I
*I vs_49_18:A I
*CAP
1 pgm_pp18_6_s3:1 1.522061e-02
*RES
1 lt_pp18_6_s3:Z pgm_pp18_6_s3:1 1.598786e+01
2 pgm_pp18_6_s3:1 vs_58_18:A 1.000000e-03
3 pgm_pp18_6_s3:1 vs_56_18:A 1.000000e-03
4 pgm_pp18_6_s3:1 vs_49_18:A 1.000000e-03
*END

*D_NET pgm_pp18_7_s2 4.449765e-03
*CONN
*I lt_pp18_7_s2:Z O
*I vs_38_18:A I
*CAP
1 pgm_pp18_7_s2:1 4.449765e-03
*RES
1 lt_pp18_7_s2:Z pgm_pp18_7_s2:1 5.049514e+00
2 pgm_pp18_7_s2:1 vs_38_18:A 1.000000e-03
*END

*D_NET pgm_pp18_8_s1 3.362506e-03
*CONN
*I lt_pp18_8_s1:Z O
*I vs_25_18:A I
*CAP
1 pgm_pp18_8_s1:1 3.362506e-03
*RES
1 lt_pp18_8_s1:Z pgm_pp18_8_s1:1 3.815711e+00
2 pgm_pp18_8_s1:1 vs_25_18:A 1.000000e-03
*END

*D_NET pgm_pp18_8_s2 2.912196e-03
*CONN
*I lt_pp18_8_s2:Z O
*I vs_40_18:A I
*CAP
1 pgm_pp18_8_s2:1 2.912196e-03
*RES
1 lt_pp18_8_s2:Z pgm_pp18_8_s2:1 3.304708e+00
2 pgm_pp18_8_s2:1 vs_40_18:A 1.000000e-03
*END

*D_NET pgm_pp18_8_s3 1.014084e-02
*CONN
*I lt_pp18_8_s3:Z O
*I vs_51_18:A I
*CAP
1 pgm_pp18_8_s3:1 1.014084e-02
*RES
1 lt_pp18_8_s3:Z pgm_pp18_8_s3:1 1.150765e+01
2 pgm_pp18_8_s3:1 vs_51_18:A 1.000000e-03
*END

*D_NET pgm_pp18_9_s2 1.386484e-02
*CONN
*I lt_pp18_9_s2:Z O
*I vs_37_18:A I
*CAP
1 pgm_pp18_9_s2:1 1.386484e-02
*RES
1 lt_pp18_9_s2:Z pgm_pp18_9_s2:1 9.997598e+00
2 pgm_pp18_9_s2:1 vs_37_18:A 1.000000e-03
*END

*D_NET pgm_pp19_0_s0 1.948537e-02
*CONN
*I lt_pp19_0_s0:Z O
*I vs_13_19:A I
*CAP
1 pgm_pp19_0_s0:1 1.948537e-02
*RES
1 lt_pp19_0_s0:Z pgm_pp19_0_s0:1 2.039549e+01
2 pgm_pp19_0_s0:1 vs_13_19:A 1.000000e-03
*END

*D_NET pgm_pp19_0_s2 1.434718e-02
*CONN
*I lt_pp19_0_s2:Z O
*I vs_41_19:A I
*CAP
1 pgm_pp19_0_s2:1 1.434718e-02
*RES
1 lt_pp19_0_s2:Z pgm_pp19_0_s2:1 1.420482e+01
2 pgm_pp19_0_s2:1 vs_41_19:A 1.000000e-03
*END

*D_NET pgm_pp19_0_s3 1.638697e-02
*CONN
*I lt_pp19_0_s3:Z O
*I vs_59_19:A I
*CAP
1 pgm_pp19_0_s3:1 1.638697e-02
*RES
1 lt_pp19_0_s3:Z pgm_pp19_0_s3:1 1.702347e+01
2 pgm_pp19_0_s3:1 vs_59_19:A 1.000000e-03
*END

*D_NET pgm_pp19_11_s0 1.548799e-02
*CONN
*I lt_pp19_11_s0:Z O
*I vs_4_19:A I
*CAP
1 pgm_pp19_11_s0:1 1.548799e-02
*RES
1 lt_pp19_11_s0:Z pgm_pp19_11_s0:1 1.557138e+01
2 pgm_pp19_11_s0:1 vs_4_19:A 1.000000e-03
*END

*D_NET pgm_pp19_12_s3 1.023033e-02
*CONN
*I lt_pp19_12_s3:Z O
*I vs_57_19:A I
*CAP
1 pgm_pp19_12_s3:1 1.023033e-02
*RES
1 lt_pp19_12_s3:Z pgm_pp19_12_s3:1 9.893043e+00
2 pgm_pp19_12_s3:1 vs_57_19:A 1.000000e-03
*END

*D_NET pgm_pp19_1_s2 6.390921e-03
*CONN
*I lt_pp19_1_s2:Z O
*I vs_37_19:A I
*CAP
1 pgm_pp19_1_s2:1 6.390921e-03
*RES
1 lt_pp19_1_s2:Z pgm_pp19_1_s2:1 5.767769e+00
2 pgm_pp19_1_s2:1 vs_37_19:A 1.000000e-03
*END

*D_NET pgm_pp19_1_s3 8.653363e-03
*CONN
*I lt_pp19_1_s3:Z O
*I vs_54_19:A I
*CAP
1 pgm_pp19_1_s3:1 8.653363e-03
*RES
1 lt_pp19_1_s3:Z pgm_pp19_1_s3:1 7.815570e+00
2 pgm_pp19_1_s3:1 vs_54_19:A 1.000000e-03
*END

*D_NET pgm_pp19_2_s3 1.546456e-02
*CONN
*I lt_pp19_2_s3:Z O
*I vs_61_19:A I
*CAP
1 pgm_pp19_2_s3:1 1.546456e-02
*RES
1 lt_pp19_2_s3:Z pgm_pp19_2_s3:1 1.754891e+01
2 pgm_pp19_2_s3:1 vs_61_19:A 1.000000e-03
*END

*D_NET pgm_pp19_3_s0 1.209910e-02
*CONN
*I lt_pp19_3_s0:Z O
*I vs_12_19:A I
*CAP
1 pgm_pp19_3_s0:1 1.209910e-02
*RES
1 lt_pp19_3_s0:Z pgm_pp19_3_s0:1 1.372984e+01
2 pgm_pp19_3_s0:1 vs_12_19:A 1.000000e-03
*END

*D_NET pgm_pp19_3_s2 1.417585e-02
*CONN
*I lt_pp19_3_s2:Z O
*I vs_45_19:A I
*CAP
1 pgm_pp19_3_s2:1 1.417585e-02
*RES
1 lt_pp19_3_s2:Z pgm_pp19_3_s2:1 1.608650e+01
2 pgm_pp19_3_s2:1 vs_45_19:A 1.000000e-03
*END

*D_NET pgm_pp19_4_s1 6.085098e-03
*CONN
*I lt_pp19_4_s1:Z O
*I vs_25_19:A I
*CAP
1 pgm_pp19_4_s1:1 6.085098e-03
*RES
1 lt_pp19_4_s1:Z pgm_pp19_4_s1:1 6.905260e+00
2 pgm_pp19_4_s1:1 vs_25_19:A 1.000000e-03
*END

*D_NET pgm_pp19_4_s2 7.444913e-03
*CONN
*I lt_pp19_4_s2:Z O
*I vs_42_19:A I
*CAP
1 pgm_pp19_4_s2:1 7.444913e-03
*RES
1 lt_pp19_4_s2:Z pgm_pp19_4_s2:1 8.448354e+00
2 pgm_pp19_4_s2:1 vs_42_19:A 1.000000e-03
*END

*D_NET pgm_pp19_4_s3 5.794767e-03
*CONN
*I lt_pp19_4_s3:Z O
*I vs_56_19:A I
*CAP
1 pgm_pp19_4_s3:1 5.794767e-03
*RES
1 lt_pp19_4_s3:Z pgm_pp19_4_s3:1 6.575798e+00
2 pgm_pp19_4_s3:1 vs_56_19:A 1.000000e-03
*END

*D_NET pgm_pp19_5_s2 9.148385e-03
*CONN
*I lt_pp19_5_s2:Z O
*I vs_32_19:A I
*CAP
1 pgm_pp19_5_s2:1 9.148385e-03
*RES
1 lt_pp19_5_s2:Z pgm_pp19_5_s2:1 1.038142e+01
2 pgm_pp19_5_s2:1 vs_32_19:A 1.000000e-03
*END

*D_NET pgm_pp19_5_s3 1.430916e-03
*CONN
*I lt_pp19_5_s3:Z O
*I vs_53_19:A I
*CAP
1 pgm_pp19_5_s3:1 1.430916e-03
*RES
1 lt_pp19_5_s3:Z pgm_pp19_5_s3:1 1.623778e+00
2 pgm_pp19_5_s3:1 vs_53_19:A 1.000000e-03
*END

*D_NET pgm_pp19_6_s1 1.799755e-02
*CONN
*I lt_pp19_6_s1:Z O
*I vs_27_19:A I
*I vs_26_19:A I
*I vs_16_19:A I
*CAP
1 pgm_pp19_6_s1:1 1.799755e-02
*RES
1 lt_pp19_6_s1:Z pgm_pp19_6_s1:1 2.042330e+01
2 pgm_pp19_6_s1:1 vs_27_19:A 1.000000e-03
3 pgm_pp19_6_s1:1 vs_26_19:A 1.000000e-03
4 pgm_pp19_6_s1:1 vs_16_19:A 1.000000e-03
*END

*D_NET pgm_pp19_6_s2 1.160397e-02
*CONN
*I lt_pp19_6_s2:Z O
*I vs_46_19:A I
*I vs_38_19:A I
*CAP
1 pgm_pp19_6_s2:1 1.160397e-02
*RES
1 lt_pp19_6_s2:Z pgm_pp19_6_s2:1 1.217798e+01
2 pgm_pp19_6_s2:1 vs_46_19:A 1.000000e-03
3 pgm_pp19_6_s2:1 vs_38_19:A 1.000000e-03
*END

*D_NET pgm_pp19_7_s2 3.309180e-03
*CONN
*I lt_pp19_7_s2:Z O
*I vs_43_19:A I
*CAP
1 pgm_pp19_7_s2:1 3.309180e-03
*RES
1 lt_pp19_7_s2:Z pgm_pp19_7_s2:1 3.755198e+00
2 pgm_pp19_7_s2:1 vs_43_19:A 1.000000e-03
*END

*D_NET pgm_pp19_8_s3 7.530828e-03
*CONN
*I lt_pp19_8_s3:Z O
*I vs_63_19:A I
*I vs_62_19:A I
*I vs_60_19:A I
*CAP
1 pgm_pp19_8_s3:1 7.530828e-03
*RES
1 lt_pp19_8_s3:Z pgm_pp19_8_s3:1 8.545848e+00
2 pgm_pp19_8_s3:1 vs_63_19:A 1.000000e-03
3 pgm_pp19_8_s3:1 vs_62_19:A 1.000000e-03
4 pgm_pp19_8_s3:1 vs_60_19:A 1.000000e-03
*END

*D_NET pgm_pp19_9_s1 1.021685e-02
*CONN
*I lt_pp19_9_s1:Z O
*I vs_22_19:A I
*CAP
1 pgm_pp19_9_s1:1 1.021685e-02
*RES
1 lt_pp19_9_s1:Z pgm_pp19_9_s1:1 1.030968e+01
2 pgm_pp19_9_s1:1 vs_22_19:A 1.000000e-03
*END

*D_NET pgm_pp19_9_s2 5.430235e-03
*CONN
*I lt_pp19_9_s2:Z O
*I vs_40_19:A I
*CAP
1 pgm_pp19_9_s2:1 5.430235e-03
*RES
1 lt_pp19_9_s2:Z pgm_pp19_9_s2:1 5.165878e+00
2 pgm_pp19_9_s2:1 vs_40_19:A 1.000000e-03
*END

*D_NET pgm_pp1_0_s0 1.948537e-02
*CONN
*I lt_pp1_0_s0:Z O
*I vs_13_1:A I
*CAP
1 pgm_pp1_0_s0:1 1.948537e-02
*RES
1 lt_pp1_0_s0:Z pgm_pp1_0_s0:1 2.039549e+01
2 pgm_pp1_0_s0:1 vs_13_1:A 1.000000e-03
*END

*D_NET pgm_pp1_0_s2 1.799387e-02
*CONN
*I lt_pp1_0_s2:Z O
*I vs_43_1:A I
*I vs_39_1:A I
*CAP
1 pgm_pp1_0_s2:1 1.799387e-02
*RES
1 lt_pp1_0_s2:Z pgm_pp1_0_s2:1 1.827103e+01
2 pgm_pp1_0_s2:1 vs_43_1:A 1.000000e-03
3 pgm_pp1_0_s2:1 vs_39_1:A 1.000000e-03
*END

*D_NET pgm_pp1_0_s3 2.035575e-02
*CONN
*I lt_pp1_0_s3:Z O
*I vs_62_1:A I
*CAP
1 pgm_pp1_0_s3:1 2.035575e-02
*RES
1 lt_pp1_0_s3:Z pgm_pp1_0_s3:1 2.309934e+01
2 pgm_pp1_0_s3:1 vs_62_1:A 1.000000e-03
*END

*D_NET pgm_pp1_10_s0 1.593561e-02
*CONN
*I lt_pp1_10_s0:Z O
*I vs_7_1:A I
*I vs_2_1:A I
*CAP
1 pgm_pp1_10_s0:1 1.593561e-02
*RES
1 lt_pp1_10_s0:Z pgm_pp1_10_s0:1 1.808344e+01
2 pgm_pp1_10_s0:1 vs_7_1:A 1.000000e-03
3 pgm_pp1_10_s0:1 vs_2_1:A 1.000000e-03
*END

*D_NET pgm_pp1_10_s2 8.096096e-03
*CONN
*I lt_pp1_10_s2:Z O
*I vs_44_1:A I
*I vs_40_1:A I
*CAP
1 pgm_pp1_10_s2:1 8.096096e-03
*RES
1 lt_pp1_10_s2:Z pgm_pp1_10_s2:1 8.047070e+00
2 pgm_pp1_10_s2:1 vs_44_1:A 1.000000e-03
3 pgm_pp1_10_s2:1 vs_40_1:A 1.000000e-03
*END

*D_NET pgm_pp1_11_s2 7.047350e-03
*CONN
*I lt_pp1_11_s2:Z O
*I vs_41_1:A I
*CAP
1 pgm_pp1_11_s2:1 7.047350e-03
*RES
1 lt_pp1_11_s2:Z pgm_pp1_11_s2:1 6.856971e+00
2 pgm_pp1_11_s2:1 vs_41_1:A 1.000000e-03
*END

*D_NET pgm_pp1_11_s3 1.824450e-02
*CONN
*I lt_pp1_11_s3:Z O
*I vs_63_1:A I
*I vs_55_1:A I
*I vs_52_1:A I
*CAP
1 pgm_pp1_11_s3:1 1.824450e-02
*RES
1 lt_pp1_11_s3:Z pgm_pp1_11_s3:1 1.913136e+01
2 pgm_pp1_11_s3:1 vs_63_1:A 1.000000e-03
3 pgm_pp1_11_s3:1 vs_55_1:A 1.000000e-03
4 pgm_pp1_11_s3:1 vs_52_1:A 1.000000e-03
*END

*D_NET pgm_pp1_1_s0 5.724720e-03
*CONN
*I lt_pp1_1_s0:Z O
*I vs_4_1:A I
*CAP
1 pgm_pp1_1_s0:1 5.724720e-03
*RES
1 lt_pp1_1_s0:Z pgm_pp1_1_s0:1 4.924136e+00
2 pgm_pp1_1_s0:1 vs_4_1:A 1.000000e-03
*END

*D_NET pgm_pp1_1_s1 1.721247e-02
*CONN
*I lt_pp1_1_s1:Z O
*I vs_29_1:A I
*CAP
1 pgm_pp1_1_s1:1 1.721247e-02
*RES
1 lt_pp1_1_s1:Z pgm_pp1_1_s1:1 1.953241e+01
2 pgm_pp1_1_s1:1 vs_29_1:A 1.000000e-03
*END

*D_NET pgm_pp1_1_s3 1.984979e-02
*CONN
*I lt_pp1_1_s3:Z O
*I vs_59_1:A I
*CAP
1 pgm_pp1_1_s3:1 1.984979e-02
*RES
1 lt_pp1_1_s3:Z pgm_pp1_1_s3:1 1.794105e+01
2 pgm_pp1_1_s3:1 vs_59_1:A 1.000000e-03
*END

*D_NET pgm_pp1_2_s1 3.996493e-03
*CONN
*I lt_pp1_2_s1:Z O
*I vs_16_1:A I
*CAP
1 pgm_pp1_2_s1:1 3.996493e-03
*RES
1 lt_pp1_2_s1:Z pgm_pp1_2_s1:1 4.535149e+00
2 pgm_pp1_2_s1:1 vs_16_1:A 1.000000e-03
*END

*D_NET pgm_pp1_2_s3 8.931095e-03
*CONN
*I lt_pp1_2_s3:Z O
*I vs_56_1:A I
*CAP
1 pgm_pp1_2_s3:1 8.931095e-03
*RES
1 lt_pp1_2_s3:Z pgm_pp1_2_s3:1 8.850632e+00
2 pgm_pp1_2_s3:1 vs_56_1:A 1.000000e-03
*END

*D_NET pgm_pp1_4_s1 9.800897e-03
*CONN
*I lt_pp1_4_s1:Z O
*I vs_27_1:A I
*CAP
1 pgm_pp1_4_s1:1 9.800897e-03
*RES
1 lt_pp1_4_s1:Z pgm_pp1_4_s1:1 1.041359e+01
2 pgm_pp1_4_s1:1 vs_27_1:A 1.000000e-03
*END

*D_NET pgm_pp1_5_s0 6.855364e-03
*CONN
*I lt_pp1_5_s0:Z O
*I vs_1_1:A I
*CAP
1 pgm_pp1_5_s0:1 6.855364e-03
*RES
1 lt_pp1_5_s0:Z pgm_pp1_5_s0:1 7.779344e+00
2 pgm_pp1_5_s0:1 vs_1_1:A 1.000000e-03
*END

*D_NET pgm_pp1_5_s1 9.098022e-03
*CONN
*I lt_pp1_5_s1:Z O
*I vs_28_1:A I
*CAP
1 pgm_pp1_5_s1:1 9.098022e-03
*RES
1 lt_pp1_5_s1:Z pgm_pp1_5_s1:1 1.032427e+01
2 pgm_pp1_5_s1:1 vs_28_1:A 1.000000e-03
*END

*D_NET pgm_pp1_6_s1 2.207107e-03
*CONN
*I lt_pp1_6_s1:Z O
*I vs_22_1:A I
*CAP
1 pgm_pp1_6_s1:1 2.207107e-03
*RES
1 lt_pp1_6_s1:Z pgm_pp1_6_s1:1 2.504586e+00
2 pgm_pp1_6_s1:1 vs_22_1:A 1.000000e-03
*END

*D_NET pgm_pp1_6_s2 2.156744e-03
*CONN
*I lt_pp1_6_s2:Z O
*I vs_38_1:A I
*CAP
1 pgm_pp1_6_s2:1 2.156744e-03
*RES
1 lt_pp1_6_s2:Z pgm_pp1_6_s2:1 2.447434e+00
2 pgm_pp1_6_s2:1 vs_38_1:A 1.000000e-03
*END

*D_NET pgm_pp1_7_s1 2.020466e-03
*CONN
*I lt_pp1_7_s1:Z O
*I vs_23_1:A I
*CAP
1 pgm_pp1_7_s1:1 2.020466e-03
*RES
1 lt_pp1_7_s1:Z pgm_pp1_7_s1:1 2.292789e+00
2 pgm_pp1_7_s1:1 vs_23_1:A 1.000000e-03
*END

*D_NET pgm_pp1_8_s1 1.196282e-02
*CONN
*I lt_pp1_8_s1:Z O
*I vs_17_1:A I
*CAP
1 pgm_pp1_8_s1:1 1.196282e-02
*RES
1 lt_pp1_8_s1:Z pgm_pp1_8_s1:1 1.357519e+01
2 pgm_pp1_8_s1:1 vs_17_1:A 1.000000e-03
*END

*D_NET pgm_pp1_8_s3 3.581735e-03
*CONN
*I lt_pp1_8_s3:Z O
*I vs_60_1:A I
*CAP
1 pgm_pp1_8_s3:1 3.581735e-03
*RES
1 lt_pp1_8_s3:Z pgm_pp1_8_s3:1 4.064489e+00
2 pgm_pp1_8_s3:1 vs_60_1:A 1.000000e-03
*END

*D_NET pgm_pp1_9_s0 7.127919e-03
*CONN
*I lt_pp1_9_s0:Z O
*I vs_6_1:A I
*CAP
1 pgm_pp1_9_s0:1 7.127919e-03
*RES
1 lt_pp1_9_s0:Z pgm_pp1_9_s0:1 8.088635e+00
2 pgm_pp1_9_s0:1 vs_6_1:A 1.000000e-03
*END

*D_NET pgm_pp1_9_s1 3.149201e-03
*CONN
*I lt_pp1_9_s1:Z O
*I vs_25_1:A I
*CAP
1 pgm_pp1_9_s1:1 3.149201e-03
*RES
1 lt_pp1_9_s1:Z pgm_pp1_9_s1:1 3.573657e+00
2 pgm_pp1_9_s1:1 vs_25_1:A 1.000000e-03
*END

*D_NET pgm_pp1_9_s3 1.291084e-02
*CONN
*I lt_pp1_9_s3:Z O
*I vs_50_1:A I
*CAP
1 pgm_pp1_9_s3:1 1.291084e-02
*RES
1 lt_pp1_9_s3:Z pgm_pp1_9_s3:1 1.465099e+01
2 pgm_pp1_9_s3:1 vs_50_1:A 1.000000e-03
*END

*D_NET pgm_pp20_0_s3 3.383244e-03
*CONN
*I lt_pp20_0_s3:Z O
*I vs_49_20:A I
*CAP
1 pgm_pp20_0_s3:1 3.383244e-03
*RES
1 lt_pp20_0_s3:Z pgm_pp20_0_s3:1 3.839244e+00
2 pgm_pp20_0_s3:1 vs_49_20:A 1.000000e-03
*END

*D_NET pgm_pp20_10_s1 1.090222e-03
*CONN
*I lt_pp20_10_s1:Z O
*I vs_28_20:A I
*CAP
1 pgm_pp20_10_s1:1 1.090222e-03
*RES
1 lt_pp20_10_s1:Z pgm_pp20_10_s1:1 1.237164e+00
2 pgm_pp20_10_s1:1 vs_28_20:A 1.000000e-03
*END

*D_NET pgm_pp20_12_s2 2.261026e-02
*CONN
*I lt_pp20_12_s2:Z O
*I vs_42_20:A I
*I vs_32_20:A I
*CAP
1 pgm_pp20_12_s2:1 2.261026e-02
*RES
1 lt_pp20_12_s2:Z pgm_pp20_12_s2:1 2.565772e+01
2 pgm_pp20_12_s2:1 vs_42_20:A 1.000000e-03
3 pgm_pp20_12_s2:1 vs_32_20:A 1.000000e-03
*END

*D_NET pgm_pp20_1_s2 1.230753e-02
*CONN
*I lt_pp20_1_s2:Z O
*I vs_41_20:A I
*I vs_40_20:A I
*I vs_38_20:A I
*CAP
1 pgm_pp20_1_s2:1 1.230753e-02
*RES
1 lt_pp20_1_s2:Z pgm_pp20_1_s2:1 1.239419e+01
2 pgm_pp20_1_s2:1 vs_41_20:A 1.000000e-03
3 pgm_pp20_1_s2:1 vs_40_20:A 1.000000e-03
4 pgm_pp20_1_s2:1 vs_38_20:A 1.000000e-03
*END

*D_NET pgm_pp20_2_s0 1.211687e-02
*CONN
*I lt_pp20_2_s0:Z O
*I vs_9_20:A I
*I vs_6_20:A I
*CAP
1 pgm_pp20_2_s0:1 1.211687e-02
*RES
1 lt_pp20_2_s0:Z pgm_pp20_2_s0:1 1.375001e+01
2 pgm_pp20_2_s0:1 vs_9_20:A 1.000000e-03
3 pgm_pp20_2_s0:1 vs_6_20:A 1.000000e-03
*END

*D_NET pgm_pp20_2_s1 2.349310e-03
*CONN
*I lt_pp20_2_s1:Z O
*I vs_19_20:A I
*CAP
1 pgm_pp20_2_s1:1 2.349310e-03
*RES
1 lt_pp20_2_s1:Z pgm_pp20_2_s1:1 2.665955e+00
2 pgm_pp20_2_s1:1 vs_19_20:A 1.000000e-03
*END

*D_NET pgm_pp20_3_s1 4.449765e-03
*CONN
*I lt_pp20_3_s1:Z O
*I vs_17_20:A I
*CAP
1 pgm_pp20_3_s1:1 4.449765e-03
*RES
1 lt_pp20_3_s1:Z pgm_pp20_3_s1:1 5.049514e+00
2 pgm_pp20_3_s1:1 vs_17_20:A 1.000000e-03
*END

*D_NET pgm_pp20_3_s3 1.318295e-02
*CONN
*I lt_pp20_3_s3:Z O
*I vs_58_20:A I
*I vs_54_20:A I
*CAP
1 pgm_pp20_3_s3:1 1.318295e-02
*RES
1 lt_pp20_3_s3:Z pgm_pp20_3_s3:1 1.157708e+01
2 pgm_pp20_3_s3:1 vs_58_20:A 1.000000e-03
3 pgm_pp20_3_s3:1 vs_54_20:A 1.000000e-03
*END

*D_NET pgm_pp20_4_s0 6.588733e-03
*CONN
*I lt_pp20_4_s0:Z O
*I vs_0_20:A I
*CAP
1 pgm_pp20_4_s0:1 6.588733e-03
*RES
1 lt_pp20_4_s0:Z pgm_pp20_4_s0:1 7.476777e+00
2 pgm_pp20_4_s0:1 vs_0_20:A 1.000000e-03
*END

*D_NET pgm_pp20_4_s2 1.067114e-02
*CONN
*I lt_pp20_4_s2:Z O
*I vs_43_20:A I
*CAP
1 pgm_pp20_4_s2:1 1.067114e-02
*RES
1 lt_pp20_4_s2:Z pgm_pp20_4_s2:1 1.210942e+01
2 pgm_pp20_4_s2:1 vs_43_20:A 1.000000e-03
*END

*D_NET pgm_pp20_4_s3 1.349150e-02
*CONN
*I lt_pp20_4_s3:Z O
*I vs_61_20:A I
*I vs_55_20:A I
*CAP
1 pgm_pp20_4_s3:1 1.349150e-02
*RES
1 lt_pp20_4_s3:Z pgm_pp20_4_s3:1 1.530991e+01
2 pgm_pp20_4_s3:1 vs_61_20:A 1.000000e-03
3 pgm_pp20_4_s3:1 vs_55_20:A 1.000000e-03
*END

*D_NET pgm_pp20_5_s3 7.919023e-03
*CONN
*I lt_pp20_5_s3:Z O
*I vs_57_20:A I
*I vs_52_20:A I
*CAP
1 pgm_pp20_5_s3:1 7.919023e-03
*RES
1 lt_pp20_5_s3:Z pgm_pp20_5_s3:1 6.894614e+00
2 pgm_pp20_5_s3:1 vs_57_20:A 1.000000e-03
3 pgm_pp20_5_s3:1 vs_52_20:A 1.000000e-03
*END

*D_NET pgm_pp20_6_s0 1.301299e-02
*CONN
*I lt_pp20_6_s0:Z O
*I vs_15_20:A I
*CAP
1 pgm_pp20_6_s0:1 1.301299e-02
*RES
1 lt_pp20_6_s0:Z pgm_pp20_6_s0:1 1.256248e+01
2 pgm_pp20_6_s0:1 vs_15_20:A 1.000000e-03
*END

*D_NET pgm_pp20_7_s0 1.196653e-02
*CONN
*I lt_pp20_7_s0:Z O
*I vs_2_20:A I
*CAP
1 pgm_pp20_7_s0:1 1.196653e-02
*RES
1 lt_pp20_7_s0:Z pgm_pp20_7_s0:1 1.287110e+01
2 pgm_pp20_7_s0:1 vs_2_20:A 1.000000e-03
*END

*D_NET pgm_pp20_7_s2 6.674648e-03
*CONN
*I lt_pp20_7_s2:Z O
*I vs_36_20:A I
*CAP
1 pgm_pp20_7_s2:1 6.674648e-03
*RES
1 lt_pp20_7_s2:Z pgm_pp20_7_s2:1 7.574271e+00
2 pgm_pp20_7_s2:1 vs_36_20:A 1.000000e-03
*END

*D_NET pgm_pp20_7_s3 5.057090e-03
*CONN
*I lt_pp20_7_s3:Z O
*I vs_60_20:A I
*CAP
1 pgm_pp20_7_s3:1 5.057090e-03
*RES
1 lt_pp20_7_s3:Z pgm_pp20_7_s3:1 5.738695e+00
2 pgm_pp20_7_s3:1 vs_60_20:A 1.000000e-03
*END

*D_NET pgm_pp20_8_s3 1.272542e-02
*CONN
*I lt_pp20_8_s3:Z O
*I vs_51_20:A I
*CAP
1 pgm_pp20_8_s3:1 1.272542e-02
*RES
1 lt_pp20_8_s3:Z pgm_pp20_8_s3:1 1.100827e+01
2 pgm_pp20_8_s3:1 vs_51_20:A 1.000000e-03
*END

*D_NET pgm_pp20_9_s0 8.271601e-03
*CONN
*I lt_pp20_9_s0:Z O
*I vs_7_20:A I
*CAP
1 pgm_pp20_9_s0:1 8.271601e-03
*RES
1 lt_pp20_9_s0:Z pgm_pp20_9_s0:1 7.149814e+00
2 pgm_pp20_9_s0:1 vs_7_20:A 1.000000e-03
*END

*D_NET pgm_pp20_9_s1 9.681646e-03
*CONN
*I lt_pp20_9_s1:Z O
*I vs_20_20:A I
*CAP
1 pgm_pp20_9_s1:1 9.681646e-03
*RES
1 lt_pp20_9_s1:Z pgm_pp20_9_s1:1 1.098656e+01
2 pgm_pp20_9_s1:1 vs_20_20:A 1.000000e-03
*END

*D_NET pgm_pp21_0_s0 1.726284e-02
*CONN
*I lt_pp21_0_s0:Z O
*I vs_14_21:A I
*I vs_12_21:A I
*I vs_10_21:A I
*I vs_6_21:A I
*I vs_2_21:A I
*CAP
1 pgm_pp21_0_s0:1 1.726284e-02
*RES
1 lt_pp21_0_s0:Z pgm_pp21_0_s0:1 1.958956e+01
2 pgm_pp21_0_s0:1 vs_14_21:A 1.000000e-03
3 pgm_pp21_0_s0:1 vs_12_21:A 1.000000e-03
4 pgm_pp21_0_s0:1 vs_10_21:A 1.000000e-03
5 pgm_pp21_0_s0:1 vs_6_21:A 1.000000e-03
6 pgm_pp21_0_s0:1 vs_2_21:A 1.000000e-03
*END

*D_NET pgm_pp21_0_s1 1.765686e-02
*CONN
*I lt_pp21_0_s1:Z O
*I vs_28_21:A I
*I vs_24_21:A I
*I vs_21_21:A I
*I vs_19_21:A I
*I vs_18_21:A I
*I vs_16_21:A I
*CAP
1 pgm_pp21_0_s1:1 1.765686e-02
*RES
1 lt_pp21_0_s1:Z pgm_pp21_0_s1:1 2.003669e+01
2 pgm_pp21_0_s1:1 vs_28_21:A 1.000000e-03
3 pgm_pp21_0_s1:1 vs_24_21:A 1.000000e-03
4 pgm_pp21_0_s1:1 vs_21_21:A 1.000000e-03
5 pgm_pp21_0_s1:1 vs_19_21:A 1.000000e-03
6 pgm_pp21_0_s1:1 vs_18_21:A 1.000000e-03
7 pgm_pp21_0_s1:1 vs_16_21:A 1.000000e-03
*END

*D_NET pgm_pp21_0_s2 2.165039e-02
*CONN
*I lt_pp21_0_s2:Z O
*I vs_47_21:A I
*I vs_44_21:A I
*I vs_38_21:A I
*I vs_36_21:A I
*I vs_32_21:A I
*CAP
1 pgm_pp21_0_s2:1 2.165039e-02
*RES
1 lt_pp21_0_s2:Z pgm_pp21_0_s2:1 2.456847e+01
2 pgm_pp21_0_s2:1 vs_47_21:A 1.000000e-03
3 pgm_pp21_0_s2:1 vs_44_21:A 1.000000e-03
4 pgm_pp21_0_s2:1 vs_38_21:A 1.000000e-03
5 pgm_pp21_0_s2:1 vs_36_21:A 1.000000e-03
6 pgm_pp21_0_s2:1 vs_32_21:A 1.000000e-03
*END

*D_NET pgm_pp21_0_s3 2.224586e-02
*CONN
*I lt_pp21_0_s3:Z O
*I vs_63_21:A I
*I vs_59_21:A I
*I vs_58_21:A I
*I vs_51_21:A I
*I vs_50_21:A I
*I vs_48_21:A I
*CAP
1 pgm_pp21_0_s3:1 2.224586e-02
*RES
1 lt_pp21_0_s3:Z pgm_pp21_0_s3:1 2.524421e+01
2 pgm_pp21_0_s3:1 vs_63_21:A 1.000000e-03
3 pgm_pp21_0_s3:1 vs_59_21:A 1.000000e-03
4 pgm_pp21_0_s3:1 vs_58_21:A 1.000000e-03
5 pgm_pp21_0_s3:1 vs_51_21:A 1.000000e-03
6 pgm_pp21_0_s3:1 vs_50_21:A 1.000000e-03
7 pgm_pp21_0_s3:1 vs_48_21:A 1.000000e-03
*END

*D_NET pgm_pp2_10_s0 3.860216e-03
*CONN
*I lt_pp2_10_s0:Z O
*I vs_10_2:A I
*CAP
1 pgm_pp2_10_s0:1 3.860216e-03
*RES
1 lt_pp2_10_s0:Z pgm_pp2_10_s0:1 4.380504e+00
2 pgm_pp2_10_s0:1 vs_10_2:A 1.000000e-03
*END

*D_NET pgm_pp2_10_s1 1.779314e-02
*CONN
*I lt_pp2_10_s1:Z O
*I vs_20_2:A I
*I vs_16_2:A I
*CAP
1 pgm_pp2_10_s1:1 1.779314e-02
*RES
1 lt_pp2_10_s1:Z pgm_pp2_10_s1:1 2.019133e+01
2 pgm_pp2_10_s1:1 vs_20_2:A 1.000000e-03
3 pgm_pp2_10_s1:1 vs_16_2:A 1.000000e-03
*END

*D_NET pgm_pp2_10_s2 8.981902e-03
*CONN
*I lt_pp2_10_s2:Z O
*I vs_39_2:A I
*CAP
1 pgm_pp2_10_s2:1 8.981902e-03
*RES
1 lt_pp2_10_s2:Z pgm_pp2_10_s2:1 9.052266e+00
2 pgm_pp2_10_s2:1 vs_39_2:A 1.000000e-03
*END

*D_NET pgm_pp2_10_s3 1.166360e-02
*CONN
*I lt_pp2_10_s3:Z O
*I vs_55_2:A I
*I vs_53_2:A I
*CAP
1 pgm_pp2_10_s3:1 1.166360e-02
*RES
1 lt_pp2_10_s3:Z pgm_pp2_10_s3:1 1.323564e+01
2 pgm_pp2_10_s3:1 vs_55_2:A 1.000000e-03
3 pgm_pp2_10_s3:1 vs_53_2:A 1.000000e-03
*END

*D_NET pgm_pp2_12_s0 5.622221e-03
*CONN
*I lt_pp2_12_s0:Z O
*I vs_12_2:A I
*CAP
1 pgm_pp2_12_s0:1 5.622221e-03
*RES
1 lt_pp2_12_s0:Z pgm_pp2_12_s0:1 4.231905e+00
2 pgm_pp2_12_s0:1 vs_12_2:A 1.000000e-03
*END

*D_NET pgm_pp2_12_s1 4.058707e-03
*CONN
*I lt_pp2_12_s1:Z O
*I vs_29_2:A I
*CAP
1 pgm_pp2_12_s1:1 4.058707e-03
*RES
1 lt_pp2_12_s1:Z pgm_pp2_12_s1:1 4.605748e+00
2 pgm_pp2_12_s1:1 vs_29_2:A 1.000000e-03
*END

*D_NET pgm_pp2_1_s0 1.842120e-02
*CONN
*I lt_pp2_1_s0:Z O
*I vs_14_2:A I
*CAP
1 pgm_pp2_1_s0:1 1.842120e-02
*RES
1 lt_pp2_1_s0:Z pgm_pp2_1_s0:1 2.090405e+01
2 pgm_pp2_1_s0:1 vs_14_2:A 1.000000e-03
*END

*D_NET pgm_pp2_1_s2 1.444694e-02
*CONN
*I lt_pp2_1_s2:Z O
*I vs_43_2:A I
*CAP
1 pgm_pp2_1_s2:1 1.444694e-02
*RES
1 lt_pp2_1_s2:Z pgm_pp2_1_s2:1 1.496593e+01
2 pgm_pp2_1_s2:1 vs_43_2:A 1.000000e-03
*END

*D_NET pgm_pp2_1_s3 1.197913e-02
*CONN
*I lt_pp2_1_s3:Z O
*I vs_57_2:A I
*CAP
1 pgm_pp2_1_s3:1 1.197913e-02
*RES
1 lt_pp2_1_s3:Z pgm_pp2_1_s3:1 1.216550e+01
2 pgm_pp2_1_s3:1 vs_57_2:A 1.000000e-03
*END

*D_NET pgm_pp2_2_s0 1.008397e-02
*CONN
*I lt_pp2_2_s0:Z O
*I vs_9_2:A I
*CAP
1 pgm_pp2_2_s0:1 1.008397e-02
*RES
1 lt_pp2_2_s0:Z pgm_pp2_2_s0:1 1.030288e+01
2 pgm_pp2_2_s0:1 vs_9_2:A 1.000000e-03
*END

*D_NET pgm_pp2_2_s1 1.091809e-02
*CONN
*I lt_pp2_2_s1:Z O
*I vs_25_2:A I
*CAP
1 pgm_pp2_2_s1:1 1.091809e-02
*RES
1 lt_pp2_2_s1:Z pgm_pp2_2_s1:1 1.081748e+01
2 pgm_pp2_2_s1:1 vs_25_2:A 1.000000e-03
*END

*D_NET pgm_pp2_2_s2 3.190677e-03
*CONN
*I lt_pp2_2_s2:Z O
*I vs_33_2:A I
*CAP
1 pgm_pp2_2_s2:1 3.190677e-03
*RES
1 lt_pp2_2_s2:Z pgm_pp2_2_s2:1 3.620723e+00
2 pgm_pp2_2_s2:1 vs_33_2:A 1.000000e-03
*END

*D_NET pgm_pp2_2_s3 1.997062e-02
*CONN
*I lt_pp2_2_s3:Z O
*I vs_62_2:A I
*I vs_49_2:A I
*CAP
1 pgm_pp2_2_s3:1 1.997062e-02
*RES
1 lt_pp2_2_s3:Z pgm_pp2_2_s3:1 2.266230e+01
2 pgm_pp2_2_s3:1 vs_62_2:A 1.000000e-03
3 pgm_pp2_2_s3:1 vs_49_2:A 1.000000e-03
*END

*D_NET pgm_pp2_3_s3 6.111761e-03
*CONN
*I lt_pp2_3_s3:Z O
*I vs_48_2:A I
*CAP
1 pgm_pp2_3_s3:1 6.111761e-03
*RES
1 lt_pp2_3_s3:Z pgm_pp2_3_s3:1 6.935517e+00
2 pgm_pp2_3_s3:1 vs_48_2:A 1.000000e-03
*END

*D_NET pgm_pp2_4_s1 3.990568e-03
*CONN
*I lt_pp2_4_s1:Z O
*I vs_23_2:A I
*CAP
1 pgm_pp2_4_s1:1 3.990568e-03
*RES
1 lt_pp2_4_s1:Z pgm_pp2_4_s1:1 4.528425e+00
2 pgm_pp2_4_s1:1 vs_23_2:A 1.000000e-03
*END

*D_NET pgm_pp2_4_s2 5.451110e-04
*CONN
*I lt_pp2_4_s2:Z O
*I vs_37_2:A I
*CAP
1 pgm_pp2_4_s2:1 5.451110e-04
*RES
1 lt_pp2_4_s2:Z pgm_pp2_4_s2:1 6.185822e-01
2 pgm_pp2_4_s2:1 vs_37_2:A 1.000000e-03
*END

*D_NET pgm_pp2_4_s3 3.012924e-03
*CONN
*I lt_pp2_4_s3:Z O
*I vs_51_2:A I
*CAP
1 pgm_pp2_4_s3:1 3.012924e-03
*RES
1 lt_pp2_4_s3:Z pgm_pp2_4_s3:1 3.419012e+00
2 pgm_pp2_4_s3:1 vs_51_2:A 1.000000e-03
*END

*D_NET pgm_pp2_5_s0 6.825601e-03
*CONN
*I lt_pp2_5_s0:Z O
*I vs_2_2:A I
*CAP
1 pgm_pp2_5_s0:1 6.825601e-03
*RES
1 lt_pp2_5_s0:Z pgm_pp2_5_s0:1 6.749314e+00
2 pgm_pp2_5_s0:1 vs_2_2:A 1.000000e-03
*END

*D_NET pgm_pp2_5_s2 1.263828e-02
*CONN
*I lt_pp2_5_s2:Z O
*I vs_47_2:A I
*CAP
1 pgm_pp2_5_s2:1 1.263828e-02
*RES
1 lt_pp2_5_s2:Z pgm_pp2_5_s2:1 1.434169e+01
2 pgm_pp2_5_s2:1 vs_47_2:A 1.000000e-03
*END

*D_NET pgm_pp2_6_s3 5.249656e-03
*CONN
*I lt_pp2_6_s3:Z O
*I vs_52_2:A I
*CAP
1 pgm_pp2_6_s3:1 5.249656e-03
*RES
1 lt_pp2_6_s3:Z pgm_pp2_6_s3:1 5.957216e+00
2 pgm_pp2_6_s3:1 vs_52_2:A 1.000000e-03
*END

*D_NET pgm_pp2_7_s1 1.331374e-02
*CONN
*I lt_pp2_7_s1:Z O
*I vs_31_2:A I
*I vs_22_2:A I
*CAP
1 pgm_pp2_7_s1:1 1.331374e-02
*RES
1 lt_pp2_7_s1:Z pgm_pp2_7_s1:1 1.510820e+01
2 pgm_pp2_7_s1:1 vs_31_2:A 1.000000e-03
3 pgm_pp2_7_s1:1 vs_22_2:A 1.000000e-03
*END

*D_NET pgm_pp2_7_s3 5.193368e-03
*CONN
*I lt_pp2_7_s3:Z O
*I vs_60_2:A I
*CAP
1 pgm_pp2_7_s3:1 5.193368e-03
*RES
1 lt_pp2_7_s3:Z pgm_pp2_7_s3:1 5.893341e+00
2 pgm_pp2_7_s3:1 vs_60_2:A 1.000000e-03
*END

*D_NET pgm_pp2_8_s0 1.666041e-02
*CONN
*I lt_pp2_8_s0:Z O
*I vs_5_2:A I
*I vs_1_2:A I
*CAP
1 pgm_pp2_8_s0:1 1.666041e-02
*RES
1 lt_pp2_8_s0:Z pgm_pp2_8_s0:1 1.762173e+01
2 pgm_pp2_8_s0:1 vs_5_2:A 1.000000e-03
3 pgm_pp2_8_s0:1 vs_1_2:A 1.000000e-03
*END

*D_NET pgm_pp2_8_s2 1.300564e-03
*CONN
*I lt_pp2_8_s2:Z O
*I vs_41_2:A I
*CAP
1 pgm_pp2_8_s2:1 1.300564e-03
*RES
1 lt_pp2_8_s2:Z pgm_pp2_8_s2:1 1.475857e+00
2 pgm_pp2_8_s2:1 vs_41_2:A 1.000000e-03
*END

*D_NET pgm_pp2_8_s3 1.021596e-02
*CONN
*I lt_pp2_8_s3:Z O
*I vs_61_2:A I
*I vs_54_2:A I
*CAP
1 pgm_pp2_8_s3:1 1.021596e-02
*RES
1 lt_pp2_8_s3:Z pgm_pp2_8_s3:1 9.476097e+00
2 pgm_pp2_8_s3:1 vs_61_2:A 1.000000e-03
3 pgm_pp2_8_s3:1 vs_54_2:A 1.000000e-03
*END

*D_NET pgm_pp2_9_s1 6.959053e-03
*CONN
*I lt_pp2_9_s1:Z O
*I vs_30_2:A I
*I vs_26_2:A I
*CAP
1 pgm_pp2_9_s1:1 6.959053e-03
*RES
1 lt_pp2_9_s1:Z pgm_pp2_9_s1:1 7.897009e+00
2 pgm_pp2_9_s1:1 vs_30_2:A 1.000000e-03
3 pgm_pp2_9_s1:1 vs_26_2:A 1.000000e-03
*END

*D_NET pgm_pp2_9_s2 1.227046e-02
*CONN
*I lt_pp2_9_s2:Z O
*I vs_35_2:A I
*CAP
1 pgm_pp2_9_s2:1 1.227046e-02
*RES
1 lt_pp2_9_s2:Z pgm_pp2_9_s2:1 1.332555e+01
2 pgm_pp2_9_s2:1 vs_35_2:A 1.000000e-03
*END

*D_NET pgm_pp3_0_s0 3.732551e-03
*CONN
*I lt_pp3_0_s0:Z O
*I vs_1_3:A I
*CAP
1 pgm_pp3_0_s0:1 3.732551e-03
*RES
1 lt_pp3_0_s0:Z pgm_pp3_0_s0:1 2.231520e+00
2 pgm_pp3_0_s0:1 vs_1_3:A 1.000000e-03
*END

*D_NET pgm_pp3_0_s1 2.669355e-02
*CONN
*I lt_pp3_0_s1:Z O
*I vs_30_3:A I
*I vs_19_3:A I
*CAP
1 pgm_pp3_0_s1:1 2.669355e-02
*RES
1 lt_pp3_0_s1:Z pgm_pp3_0_s1:1 2.732321e+01
2 pgm_pp3_0_s1:1 vs_30_3:A 1.000000e-03
3 pgm_pp3_0_s1:1 vs_19_3:A 1.000000e-03
*END

*D_NET pgm_pp3_10_s2 1.443655e-02
*CONN
*I lt_pp3_10_s2:Z O
*I vs_34_3:A I
*CAP
1 pgm_pp3_10_s2:1 1.443655e-02
*RES
1 lt_pp3_10_s2:Z pgm_pp3_10_s2:1 1.638234e+01
2 pgm_pp3_10_s2:1 vs_34_3:A 1.000000e-03
*END

*D_NET pgm_pp3_11_s0 1.232456e-02
*CONN
*I lt_pp3_11_s0:Z O
*I vs_5_3:A I
*CAP
1 pgm_pp3_11_s0:1 1.232456e-02
*RES
1 lt_pp3_11_s0:Z pgm_pp3_11_s0:1 1.313341e+01
2 pgm_pp3_11_s0:1 vs_5_3:A 1.000000e-03
*END

*D_NET pgm_pp3_1_s0 1.590895e-02
*CONN
*I lt_pp3_1_s0:Z O
*I vs_9_3:A I
*I vs_0_3:A I
*CAP
1 pgm_pp3_1_s0:1 1.590895e-02
*RES
1 lt_pp3_1_s0:Z pgm_pp3_1_s0:1 1.805319e+01
2 pgm_pp3_1_s0:1 vs_9_3:A 1.000000e-03
3 pgm_pp3_1_s0:1 vs_0_3:A 1.000000e-03
*END

*D_NET pgm_pp3_1_s2 2.140746e-02
*CONN
*I lt_pp3_1_s2:Z O
*I vs_45_3:A I
*I vs_36_3:A I
*I vs_35_3:A I
*I vs_33_3:A I
*CAP
1 pgm_pp3_1_s2:1 2.140746e-02
*RES
1 lt_pp3_1_s2:Z pgm_pp3_1_s2:1 2.429280e+01
2 pgm_pp3_1_s2:1 vs_45_3:A 1.000000e-03
3 pgm_pp3_1_s2:1 vs_36_3:A 1.000000e-03
4 pgm_pp3_1_s2:1 vs_35_3:A 1.000000e-03
5 pgm_pp3_1_s2:1 vs_33_3:A 1.000000e-03
*END

*D_NET pgm_pp3_2_s0 1.869229e-02
*CONN
*I lt_pp3_2_s0:Z O
*I vs_13_3:A I
*I vs_12_3:A I
*I vs_4_3:A I
*CAP
1 pgm_pp3_2_s0:1 1.869229e-02
*RES
1 lt_pp3_2_s0:Z pgm_pp3_2_s0:1 1.978348e+01
2 pgm_pp3_2_s0:1 vs_13_3:A 1.000000e-03
3 pgm_pp3_2_s0:1 vs_12_3:A 1.000000e-03
4 pgm_pp3_2_s0:1 vs_4_3:A 1.000000e-03
*END

*D_NET pgm_pp3_2_s1 2.138083e-02
*CONN
*I lt_pp3_2_s1:Z O
*I vs_31_3:A I
*I vs_29_3:A I
*I vs_24_3:A I
*CAP
1 pgm_pp3_2_s1:1 2.138083e-02
*RES
1 lt_pp3_2_s1:Z pgm_pp3_2_s1:1 2.140619e+01
2 pgm_pp3_2_s1:1 vs_31_3:A 1.000000e-03
3 pgm_pp3_2_s1:1 vs_29_3:A 1.000000e-03
4 pgm_pp3_2_s1:1 vs_24_3:A 1.000000e-03
*END

*D_NET pgm_pp3_2_s2 5.931725e-03
*CONN
*I lt_pp3_2_s2:Z O
*I vs_38_3:A I
*CAP
1 pgm_pp3_2_s2:1 5.931725e-03
*RES
1 lt_pp3_2_s2:Z pgm_pp3_2_s2:1 5.246681e+00
2 pgm_pp3_2_s2:1 vs_38_3:A 1.000000e-03
*END

*D_NET pgm_pp3_2_s3 1.672365e-02
*CONN
*I lt_pp3_2_s3:Z O
*I vs_62_3:A I
*CAP
1 pgm_pp3_2_s3:1 1.672365e-02
*RES
1 lt_pp3_2_s3:Z pgm_pp3_2_s3:1 1.897770e+01
2 pgm_pp3_2_s3:1 vs_62_3:A 1.000000e-03
*END

*D_NET pgm_pp3_3_s1 1.315080e-02
*CONN
*I lt_pp3_3_s1:Z O
*I vs_25_3:A I
*I vs_17_3:A I
*CAP
1 pgm_pp3_3_s1:1 1.315080e-02
*RES
1 lt_pp3_3_s1:Z pgm_pp3_3_s1:1 1.492330e+01
2 pgm_pp3_3_s1:1 vs_25_3:A 1.000000e-03
3 pgm_pp3_3_s1:1 vs_17_3:A 1.000000e-03
*END

*D_NET pgm_pp3_3_s2 6.307290e-03
*CONN
*I lt_pp3_3_s2:Z O
*I vs_39_3:A I
*CAP
1 pgm_pp3_3_s2:1 6.307290e-03
*RES
1 lt_pp3_3_s2:Z pgm_pp3_3_s2:1 7.157400e+00
2 pgm_pp3_3_s2:1 vs_39_3:A 1.000000e-03
*END

*D_NET pgm_pp3_5_s3 1.689844e-02
*CONN
*I lt_pp3_5_s3:Z O
*I vs_63_3:A I
*I vs_53_3:A I
*CAP
1 pgm_pp3_5_s3:1 1.689844e-02
*RES
1 lt_pp3_5_s3:Z pgm_pp3_5_s3:1 1.917605e+01
2 pgm_pp3_5_s3:1 vs_63_3:A 1.000000e-03
3 pgm_pp3_5_s3:1 vs_53_3:A 1.000000e-03
*END

*D_NET pgm_pp3_6_s1 4.846748e-03
*CONN
*I lt_pp3_6_s1:Z O
*I vs_20_3:A I
*CAP
1 pgm_pp3_6_s1:1 4.846748e-03
*RES
1 lt_pp3_6_s1:Z pgm_pp3_6_s1:1 5.500003e+00
2 pgm_pp3_6_s1:1 vs_20_3:A 1.000000e-03
*END

*D_NET pgm_pp3_6_s3 7.735244e-03
*CONN
*I lt_pp3_6_s3:Z O
*I vs_51_3:A I
*CAP
1 pgm_pp3_6_s3:1 7.735244e-03
*RES
1 lt_pp3_6_s3:Z pgm_pp3_6_s3:1 8.777816e+00
2 pgm_pp3_6_s3:1 vs_51_3:A 1.000000e-03
*END

*D_NET pgm_pp3_7_s1 1.884188e-03
*CONN
*I lt_pp3_7_s1:Z O
*I vs_23_3:A I
*CAP
1 pgm_pp3_7_s1:1 1.884188e-03
*RES
1 lt_pp3_7_s1:Z pgm_pp3_7_s1:1 2.138143e+00
2 pgm_pp3_7_s1:1 vs_23_3:A 1.000000e-03
*END

*D_NET pgm_pp3_7_s2 1.804199e-03
*CONN
*I lt_pp3_7_s2:Z O
*I vs_41_3:A I
*CAP
1 pgm_pp3_7_s2:1 1.804199e-03
*RES
1 lt_pp3_7_s2:Z pgm_pp3_7_s2:1 2.047373e+00
2 pgm_pp3_7_s2:1 vs_41_3:A 1.000000e-03
*END

*D_NET pgm_pp3_8_s2 3.353923e-03
*CONN
*I lt_pp3_8_s2:Z O
*I vs_40_3:A I
*CAP
1 pgm_pp3_8_s2:1 3.353923e-03
*RES
1 lt_pp3_8_s2:Z pgm_pp3_8_s2:1 2.953696e+00
2 pgm_pp3_8_s2:1 vs_40_3:A 1.000000e-03
*END

*D_NET pgm_pp3_8_s3 1.346187e-02
*CONN
*I lt_pp3_8_s3:Z O
*I vs_49_3:A I
*CAP
1 pgm_pp3_8_s3:1 1.346187e-02
*RES
1 lt_pp3_8_s3:Z pgm_pp3_8_s3:1 1.527629e+01
2 pgm_pp3_8_s3:1 vs_49_3:A 1.000000e-03
*END

*D_NET pgm_pp3_9_s1 1.002680e-02
*CONN
*I lt_pp3_9_s1:Z O
*I vs_21_3:A I
*CAP
1 pgm_pp3_9_s1:1 1.002680e-02
*RES
1 lt_pp3_9_s1:Z pgm_pp3_9_s1:1 9.950039e+00
2 pgm_pp3_9_s1:1 vs_21_3:A 1.000000e-03
*END

*D_NET pgm_pp3_9_s3 6.813888e-04
*CONN
*I lt_pp3_9_s3:Z O
*I vs_59_3:A I
*CAP
1 pgm_pp3_9_s3:1 6.813888e-04
*RES
1 lt_pp3_9_s3:Z pgm_pp3_9_s3:1 7.732278e-01
2 pgm_pp3_9_s3:1 vs_59_3:A 1.000000e-03
*END

*D_NET pgm_pp4_0_s0 3.454513e-03
*CONN
*I lt_pp4_0_s0:Z O
*I vs_1_4:A I
*CAP
1 pgm_pp4_0_s0:1 3.454513e-03
*RES
1 lt_pp4_0_s0:Z pgm_pp4_0_s0:1 2.059987e+00
2 pgm_pp4_0_s0:1 vs_1_4:A 1.000000e-03
*END

*D_NET pgm_pp4_0_s1 1.916793e-02
*CONN
*I lt_pp4_0_s1:Z O
*I vs_29_4:A I
*CAP
1 pgm_pp4_0_s1:1 1.916793e-02
*RES
1 lt_pp4_0_s1:Z pgm_pp4_0_s1:1 1.989129e+01
2 pgm_pp4_0_s1:1 vs_29_4:A 1.000000e-03
*END

*D_NET pgm_pp4_0_s2 2.151411e-02
*CONN
*I lt_pp4_0_s2:Z O
*I vs_47_4:A I
*CAP
1 pgm_pp4_0_s2:1 2.151411e-02
*RES
1 lt_pp4_0_s2:Z pgm_pp4_0_s2:1 2.441383e+01
2 pgm_pp4_0_s2:1 vs_47_4:A 1.000000e-03
*END

*D_NET pgm_pp4_11_s0 1.579044e-03
*CONN
*I lt_pp4_11_s0:Z O
*I vs_13_4:A I
*CAP
1 pgm_pp4_11_s0:1 1.579044e-03
*RES
1 lt_pp4_11_s0:Z pgm_pp4_11_s0:1 1.791871e+00
2 pgm_pp4_11_s0:1 vs_13_4:A 1.000000e-03
*END

*D_NET pgm_pp4_11_s1 1.822080e-02
*CONN
*I lt_pp4_11_s1:Z O
*I vs_17_4:A I
*CAP
1 pgm_pp4_11_s1:1 1.822080e-02
*RES
1 lt_pp4_11_s1:Z pgm_pp4_11_s1:1 1.910446e+01
2 pgm_pp4_11_s1:1 vs_17_4:A 1.000000e-03
*END

*D_NET pgm_pp4_11_s2 1.466467e-02
*CONN
*I lt_pp4_11_s2:Z O
*I vs_37_4:A I
*CAP
1 pgm_pp4_11_s2:1 1.466467e-02
*RES
1 lt_pp4_11_s2:Z pgm_pp4_11_s2:1 1.664121e+01
2 pgm_pp4_11_s2:1 vs_37_4:A 1.000000e-03
*END

*D_NET pgm_pp4_12_s2 1.820493e-02
*CONN
*I lt_pp4_12_s2:Z O
*I vs_34_4:A I
*CAP
1 pgm_pp4_12_s2:1 1.820493e-02
*RES
1 lt_pp4_12_s2:Z pgm_pp4_12_s2:1 2.065863e+01
2 pgm_pp4_12_s2:1 vs_34_4:A 1.000000e-03
*END

*D_NET pgm_pp4_1_s0 1.105774e-02
*CONN
*I lt_pp4_1_s0:Z O
*I vs_8_4:A I
*CAP
1 pgm_pp4_1_s0:1 1.105774e-02
*RES
1 lt_pp4_1_s0:Z pgm_pp4_1_s0:1 1.073181e+01
2 pgm_pp4_1_s0:1 vs_8_4:A 1.000000e-03
*END

*D_NET pgm_pp4_1_s1 2.136006e-02
*CONN
*I lt_pp4_1_s1:Z O
*I vs_31_4:A I
*I vs_28_4:A I
*I vs_23_4:A I
*CAP
1 pgm_pp4_1_s1:1 2.136006e-02
*RES
1 lt_pp4_1_s1:Z pgm_pp4_1_s1:1 2.423901e+01
2 pgm_pp4_1_s1:1 vs_31_4:A 1.000000e-03
3 pgm_pp4_1_s1:1 vs_28_4:A 1.000000e-03
4 pgm_pp4_1_s1:1 vs_23_4:A 1.000000e-03
*END

*D_NET pgm_pp4_3_s0 1.884781e-02
*CONN
*I lt_pp4_3_s0:Z O
*I vs_12_4:A I
*I vs_0_4:A I
*CAP
1 pgm_pp4_3_s0:1 1.884781e-02
*RES
1 lt_pp4_3_s0:Z pgm_pp4_3_s0:1 2.138815e+01
2 pgm_pp4_3_s0:1 vs_12_4:A 1.000000e-03
3 pgm_pp4_3_s0:1 vs_0_4:A 1.000000e-03
*END

*D_NET pgm_pp4_4_s2 7.673030e-03
*CONN
*I lt_pp4_4_s2:Z O
*I vs_32_4:A I
*CAP
1 pgm_pp4_4_s2:1 7.673030e-03
*RES
1 lt_pp4_4_s2:Z pgm_pp4_4_s2:1 8.707217e+00
2 pgm_pp4_4_s2:1 vs_32_4:A 1.000000e-03
*END

*D_NET pgm_pp4_5_s0 1.667921e-03
*CONN
*I lt_pp4_5_s0:Z O
*I vs_7_4:A I
*CAP
1 pgm_pp4_5_s0:1 1.667921e-03
*RES
1 lt_pp4_5_s0:Z pgm_pp4_5_s0:1 1.892727e+00
2 pgm_pp4_5_s0:1 vs_7_4:A 1.000000e-03
*END

*D_NET pgm_pp4_5_s3 5.341496e-03
*CONN
*I lt_pp4_5_s3:Z O
*I vs_55_4:A I
*I vs_52_4:A I
*CAP
1 pgm_pp4_5_s3:1 5.341496e-03
*RES
1 lt_pp4_5_s3:Z pgm_pp4_5_s3:1 6.061434e+00
2 pgm_pp4_5_s3:1 vs_55_4:A 1.000000e-03
3 pgm_pp4_5_s3:1 vs_52_4:A 1.000000e-03
*END

*D_NET pgm_pp4_6_s1 5.646639e-03
*CONN
*I lt_pp4_6_s1:Z O
*I vs_27_4:A I
*CAP
1 pgm_pp4_6_s1:1 5.646639e-03
*RES
1 lt_pp4_6_s1:Z pgm_pp4_6_s1:1 6.407705e+00
2 pgm_pp4_6_s1:1 vs_27_4:A 1.000000e-03
*END

*D_NET pgm_pp4_6_s2 9.850714e-03
*CONN
*I lt_pp4_6_s2:Z O
*I vs_33_4:A I
*CAP
1 pgm_pp4_6_s2:1 9.850714e-03
*RES
1 lt_pp4_6_s2:Z pgm_pp4_6_s2:1 9.161782e+00
2 pgm_pp4_6_s2:1 vs_33_4:A 1.000000e-03
*END

*D_NET pgm_pp4_6_s3 1.027712e-02
*CONN
*I lt_pp4_6_s3:Z O
*I vs_62_4:A I
*CAP
1 pgm_pp4_6_s3:1 1.027712e-02
*RES
1 lt_pp4_6_s3:Z pgm_pp4_6_s3:1 1.166229e+01
2 pgm_pp4_6_s3:1 vs_62_4:A 1.000000e-03
*END

*D_NET pgm_pp4_7_s0 9.631283e-03
*CONN
*I lt_pp4_7_s0:Z O
*I vs_15_4:A I
*CAP
1 pgm_pp4_7_s0:1 9.631283e-03
*RES
1 lt_pp4_7_s0:Z pgm_pp4_7_s0:1 1.092941e+01
2 pgm_pp4_7_s0:1 vs_15_4:A 1.000000e-03
*END

*D_NET pgm_pp4_7_s1 1.333740e-02
*CONN
*I lt_pp4_7_s1:Z O
*I vs_18_4:A I
*CAP
1 pgm_pp4_7_s1:1 1.333740e-02
*RES
1 lt_pp4_7_s1:Z pgm_pp4_7_s1:1 7.678496e+00
2 pgm_pp4_7_s1:1 vs_18_4:A 1.000000e-03
*END

*D_NET pgm_pp4_8_s0 8.621050e-04
*CONN
*I lt_pp4_8_s0:Z O
*I vs_10_4:A I
*CAP
1 pgm_pp4_8_s0:1 8.621050e-04
*RES
1 lt_pp4_8_s0:Z pgm_pp4_8_s0:1 9.783013e-01
2 pgm_pp4_8_s0:1 vs_10_4:A 1.000000e-03
*END

*D_NET pgm_pp4_8_s1 7.708581e-03
*CONN
*I lt_pp4_8_s1:Z O
*I vs_21_4:A I
*CAP
1 pgm_pp4_8_s1:1 7.708581e-03
*RES
1 lt_pp4_8_s1:Z pgm_pp4_8_s1:1 8.747560e+00
2 pgm_pp4_8_s1:1 vs_21_4:A 1.000000e-03
*END

*D_NET pgm_pp4_8_s3 1.342632e-02
*CONN
*I lt_pp4_8_s3:Z O
*I vs_50_4:A I
*CAP
1 pgm_pp4_8_s3:1 1.342632e-02
*RES
1 lt_pp4_8_s3:Z pgm_pp4_8_s3:1 1.523595e+01
2 pgm_pp4_8_s3:1 vs_50_4:A 1.000000e-03
*END

*D_NET pgm_pp4_9_s1 1.143660e-02
*CONN
*I lt_pp4_9_s1:Z O
*I vs_22_4:A I
*I vs_19_4:A I
*CAP
1 pgm_pp4_9_s1:1 1.143660e-02
*RES
1 lt_pp4_9_s1:Z pgm_pp4_9_s1:1 1.163750e+01
2 pgm_pp4_9_s1:1 vs_22_4:A 1.000000e-03
3 pgm_pp4_9_s1:1 vs_19_4:A 1.000000e-03
*END

*D_NET pgm_pp5_0_s1 1.292269e-02
*CONN
*I lt_pp5_0_s1:Z O
*I vs_24_5:A I
*CAP
1 pgm_pp5_0_s1:1 1.292269e-02
*RES
1 lt_pp5_0_s1:Z pgm_pp5_0_s1:1 1.466443e+01
2 pgm_pp5_0_s1:1 vs_24_5:A 1.000000e-03
*END

*D_NET pgm_pp5_0_s2 1.327969e-02
*CONN
*I lt_pp5_0_s2:Z O
*I vs_40_5:A I
*CAP
1 pgm_pp5_0_s2:1 1.327969e-02
*RES
1 lt_pp5_0_s2:Z pgm_pp5_0_s2:1 1.364136e+01
2 pgm_pp5_0_s2:1 vs_40_5:A 1.000000e-03
*END

*D_NET pgm_pp5_11_s0 1.576187e-02
*CONN
*I lt_pp5_11_s0:Z O
*I vs_3_5:A I
*CAP
1 pgm_pp5_11_s0:1 1.576187e-02
*RES
1 lt_pp5_11_s0:Z pgm_pp5_11_s0:1 1.631412e+01
2 pgm_pp5_11_s0:1 vs_3_5:A 1.000000e-03
*END

*D_NET pgm_pp5_12_s2 2.506937e-03
*CONN
*I lt_pp5_12_s2:Z O
*I vs_46_5:A I
*CAP
1 pgm_pp5_12_s2:1 2.506937e-03
*RES
1 lt_pp5_12_s2:Z pgm_pp5_12_s2:1 1.128674e+00
2 pgm_pp5_12_s2:1 vs_46_5:A 1.000000e-03
*END

*D_NET pgm_pp5_1_s0 1.974873e-02
*CONN
*I lt_pp5_1_s0:Z O
*I vs_13_5:A I
*I vs_1_5:A I
*CAP
1 pgm_pp5_1_s0:1 1.974873e-02
*RES
1 lt_pp5_1_s0:Z pgm_pp5_1_s0:1 2.155823e+01
2 pgm_pp5_1_s0:1 vs_13_5:A 1.000000e-03
3 pgm_pp5_1_s0:1 vs_1_5:A 1.000000e-03
*END

*D_NET pgm_pp5_1_s2 1.851600e-03
*CONN
*I lt_pp5_1_s2:Z O
*I vs_33_5:A I
*CAP
1 pgm_pp5_1_s2:1 1.851600e-03
*RES
1 lt_pp5_1_s2:Z pgm_pp5_1_s2:1 2.101163e+00
2 pgm_pp5_1_s2:1 vs_33_5:A 1.000000e-03
*END

*D_NET pgm_pp5_2_s0 1.896631e-02
*CONN
*I lt_pp5_2_s0:Z O
*I vs_15_5:A I
*I vs_14_5:A I
*I vs_12_5:A I
*CAP
1 pgm_pp5_2_s0:1 1.896631e-02
*RES
1 lt_pp5_2_s0:Z pgm_pp5_2_s0:1 2.152263e+01
2 pgm_pp5_2_s0:1 vs_15_5:A 1.000000e-03
3 pgm_pp5_2_s0:1 vs_14_5:A 1.000000e-03
4 pgm_pp5_2_s0:1 vs_12_5:A 1.000000e-03
*END

*D_NET pgm_pp5_2_s1 7.673030e-03
*CONN
*I lt_pp5_2_s1:Z O
*I vs_23_5:A I
*CAP
1 pgm_pp5_2_s1:1 7.673030e-03
*RES
1 lt_pp5_2_s1:Z pgm_pp5_2_s1:1 8.707217e+00
2 pgm_pp5_2_s1:1 vs_23_5:A 1.000000e-03
*END

*D_NET pgm_pp5_2_s3 1.868898e-02
*CONN
*I lt_pp5_2_s3:Z O
*I vs_58_5:A I
*I vs_53_5:A I
*I vs_48_5:A I
*CAP
1 pgm_pp5_2_s3:1 1.868898e-02
*RES
1 lt_pp5_2_s3:Z pgm_pp5_2_s3:1 1.700518e+01
2 pgm_pp5_2_s3:1 vs_58_5:A 1.000000e-03
3 pgm_pp5_2_s3:1 vs_53_5:A 1.000000e-03
4 pgm_pp5_2_s3:1 vs_48_5:A 1.000000e-03
*END

*D_NET pgm_pp5_3_s1 4.165222e-03
*CONN
*I lt_pp5_3_s1:Z O
*I vs_22_5:A I
*CAP
1 pgm_pp5_3_s1:1 4.165222e-03
*RES
1 lt_pp5_3_s1:Z pgm_pp5_3_s1:1 3.730363e+00
2 pgm_pp5_3_s1:1 vs_22_5:A 1.000000e-03
*END

*D_NET pgm_pp5_3_s3 5.385934e-03
*CONN
*I lt_pp5_3_s3:Z O
*I vs_55_5:A I
*CAP
1 pgm_pp5_3_s3:1 5.385934e-03
*RES
1 lt_pp5_3_s3:Z pgm_pp5_3_s3:1 6.111861e+00
2 pgm_pp5_3_s3:1 vs_55_5:A 1.000000e-03
*END

*D_NET pgm_pp5_4_s3 5.516287e-03
*CONN
*I lt_pp5_4_s3:Z O
*I vs_49_5:A I
*CAP
1 pgm_pp5_4_s3:1 5.516287e-03
*RES
1 lt_pp5_4_s3:Z pgm_pp5_4_s3:1 6.259783e+00
2 pgm_pp5_4_s3:1 vs_49_5:A 1.000000e-03
*END

*D_NET pgm_pp5_5_s2 1.884188e-03
*CONN
*I lt_pp5_5_s2:Z O
*I vs_37_5:A I
*CAP
1 pgm_pp5_5_s2:1 1.884188e-03
*RES
1 lt_pp5_5_s2:Z pgm_pp5_5_s2:1 2.138143e+00
2 pgm_pp5_5_s2:1 vs_37_5:A 1.000000e-03
*END

*D_NET pgm_pp5_5_s3 3.042549e-03
*CONN
*I lt_pp5_5_s3:Z O
*I vs_52_5:A I
*CAP
1 pgm_pp5_5_s3:1 3.042549e-03
*RES
1 lt_pp5_5_s3:Z pgm_pp5_5_s3:1 3.452630e+00
2 pgm_pp5_5_s3:1 vs_52_5:A 1.000000e-03
*END

*D_NET pgm_pp5_6_s0 3.279554e-03
*CONN
*I lt_pp5_6_s0:Z O
*I vs_5_5:A I
*CAP
1 pgm_pp5_6_s0:1 3.279554e-03
*RES
1 lt_pp5_6_s0:Z pgm_pp5_6_s0:1 3.721579e+00
2 pgm_pp5_6_s0:1 vs_5_5:A 1.000000e-03
*END

*D_NET pgm_pp5_6_s3 7.895222e-03
*CONN
*I lt_pp5_6_s3:Z O
*I vs_60_5:A I
*CAP
1 pgm_pp5_6_s3:1 7.895222e-03
*RES
1 lt_pp5_6_s3:Z pgm_pp5_6_s3:1 8.959357e+00
2 pgm_pp5_6_s3:1 vs_60_5:A 1.000000e-03
*END

*D_NET pgm_pp5_7_s0 9.465379e-03
*CONN
*I lt_pp5_7_s0:Z O
*I vs_2_5:A I
*CAP
1 pgm_pp5_7_s0:1 9.465379e-03
*RES
1 lt_pp5_7_s0:Z pgm_pp5_7_s0:1 1.074114e+01
2 pgm_pp5_7_s0:1 vs_2_5:A 1.000000e-03
*END

*D_NET pgm_pp5_7_s1 1.028008e-03
*CONN
*I lt_pp5_7_s1:Z O
*I vs_25_5:A I
*CAP
1 pgm_pp5_7_s1:1 1.028008e-03
*RES
1 lt_pp5_7_s1:Z pgm_pp5_7_s1:1 1.166565e+00
2 pgm_pp5_7_s1:1 vs_25_5:A 1.000000e-03
*END

*D_NET pgm_pp5_7_s2 5.335571e-03
*CONN
*I lt_pp5_7_s2:Z O
*I vs_44_5:A I
*CAP
1 pgm_pp5_7_s2:1 5.335571e-03
*RES
1 lt_pp5_7_s2:Z pgm_pp5_7_s2:1 6.054710e+00
2 pgm_pp5_7_s2:1 vs_44_5:A 1.000000e-03
*END

*D_NET pgm_pp5_7_s3 7.406400e-03
*CONN
*I lt_pp5_7_s3:Z O
*I vs_61_5:A I
*CAP
1 pgm_pp5_7_s3:1 7.406400e-03
*RES
1 lt_pp5_7_s3:Z pgm_pp5_7_s3:1 8.404650e+00
2 pgm_pp5_7_s3:1 vs_61_5:A 1.000000e-03
*END

*D_NET pgm_pp5_8_s1 2.018985e-02
*CONN
*I lt_pp5_8_s1:Z O
*I vs_31_5:A I
*I vs_27_5:A I
*I vs_21_5:A I
*I vs_18_5:A I
*CAP
1 pgm_pp5_8_s1:1 2.018985e-02
*RES
1 lt_pp5_8_s1:Z pgm_pp5_8_s1:1 2.291108e+01
2 pgm_pp5_8_s1:1 vs_31_5:A 1.000000e-03
3 pgm_pp5_8_s1:1 vs_27_5:A 1.000000e-03
4 pgm_pp5_8_s1:1 vs_21_5:A 1.000000e-03
5 pgm_pp5_8_s1:1 vs_18_5:A 1.000000e-03
*END

*D_NET pgm_pp5_8_s2 7.803383e-03
*CONN
*I lt_pp5_8_s2:Z O
*I vs_47_5:A I
*CAP
1 pgm_pp5_8_s2:1 7.803383e-03
*RES
1 lt_pp5_8_s2:Z pgm_pp5_8_s2:1 8.855139e+00
2 pgm_pp5_8_s2:1 vs_47_5:A 1.000000e-03
*END

*D_NET pgm_pp5_8_s3 7.053855e-03
*CONN
*I lt_pp5_8_s3:Z O
*I vs_62_5:A I
*CAP
1 pgm_pp5_8_s3:1 7.053855e-03
*RES
1 lt_pp5_8_s3:Z pgm_pp5_8_s3:1 8.004589e+00
2 pgm_pp5_8_s3:1 vs_62_5:A 1.000000e-03
*END

*D_NET pgm_pp6_0_s0 2.008292e-02
*CONN
*I lt_pp6_0_s0:Z O
*I vs_12_6:A I
*I vs_3_6:A I
*CAP
1 pgm_pp6_0_s0:1 2.008292e-02
*RES
1 lt_pp6_0_s0:Z pgm_pp6_0_s0:1 2.079143e+01
2 pgm_pp6_0_s0:1 vs_12_6:A 1.000000e-03
3 pgm_pp6_0_s0:1 vs_3_6:A 1.000000e-03
*END

*D_NET pgm_pp6_0_s1 1.353359e-02
*CONN
*I lt_pp6_0_s1:Z O
*I vs_24_6:A I
*CAP
1 pgm_pp6_0_s1:1 1.353359e-02
*RES
1 lt_pp6_0_s1:Z pgm_pp6_0_s1:1 1.364152e+01
2 pgm_pp6_0_s1:1 vs_24_6:A 1.000000e-03
*END

*D_NET pgm_pp6_0_s3 4.591968e-03
*CONN
*I lt_pp6_0_s3:Z O
*I vs_50_6:A I
*CAP
1 pgm_pp6_0_s3:1 4.591968e-03
*RES
1 lt_pp6_0_s3:Z pgm_pp6_0_s3:1 5.210883e+00
2 pgm_pp6_0_s3:1 vs_50_6:A 1.000000e-03
*END

*D_NET pgm_pp6_10_s2 6.122589e-03
*CONN
*I lt_pp6_10_s2:Z O
*I vs_41_6:A I
*CAP
1 pgm_pp6_10_s2:1 6.122589e-03
*RES
1 lt_pp6_10_s2:Z pgm_pp6_10_s2:1 5.663589e+00
2 pgm_pp6_10_s2:1 vs_41_6:A 1.000000e-03
*END

*D_NET pgm_pp6_10_s3 2.644986e-03
*CONN
*I lt_pp6_10_s3:Z O
*I vs_59_6:A I
*CAP
1 pgm_pp6_10_s3:1 2.644986e-03
*RES
1 lt_pp6_10_s3:Z pgm_pp6_10_s3:1 1.861247e+00
2 pgm_pp6_10_s3:1 vs_59_6:A 1.000000e-03
*END

*D_NET pgm_pp6_11_s0 3.780227e-03
*CONN
*I lt_pp6_11_s0:Z O
*I vs_15_6:A I
*CAP
1 pgm_pp6_11_s0:1 3.780227e-03
*RES
1 lt_pp6_11_s0:Z pgm_pp6_11_s0:1 4.289733e+00
2 pgm_pp6_11_s0:1 vs_15_6:A 1.000000e-03
*END

*D_NET pgm_pp6_11_s1 2.571502e-03
*CONN
*I lt_pp6_11_s1:Z O
*I vs_30_6:A I
*CAP
1 pgm_pp6_11_s1:1 2.571502e-03
*RES
1 lt_pp6_11_s1:Z pgm_pp6_11_s1:1 2.918094e+00
2 pgm_pp6_11_s1:1 vs_30_6:A 1.000000e-03
*END

*D_NET pgm_pp6_12_s0 3.659815e-03
*CONN
*I lt_pp6_12_s0:Z O
*I vs_13_6:A I
*CAP
1 pgm_pp6_12_s0:1 3.659815e-03
*RES
1 lt_pp6_12_s0:Z pgm_pp6_12_s0:1 2.580919e+00
2 pgm_pp6_12_s0:1 vs_13_6:A 1.000000e-03
*END

*D_NET pgm_pp6_1_s0 5.866480e-03
*CONN
*I lt_pp6_1_s0:Z O
*I vs_4_6:A I
*CAP
1 pgm_pp6_1_s0:1 5.866480e-03
*RES
1 lt_pp6_1_s0:Z pgm_pp6_1_s0:1 4.941023e+00
2 pgm_pp6_1_s0:1 vs_4_6:A 1.000000e-03
*END

*D_NET pgm_pp6_1_s1 1.809045e-02
*CONN
*I lt_pp6_1_s1:Z O
*I vs_29_6:A I
*CAP
1 pgm_pp6_1_s1:1 1.809045e-02
*RES
1 lt_pp6_1_s1:Z pgm_pp6_1_s1:1 1.895654e+01
2 pgm_pp6_1_s1:1 vs_29_6:A 1.000000e-03
*END

*D_NET pgm_pp6_1_s2 7.151620e-03
*CONN
*I lt_pp6_1_s2:Z O
*I vs_37_6:A I
*CAP
1 pgm_pp6_1_s2:1 7.151620e-03
*RES
1 lt_pp6_1_s2:Z pgm_pp6_1_s2:1 8.115530e+00
2 pgm_pp6_1_s2:1 vs_37_6:A 1.000000e-03
*END

*D_NET pgm_pp6_1_s3 1.695119e-02
*CONN
*I lt_pp6_1_s3:Z O
*I vs_60_6:A I
*I vs_58_6:A I
*I vs_57_6:A I
*CAP
1 pgm_pp6_1_s3:1 1.695119e-02
*RES
1 lt_pp6_1_s3:Z pgm_pp6_1_s3:1 1.809567e+01
2 pgm_pp6_1_s3:1 vs_60_6:A 1.000000e-03
3 pgm_pp6_1_s3:1 vs_58_6:A 1.000000e-03
4 pgm_pp6_1_s3:1 vs_57_6:A 1.000000e-03
*END

*D_NET pgm_pp6_2_s3 3.246966e-03
*CONN
*I lt_pp6_2_s3:Z O
*I vs_49_6:A I
*CAP
1 pgm_pp6_2_s3:1 3.246966e-03
*RES
1 lt_pp6_2_s3:Z pgm_pp6_2_s3:1 3.684599e+00
2 pgm_pp6_2_s3:1 vs_49_6:A 1.000000e-03
*END

*D_NET pgm_pp6_3_s1 1.132662e-02
*CONN
*I lt_pp6_3_s1:Z O
*I vs_27_6:A I
*CAP
1 pgm_pp6_3_s1:1 1.132662e-02
*RES
1 lt_pp6_3_s1:Z pgm_pp6_3_s1:1 1.214494e+01
2 pgm_pp6_3_s1:1 vs_27_6:A 1.000000e-03
*END

*D_NET pgm_pp6_3_s2 9.131664e-03
*CONN
*I lt_pp6_3_s2:Z O
*I vs_40_6:A I
*CAP
1 pgm_pp6_3_s2:1 9.131664e-03
*RES
1 lt_pp6_3_s2:Z pgm_pp6_3_s2:1 8.801875e+00
2 pgm_pp6_3_s2:1 vs_40_6:A 1.000000e-03
*END

*D_NET pgm_pp6_3_s3 3.104763e-03
*CONN
*I lt_pp6_3_s3:Z O
*I vs_53_6:A I
*CAP
1 pgm_pp6_3_s3:1 3.104763e-03
*RES
1 lt_pp6_3_s3:Z pgm_pp6_3_s3:1 3.523229e+00
2 pgm_pp6_3_s3:1 vs_53_6:A 1.000000e-03
*END

*D_NET pgm_pp6_4_s3 3.587660e-03
*CONN
*I lt_pp6_4_s3:Z O
*I vs_55_6:A I
*CAP
1 pgm_pp6_4_s3:1 3.587660e-03
*RES
1 lt_pp6_4_s3:Z pgm_pp6_4_s3:1 4.071212e+00
2 pgm_pp6_4_s3:1 vs_55_6:A 1.000000e-03
*END

*D_NET pgm_pp6_5_s0 1.531644e-03
*CONN
*I lt_pp6_5_s0:Z O
*I vs_7_6:A I
*CAP
1 pgm_pp6_5_s0:1 1.531644e-03
*RES
1 lt_pp6_5_s0:Z pgm_pp6_5_s0:1 1.738082e+00
2 pgm_pp6_5_s0:1 vs_7_6:A 1.000000e-03
*END

*D_NET pgm_pp6_5_s1 6.591696e-03
*CONN
*I lt_pp6_5_s1:Z O
*I vs_25_6:A I
*CAP
1 pgm_pp6_5_s1:1 6.591696e-03
*RES
1 lt_pp6_5_s1:Z pgm_pp6_5_s1:1 7.480139e+00
2 pgm_pp6_5_s1:1 vs_25_6:A 1.000000e-03
*END

*D_NET pgm_pp6_6_s0 3.960943e-03
*CONN
*I lt_pp6_6_s0:Z O
*I vs_5_6:A I
*CAP
1 pgm_pp6_6_s0:1 3.960943e-03
*RES
1 lt_pp6_6_s0:Z pgm_pp6_6_s0:1 4.494807e+00
2 pgm_pp6_6_s0:1 vs_5_6:A 1.000000e-03
*END

*D_NET pgm_pp6_7_s1 5.098566e-03
*CONN
*I lt_pp6_7_s1:Z O
*I vs_22_6:A I
*CAP
1 pgm_pp6_7_s1:1 5.098566e-03
*RES
1 lt_pp6_7_s1:Z pgm_pp6_7_s1:1 5.785761e+00
2 pgm_pp6_7_s1:1 vs_22_6:A 1.000000e-03
*END

*D_NET pgm_pp6_8_s0 1.313895e-02
*CONN
*I lt_pp6_8_s0:Z O
*I vs_1_6:A I
*CAP
1 pgm_pp6_8_s0:1 1.313895e-02
*RES
1 lt_pp6_8_s0:Z pgm_pp6_8_s0:1 1.490985e+01
2 pgm_pp6_8_s0:1 vs_1_6:A 1.000000e-03
*END

*D_NET pgm_pp6_8_s2 6.526520e-03
*CONN
*I lt_pp6_8_s2:Z O
*I vs_45_6:A I
*CAP
1 pgm_pp6_8_s2:1 6.526520e-03
*RES
1 lt_pp6_8_s2:Z pgm_pp6_8_s2:1 7.406178e+00
2 pgm_pp6_8_s2:1 vs_45_6:A 1.000000e-03
*END

*D_NET pgm_pp6_8_s3 5.566650e-03
*CONN
*I lt_pp6_8_s3:Z O
*I vs_54_6:A I
*CAP
1 pgm_pp6_8_s3:1 5.566650e-03
*RES
1 lt_pp6_8_s3:Z pgm_pp6_8_s3:1 6.316935e+00
2 pgm_pp6_8_s3:1 vs_54_6:A 1.000000e-03
*END

*D_NET pgm_pp6_9_s1 1.357445e-02
*CONN
*I lt_pp6_9_s1:Z O
*I vs_17_6:A I
*CAP
1 pgm_pp6_9_s1:1 1.357445e-02
*RES
1 lt_pp6_9_s1:Z pgm_pp6_9_s1:1 1.540404e+01
2 pgm_pp6_9_s1:1 vs_17_6:A 1.000000e-03
*END

*D_NET pgm_pp7_0_s2 1.347018e-02
*CONN
*I lt_pp7_0_s2:Z O
*I vs_40_7:A I
*I vs_39_7:A I
*CAP
1 pgm_pp7_0_s2:1 1.347018e-02
*RES
1 lt_pp7_0_s2:Z pgm_pp7_0_s2:1 1.033315e+01
2 pgm_pp7_0_s2:1 vs_40_7:A 1.000000e-03
3 pgm_pp7_0_s2:1 vs_39_7:A 1.000000e-03
*END

*D_NET pgm_pp7_0_s3 2.062831e-02
*CONN
*I lt_pp7_0_s3:Z O
*I vs_62_7:A I
*CAP
1 pgm_pp7_0_s3:1 2.062831e-02
*RES
1 lt_pp7_0_s3:Z pgm_pp7_0_s3:1 2.340863e+01
2 pgm_pp7_0_s3:1 vs_62_7:A 1.000000e-03
*END

*D_NET pgm_pp7_11_s2 1.715322e-03
*CONN
*I lt_pp7_11_s2:Z O
*I vs_45_7:A I
*CAP
1 pgm_pp7_11_s2:1 1.715322e-03
*RES
1 lt_pp7_11_s2:Z pgm_pp7_11_s2:1 1.946517e+00
2 pgm_pp7_11_s2:1 vs_45_7:A 1.000000e-03
*END

*D_NET pgm_pp7_11_s3 4.944513e-03
*CONN
*I lt_pp7_11_s3:Z O
*I vs_59_7:A I
*CAP
1 pgm_pp7_11_s3:1 4.944513e-03
*RES
1 lt_pp7_11_s3:Z pgm_pp7_11_s3:1 5.610944e+00
2 pgm_pp7_11_s3:1 vs_59_7:A 1.000000e-03
*END

*D_NET pgm_pp7_12_s3 8.442579e-03
*CONN
*I lt_pp7_12_s3:Z O
*I vs_58_7:A I
*CAP
1 pgm_pp7_12_s3:1 8.442579e-03
*RES
1 lt_pp7_12_s3:Z pgm_pp7_12_s3:1 7.432396e+00
2 pgm_pp7_12_s3:1 vs_58_7:A 1.000000e-03
*END

*D_NET pgm_pp7_1_s0 2.102811e-02
*CONN
*I lt_pp7_1_s0:Z O
*I vs_14_7:A I
*I vs_3_7:A I
*CAP
1 pgm_pp7_1_s0:1 2.102811e-02
*RES
1 lt_pp7_1_s0:Z pgm_pp7_1_s0:1 2.286607e+01
2 pgm_pp7_1_s0:1 vs_14_7:A 1.000000e-03
3 pgm_pp7_1_s0:1 vs_3_7:A 1.000000e-03
*END

*D_NET pgm_pp7_1_s2 1.978398e-02
*CONN
*I lt_pp7_1_s2:Z O
*I vs_46_7:A I
*I vs_34_7:A I
*CAP
1 pgm_pp7_1_s2:1 1.978398e-02
*RES
1 lt_pp7_1_s2:Z pgm_pp7_1_s2:1 2.245050e+01
2 pgm_pp7_1_s2:1 vs_46_7:A 1.000000e-03
3 pgm_pp7_1_s2:1 vs_34_7:A 1.000000e-03
*END

*D_NET pgm_pp7_1_s3 1.499055e-03
*CONN
*I lt_pp7_1_s3:Z O
*I vs_49_7:A I
*CAP
1 pgm_pp7_1_s3:1 1.499055e-03
*RES
1 lt_pp7_1_s3:Z pgm_pp7_1_s3:1 1.701101e+00
2 pgm_pp7_1_s3:1 vs_49_7:A 1.000000e-03
*END

*D_NET pgm_pp7_2_s0 1.157176e-02
*CONN
*I lt_pp7_2_s0:Z O
*I vs_10_7:A I
*CAP
1 pgm_pp7_2_s0:1 1.157176e-02
*RES
1 lt_pp7_2_s0:Z pgm_pp7_2_s0:1 1.313143e+01
2 pgm_pp7_2_s0:1 vs_10_7:A 1.000000e-03
*END

*D_NET pgm_pp7_2_s3 3.241041e-03
*CONN
*I lt_pp7_2_s3:Z O
*I vs_52_7:A I
*CAP
1 pgm_pp7_2_s3:1 3.241041e-03
*RES
1 lt_pp7_2_s3:Z pgm_pp7_2_s3:1 3.677875e+00
2 pgm_pp7_2_s3:1 vs_52_7:A 1.000000e-03
*END

*D_NET pgm_pp7_3_s1 8.886657e-03
*CONN
*I lt_pp7_3_s1:Z O
*I vs_25_7:A I
*CAP
1 pgm_pp7_3_s1:1 8.886657e-03
*RES
1 lt_pp7_3_s1:Z pgm_pp7_3_s1:1 8.800204e+00
2 pgm_pp7_3_s1:1 vs_25_7:A 1.000000e-03
*END

*D_NET pgm_pp7_4_s0 8.976557e-04
*CONN
*I lt_pp7_4_s0:Z O
*I vs_5_7:A I
*CAP
1 pgm_pp7_4_s0:1 8.976557e-04
*RES
1 lt_pp7_4_s0:Z pgm_pp7_4_s0:1 1.018644e+00
2 pgm_pp7_4_s0:1 vs_5_7:A 1.000000e-03
*END

*D_NET pgm_pp7_4_s1 1.169619e-02
*CONN
*I lt_pp7_4_s1:Z O
*I vs_29_7:A I
*CAP
1 pgm_pp7_4_s1:1 1.169619e-02
*RES
1 lt_pp7_4_s1:Z pgm_pp7_4_s1:1 1.327262e+01
2 pgm_pp7_4_s1:1 vs_29_7:A 1.000000e-03
*END

*D_NET pgm_pp7_4_s2 8.918019e-03
*CONN
*I lt_pp7_4_s2:Z O
*I vs_43_7:A I
*CAP
1 pgm_pp7_4_s2:1 8.918019e-03
*RES
1 lt_pp7_4_s2:Z pgm_pp7_4_s2:1 9.023593e+00
2 pgm_pp7_4_s2:1 vs_43_7:A 1.000000e-03
*END

*D_NET pgm_pp7_5_s0 9.426866e-03
*CONN
*I lt_pp7_5_s0:Z O
*I vs_0_7:A I
*CAP
1 pgm_pp7_5_s0:1 9.426866e-03
*RES
1 lt_pp7_5_s0:Z pgm_pp7_5_s0:1 1.069744e+01
2 pgm_pp7_5_s0:1 vs_0_7:A 1.000000e-03
*END

*D_NET pgm_pp7_5_s1 2.639641e-03
*CONN
*I lt_pp7_5_s1:Z O
*I vs_20_7:A I
*CAP
1 pgm_pp7_5_s1:1 2.639641e-03
*RES
1 lt_pp7_5_s1:Z pgm_pp7_5_s1:1 2.995417e+00
2 pgm_pp7_5_s1:1 vs_20_7:A 1.000000e-03
*END

*D_NET pgm_pp7_6_s1 1.362778e-04
*CONN
*I lt_pp7_6_s1:Z O
*I vs_23_7:A I
*CAP
1 pgm_pp7_6_s1:1 1.362778e-04
*RES
1 lt_pp7_6_s1:Z pgm_pp7_6_s1:1 1.546456e-01
2 pgm_pp7_6_s1:1 vs_23_7:A 1.000000e-03
*END

*D_NET pgm_pp7_6_s2 5.335571e-03
*CONN
*I lt_pp7_6_s2:Z O
*I vs_36_7:A I
*CAP
1 pgm_pp7_6_s2:1 5.335571e-03
*RES
1 lt_pp7_6_s2:Z pgm_pp7_6_s2:1 6.054710e+00
2 pgm_pp7_6_s2:1 vs_36_7:A 1.000000e-03
*END

*D_NET pgm_pp7_6_s3 7.939661e-03
*CONN
*I lt_pp7_6_s3:Z O
*I vs_50_7:A I
*CAP
1 pgm_pp7_6_s3:1 7.939661e-03
*RES
1 lt_pp7_6_s3:Z pgm_pp7_6_s3:1 9.009785e+00
2 pgm_pp7_6_s3:1 vs_50_7:A 1.000000e-03
*END

*D_NET pgm_pp7_7_s1 3.371393e-03
*CONN
*I lt_pp7_7_s1:Z O
*I vs_26_7:A I
*CAP
1 pgm_pp7_7_s1:1 3.371393e-03
*RES
1 lt_pp7_7_s1:Z pgm_pp7_7_s1:1 3.825797e+00
2 pgm_pp7_7_s1:1 vs_26_7:A 1.000000e-03
*END

*D_NET pgm_pp7_8_s0 1.121033e-02
*CONN
*I lt_pp7_8_s0:Z O
*I vs_4_7:A I
*CAP
1 pgm_pp7_8_s0:1 1.121033e-02
*RES
1 lt_pp7_8_s0:Z pgm_pp7_8_s0:1 1.272128e+01
2 pgm_pp7_8_s0:1 vs_4_7:A 1.000000e-03
*END

*D_NET pgm_pp7_8_s2 7.381677e-03
*CONN
*I lt_pp7_8_s2:Z O
*I vs_38_7:A I
*CAP
1 pgm_pp7_8_s2:1 7.381677e-03
*RES
1 lt_pp7_8_s2:Z pgm_pp7_8_s2:1 7.092379e+00
2 pgm_pp7_8_s2:1 vs_38_7:A 1.000000e-03
*END

*D_NET pgm_pp7_9_s1 1.667404e-02
*CONN
*I lt_pp7_9_s1:Z O
*I vs_27_7:A I
*I vs_17_7:A I
*CAP
1 pgm_pp7_9_s1:1 1.667404e-02
*RES
1 lt_pp7_9_s1:Z pgm_pp7_9_s1:1 1.821310e+01
2 pgm_pp7_9_s1:1 vs_27_7:A 1.000000e-03
3 pgm_pp7_9_s1:1 vs_17_7:A 1.000000e-03
*END

*D_NET pgm_pp7_9_s3 1.537272e-02
*CONN
*I lt_pp7_9_s3:Z O
*I vs_48_7:A I
*CAP
1 pgm_pp7_9_s3:1 1.537272e-02
*RES
1 lt_pp7_9_s3:Z pgm_pp7_9_s3:1 1.744469e+01
2 pgm_pp7_9_s3:1 vs_48_7:A 1.000000e-03
*END

*D_NET pgm_pp8_0_s0 1.530935e-02
*CONN
*I lt_pp8_0_s0:Z O
*I vs_9_8:A I
*I vs_8_8:A I
*CAP
1 pgm_pp8_0_s0:1 1.530935e-02
*RES
1 lt_pp8_0_s0:Z pgm_pp8_0_s0:1 1.508071e+01
2 pgm_pp8_0_s0:1 vs_9_8:A 1.000000e-03
3 pgm_pp8_0_s0:1 vs_8_8:A 1.000000e-03
*END

*D_NET pgm_pp8_0_s3 1.740521e-02
*CONN
*I lt_pp8_0_s3:Z O
*I vs_59_8:A I
*CAP
1 pgm_pp8_0_s3:1 1.740521e-02
*RES
1 lt_pp8_0_s3:Z pgm_pp8_0_s3:1 1.789099e+01
2 pgm_pp8_0_s3:1 vs_59_8:A 1.000000e-03
*END

*D_NET pgm_pp8_10_s3 1.500240e-02
*CONN
*I lt_pp8_10_s3:Z O
*I vs_51_8:A I
*CAP
1 pgm_pp8_10_s3:1 1.500240e-02
*RES
1 lt_pp8_10_s3:Z pgm_pp8_10_s3:1 1.702446e+01
2 pgm_pp8_10_s3:1 vs_51_8:A 1.000000e-03
*END

*D_NET pgm_pp8_11_s0 1.218858e-02
*CONN
*I lt_pp8_11_s0:Z O
*I vs_7_8:A I
*I vs_6_8:A I
*CAP
1 pgm_pp8_11_s0:1 1.218858e-02
*RES
1 lt_pp8_11_s0:Z pgm_pp8_11_s0:1 1.211523e+01
2 pgm_pp8_11_s0:1 vs_7_8:A 1.000000e-03
3 pgm_pp8_11_s0:1 vs_6_8:A 1.000000e-03
*END

*D_NET pgm_pp8_11_s1 1.891002e-02
*CONN
*I lt_pp8_11_s1:Z O
*I vs_16_8:A I
*CAP
1 pgm_pp8_11_s1:1 1.891002e-02
*RES
1 lt_pp8_11_s1:Z pgm_pp8_11_s1:1 2.145875e+01
2 pgm_pp8_11_s1:1 vs_16_8:A 1.000000e-03
*END

*D_NET pgm_pp8_11_s2 1.089112e-02
*CONN
*I lt_pp8_11_s2:Z O
*I vs_39_8:A I
*CAP
1 pgm_pp8_11_s2:1 1.089112e-02
*RES
1 lt_pp8_11_s2:Z pgm_pp8_11_s2:1 1.165075e+01
2 pgm_pp8_11_s2:1 vs_39_8:A 1.000000e-03
*END

*D_NET pgm_pp8_11_s3 9.355712e-03
*CONN
*I lt_pp8_11_s3:Z O
*I vs_56_8:A I
*CAP
1 pgm_pp8_11_s3:1 9.355712e-03
*RES
1 lt_pp8_11_s3:Z pgm_pp8_11_s3:1 9.229190e+00
2 pgm_pp8_11_s3:1 vs_56_8:A 1.000000e-03
*END

*D_NET pgm_pp8_1_s0 1.793625e-02
*CONN
*I lt_pp8_1_s0:Z O
*I vs_11_8:A I
*I vs_2_8:A I
*CAP
1 pgm_pp8_1_s0:1 1.793625e-02
*RES
1 lt_pp8_1_s0:Z pgm_pp8_1_s0:1 1.777951e+01
2 pgm_pp8_1_s0:1 vs_11_8:A 1.000000e-03
3 pgm_pp8_1_s0:1 vs_2_8:A 1.000000e-03
*END

*D_NET pgm_pp8_1_s2 2.000024e-02
*CONN
*I lt_pp8_1_s2:Z O
*I vs_46_8:A I
*I vs_33_8:A I
*CAP
1 pgm_pp8_1_s2:1 2.000024e-02
*RES
1 lt_pp8_1_s2:Z pgm_pp8_1_s2:1 2.269592e+01
2 pgm_pp8_1_s2:1 vs_46_8:A 1.000000e-03
3 pgm_pp8_1_s2:1 vs_33_8:A 1.000000e-03
*END

*D_NET pgm_pp8_1_s3 1.775758e-02
*CONN
*I lt_pp8_1_s3:Z O
*I vs_61_8:A I
*I vs_60_8:A I
*CAP
1 pgm_pp8_1_s3:1 1.775758e-02
*RES
1 lt_pp8_1_s3:Z pgm_pp8_1_s3:1 2.015099e+01
2 pgm_pp8_1_s3:1 vs_61_8:A 1.000000e-03
3 pgm_pp8_1_s3:1 vs_60_8:A 1.000000e-03
*END

*D_NET pgm_pp8_2_s1 1.146793e-02
*CONN
*I lt_pp8_2_s1:Z O
*I vs_26_8:A I
*CAP
1 pgm_pp8_2_s1:1 1.146793e-02
*RES
1 lt_pp8_2_s1:Z pgm_pp8_2_s1:1 1.201735e+01
2 pgm_pp8_2_s1:1 vs_26_8:A 1.000000e-03
*END

*D_NET pgm_pp8_3_s1 1.689548e-02
*CONN
*I lt_pp8_3_s1:Z O
*I vs_31_8:A I
*I vs_29_8:A I
*CAP
1 pgm_pp8_3_s1:1 1.689548e-02
*RES
1 lt_pp8_3_s1:Z pgm_pp8_3_s1:1 1.917269e+01
2 pgm_pp8_3_s1:1 vs_31_8:A 1.000000e-03
3 pgm_pp8_3_s1:1 vs_29_8:A 1.000000e-03
*END

*D_NET pgm_pp8_3_s2 7.227963e-03
*CONN
*I lt_pp8_3_s2:Z O
*I vs_40_8:A I
*I vs_38_8:A I
*CAP
1 pgm_pp8_3_s2:1 7.227963e-03
*RES
1 lt_pp8_3_s2:Z pgm_pp8_3_s2:1 5.897572e+00
2 pgm_pp8_3_s2:1 vs_40_8:A 1.000000e-03
3 pgm_pp8_3_s2:1 vs_38_8:A 1.000000e-03
*END

*D_NET pgm_pp8_3_s3 6.333953e-03
*CONN
*I lt_pp8_3_s3:Z O
*I vs_55_8:A I
*I vs_52_8:A I
*CAP
1 pgm_pp8_3_s3:1 6.333953e-03
*RES
1 lt_pp8_3_s3:Z pgm_pp8_3_s3:1 7.187657e+00
2 pgm_pp8_3_s3:1 vs_55_8:A 1.000000e-03
3 pgm_pp8_3_s3:1 vs_52_8:A 1.000000e-03
*END

*D_NET pgm_pp8_4_s0 1.174655e-02
*CONN
*I lt_pp8_4_s0:Z O
*I vs_13_8:A I
*CAP
1 pgm_pp8_4_s0:1 1.174655e-02
*RES
1 lt_pp8_4_s0:Z pgm_pp8_4_s0:1 1.332977e+01
2 pgm_pp8_4_s0:1 vs_13_8:A 1.000000e-03
*END

*D_NET pgm_pp8_4_s2 1.703472e-03
*CONN
*I lt_pp8_4_s2:Z O
*I vs_36_8:A I
*CAP
1 pgm_pp8_4_s2:1 1.703472e-03
*RES
1 lt_pp8_4_s2:Z pgm_pp8_4_s2:1 1.933069e+00
2 pgm_pp8_4_s2:1 vs_36_8:A 1.000000e-03
*END

*D_NET pgm_pp8_5_s1 1.196874e-02
*CONN
*I lt_pp8_5_s1:Z O
*I vs_30_8:A I
*I vs_27_8:A I
*I vs_23_8:A I
*CAP
1 pgm_pp8_5_s1:1 1.196874e-02
*RES
1 lt_pp8_5_s1:Z pgm_pp8_5_s1:1 1.358191e+01
2 pgm_pp8_5_s1:1 vs_30_8:A 1.000000e-03
3 pgm_pp8_5_s1:1 vs_27_8:A 1.000000e-03
4 pgm_pp8_5_s1:1 vs_23_8:A 1.000000e-03
*END

*D_NET pgm_pp8_6_s0 1.192240e-02
*CONN
*I lt_pp8_6_s0:Z O
*I vs_14_8:A I
*CAP
1 pgm_pp8_6_s0:1 1.192240e-02
*RES
1 lt_pp8_6_s0:Z pgm_pp8_6_s0:1 1.195715e+01
2 pgm_pp8_6_s0:1 vs_14_8:A 1.000000e-03
*END

*D_NET pgm_pp8_6_s2 1.089630e-02
*CONN
*I lt_pp8_6_s2:Z O
*I vs_32_8:A I
*CAP
1 pgm_pp8_6_s2:1 1.089630e-02
*RES
1 lt_pp8_6_s2:Z pgm_pp8_6_s2:1 1.236492e+01
2 pgm_pp8_6_s2:1 vs_32_8:A 1.000000e-03
*END

*D_NET pgm_pp8_7_s1 5.329645e-03
*CONN
*I lt_pp8_7_s1:Z O
*I vs_28_8:A I
*I vs_25_8:A I
*CAP
1 pgm_pp8_7_s1:1 5.329645e-03
*RES
1 lt_pp8_7_s1:Z pgm_pp8_7_s1:1 6.047986e+00
2 pgm_pp8_7_s1:1 vs_28_8:A 1.000000e-03
3 pgm_pp8_7_s1:1 vs_25_8:A 1.000000e-03
*END

*D_NET pgm_pp8_8_s2 1.464253e-03
*CONN
*I lt_pp8_8_s2:Z O
*I vs_41_8:A I
*CAP
1 pgm_pp8_8_s2:1 1.464253e-03
*RES
1 lt_pp8_8_s2:Z pgm_pp8_8_s2:1 9.533110e-01
2 pgm_pp8_8_s2:1 vs_41_8:A 1.000000e-03
*END

*D_NET pgm_pp8_8_s3 7.213834e-03
*CONN
*I lt_pp8_8_s3:Z O
*I vs_62_8:A I
*CAP
1 pgm_pp8_8_s3:1 7.213834e-03
*RES
1 lt_pp8_8_s3:Z pgm_pp8_8_s3:1 8.186129e+00
2 pgm_pp8_8_s3:1 vs_62_8:A 1.000000e-03
*END

*D_NET pgm_pp8_9_s3 1.452839e-02
*CONN
*I lt_pp8_9_s3:Z O
*I vs_49_8:A I
*CAP
1 pgm_pp8_9_s3:1 1.452839e-02
*RES
1 lt_pp8_9_s3:Z pgm_pp8_9_s3:1 1.648656e+01
2 pgm_pp8_9_s3:1 vs_49_8:A 1.000000e-03
*END

*D_NET pgm_pp9_0_s0 1.336339e-02
*CONN
*I lt_pp9_0_s0:Z O
*I vs_8_9:A I
*CAP
1 pgm_pp9_0_s0:1 1.336339e-02
*RES
1 lt_pp9_0_s0:Z pgm_pp9_0_s0:1 1.301645e+01
2 pgm_pp9_0_s0:1 vs_8_9:A 1.000000e-03
*END

*D_NET pgm_pp9_0_s2 8.923231e-03
*CONN
*I lt_pp9_0_s2:Z O
*I vs_37_9:A I
*CAP
1 pgm_pp9_0_s2:1 8.923231e-03
*RES
1 lt_pp9_0_s2:Z pgm_pp9_0_s2:1 1.012592e+01
2 pgm_pp9_0_s2:1 vs_37_9:A 1.000000e-03
*END

*D_NET pgm_pp9_10_s1 9.420941e-03
*CONN
*I lt_pp9_10_s1:Z O
*I vs_22_9:A I
*CAP
1 pgm_pp9_10_s1:1 9.420941e-03
*RES
1 lt_pp9_10_s1:Z pgm_pp9_10_s1:1 1.069071e+01
2 pgm_pp9_10_s1:1 vs_22_9:A 1.000000e-03
*END

*D_NET pgm_pp9_11_s2 5.940987e-03
*CONN
*I lt_pp9_11_s2:Z O
*I vs_42_9:A I
*CAP
1 pgm_pp9_11_s2:1 5.940987e-03
*RES
1 lt_pp9_11_s2:Z pgm_pp9_11_s2:1 5.169552e+00
2 pgm_pp9_11_s2:1 vs_42_9:A 1.000000e-03
*END

*D_NET pgm_pp9_11_s3 8.880732e-03
*CONN
*I lt_pp9_11_s3:Z O
*I vs_60_9:A I
*I vs_57_9:A I
*CAP
1 pgm_pp9_11_s3:1 8.880732e-03
*RES
1 lt_pp9_11_s3:Z pgm_pp9_11_s3:1 8.793481e+00
2 pgm_pp9_11_s3:1 vs_60_9:A 1.000000e-03
3 pgm_pp9_11_s3:1 vs_57_9:A 1.000000e-03
*END

*D_NET pgm_pp9_12_s2 2.293645e-02
*CONN
*I lt_pp9_12_s2:Z O
*I vs_39_9:A I
*I vs_33_9:A I
*CAP
1 pgm_pp9_12_s2:1 2.293645e-02
*RES
1 lt_pp9_12_s2:Z pgm_pp9_12_s2:1 2.517559e+01
2 pgm_pp9_12_s2:1 vs_39_9:A 1.000000e-03
3 pgm_pp9_12_s2:1 vs_33_9:A 1.000000e-03
*END

*D_NET pgm_pp9_12_s3 2.102529e-02
*CONN
*I lt_pp9_12_s3:Z O
*I vs_48_9:A I
*CAP
1 pgm_pp9_12_s3:1 2.102529e-02
*RES
1 lt_pp9_12_s3:Z pgm_pp9_12_s3:1 2.385912e+01
2 pgm_pp9_12_s3:1 vs_48_9:A 1.000000e-03
*END

*D_NET pgm_pp9_1_s1 4.233498e-03
*CONN
*I lt_pp9_1_s1:Z O
*I vs_19_9:A I
*CAP
1 pgm_pp9_1_s1:1 4.233498e-03
*RES
1 lt_pp9_1_s1:Z pgm_pp9_1_s1:1 4.804098e+00
2 pgm_pp9_1_s1:1 vs_19_9:A 1.000000e-03
*END

*D_NET pgm_pp9_1_s2 1.840332e-02
*CONN
*I lt_pp9_1_s2:Z O
*I vs_43_9:A I
*CAP
1 pgm_pp9_1_s2:1 1.840332e-02
*RES
1 lt_pp9_1_s2:Z pgm_pp9_1_s2:1 1.701951e+01
2 pgm_pp9_1_s2:1 vs_43_9:A 1.000000e-03
*END

*D_NET pgm_pp9_1_s3 9.394278e-03
*CONN
*I lt_pp9_1_s3:Z O
*I vs_54_9:A I
*I vs_49_9:A I
*CAP
1 pgm_pp9_1_s3:1 9.394278e-03
*RES
1 lt_pp9_1_s3:Z pgm_pp9_1_s3:1 1.066046e+01
2 pgm_pp9_1_s3:1 vs_54_9:A 1.000000e-03
3 pgm_pp9_1_s3:1 vs_49_9:A 1.000000e-03
*END

*D_NET pgm_pp9_2_s1 1.493130e-03
*CONN
*I lt_pp9_2_s1:Z O
*I vs_18_9:A I
*CAP
1 pgm_pp9_2_s1:1 1.493130e-03
*RES
1 lt_pp9_2_s1:Z pgm_pp9_2_s1:1 1.694377e+00
2 pgm_pp9_2_s1:1 vs_18_9:A 1.000000e-03
*END

*D_NET pgm_pp9_2_s3 8.924285e-03
*CONN
*I lt_pp9_2_s3:Z O
*I vs_55_9:A I
*I vs_51_9:A I
*CAP
1 pgm_pp9_2_s3:1 8.924285e-03
*RES
1 lt_pp9_2_s3:Z pgm_pp9_2_s3:1 8.560745e+00
2 pgm_pp9_2_s3:1 vs_55_9:A 1.000000e-03
3 pgm_pp9_2_s3:1 vs_51_9:A 1.000000e-03
*END

*D_NET pgm_pp9_3_s0 1.335818e-02
*CONN
*I lt_pp9_3_s0:Z O
*I vs_13_9:A I
*CAP
1 pgm_pp9_3_s0:1 1.335818e-02
*RES
1 lt_pp9_3_s0:Z pgm_pp9_3_s0:1 1.515863e+01
2 pgm_pp9_3_s0:1 vs_13_9:A 1.000000e-03
*END

*D_NET pgm_pp9_3_s1 5.788842e-03
*CONN
*I lt_pp9_3_s1:Z O
*I vs_23_9:A I
*CAP
1 pgm_pp9_3_s1:1 5.788842e-03
*RES
1 lt_pp9_3_s1:Z pgm_pp9_3_s1:1 6.569074e+00
2 pgm_pp9_3_s1:1 vs_23_9:A 1.000000e-03
*END

*D_NET pgm_pp9_4_s0 1.897816e-02
*CONN
*I lt_pp9_4_s0:Z O
*I vs_15_9:A I
*I vs_3_9:A I
*CAP
1 pgm_pp9_4_s0:1 1.897816e-02
*RES
1 lt_pp9_4_s0:Z pgm_pp9_4_s0:1 2.153608e+01
2 pgm_pp9_4_s0:1 vs_15_9:A 1.000000e-03
3 pgm_pp9_4_s0:1 vs_3_9:A 1.000000e-03
*END

*D_NET pgm_pp9_5_s1 1.285455e-02
*CONN
*I lt_pp9_5_s1:Z O
*I vs_31_9:A I
*CAP
1 pgm_pp9_5_s1:1 1.285455e-02
*RES
1 lt_pp9_5_s1:Z pgm_pp9_5_s1:1 1.458711e+01
2 pgm_pp9_5_s1:1 vs_31_9:A 1.000000e-03
*END

*D_NET pgm_pp9_5_s2 2.690004e-03
*CONN
*I lt_pp9_5_s2:Z O
*I vs_40_9:A I
*CAP
1 pgm_pp9_5_s2:1 2.690004e-03
*RES
1 lt_pp9_5_s2:Z pgm_pp9_5_s2:1 3.052569e+00
2 pgm_pp9_5_s2:1 vs_40_9:A 1.000000e-03
*END

*D_NET pgm_pp9_5_s3 1.430916e-03
*CONN
*I lt_pp9_5_s3:Z O
*I vs_53_9:A I
*CAP
1 pgm_pp9_5_s3:1 1.430916e-03
*RES
1 lt_pp9_5_s3:Z pgm_pp9_5_s3:1 1.623778e+00
2 pgm_pp9_5_s3:1 vs_53_9:A 1.000000e-03
*END

*D_NET pgm_pp9_6_s0 2.690004e-03
*CONN
*I lt_pp9_6_s0:Z O
*I vs_9_9:A I
*CAP
1 pgm_pp9_6_s0:1 2.690004e-03
*RES
1 lt_pp9_6_s0:Z pgm_pp9_6_s0:1 3.052569e+00
2 pgm_pp9_6_s0:1 vs_9_9:A 1.000000e-03
*END

*D_NET pgm_pp9_6_s2 4.654861e-03
*CONN
*I lt_pp9_6_s2:Z O
*I vs_41_9:A I
*CAP
1 pgm_pp9_6_s2:1 4.654861e-03
*RES
1 lt_pp9_6_s2:Z pgm_pp9_6_s2:1 3.797719e+00
2 pgm_pp9_6_s2:1 vs_41_9:A 1.000000e-03
*END

*D_NET pgm_pp9_6_s3 4.580118e-03
*CONN
*I lt_pp9_6_s3:Z O
*I vs_58_9:A I
*CAP
1 pgm_pp9_6_s3:1 4.580118e-03
*RES
1 lt_pp9_6_s3:Z pgm_pp9_6_s3:1 5.197436e+00
2 pgm_pp9_6_s3:1 vs_58_9:A 1.000000e-03
*END

*D_NET pgm_pp9_7_s2 7.975212e-03
*CONN
*I lt_pp9_7_s2:Z O
*I vs_45_9:A I
*CAP
1 pgm_pp9_7_s2:1 7.975212e-03
*RES
1 lt_pp9_7_s2:Z pgm_pp9_7_s2:1 9.050127e+00
2 pgm_pp9_7_s2:1 vs_45_9:A 1.000000e-03
*END

*D_NET pgm_pp9_8_s0 1.352705e-02
*CONN
*I lt_pp9_8_s0:Z O
*I vs_14_9:A I
*I vs_10_9:A I
*I vs_6_9:A I
*CAP
1 pgm_pp9_8_s0:1 1.352705e-02
*RES
1 lt_pp9_8_s0:Z pgm_pp9_8_s0:1 1.535025e+01
2 pgm_pp9_8_s0:1 vs_14_9:A 1.000000e-03
3 pgm_pp9_8_s0:1 vs_10_9:A 1.000000e-03
4 pgm_pp9_8_s0:1 vs_6_9:A 1.000000e-03
*END

*D_NET pgm_pp9_8_s1 6.861289e-03
*CONN
*I lt_pp9_8_s1:Z O
*I vs_21_9:A I
*CAP
1 pgm_pp9_8_s1:1 6.861289e-03
*RES
1 lt_pp9_8_s1:Z pgm_pp9_8_s1:1 7.786068e+00
2 pgm_pp9_8_s1:1 vs_21_9:A 1.000000e-03
*END

*D_NET pgm_pp9_9_s1 5.199293e-03
*CONN
*I lt_pp9_9_s1:Z O
*I vs_30_9:A I
*CAP
1 pgm_pp9_9_s1:1 5.199293e-03
*RES
1 lt_pp9_9_s1:Z pgm_pp9_9_s1:1 5.900064e+00
2 pgm_pp9_9_s1:1 vs_30_9:A 1.000000e-03
*END

