*SPEF "ieee 1481-1999"
*DESIGN "top"
*DATE "r3"
*VENDOR "r3_prog_spef"
*PROGRAM "r3_prog_spef.py"
*VERSION "1"
*DESIGN_FLOW "NAME_SCOPE LOCAL" "PIN_CAP NONE"
*DIVIDER /
*DELIMITER :
*BUS_DELIMITER []
*T_UNIT 1 NS
*C_UNIT 1 PF
*R_UNIT 1 OHM
*L_UNIT 1 HENRY

*D_NET pgm_pn0_0_s1 7.189110e-03
*CONN
*I lt_pn0_0_s1:Z O
*I vs_21_0:A I
*CAP
1 pgm_pn0_0_s1:1 7.189110e-03
*RES
1 lt_pn0_0_s1:Z pgm_pn0_0_s1:1 6.873859e+00
2 pgm_pn0_0_s1:1 vs_21_0:A 1.000000e-03
*END

*D_NET pgm_pn0_0_s3 1.376718e-02
*CONN
*I lt_pn0_0_s3:Z O
*I vs_57_0:A I
*I vs_51_0:A I
*CAP
1 pgm_pn0_0_s3:1 1.376718e-02
*RES
1 lt_pn0_0_s3:Z pgm_pn0_0_s3:1 1.376262e+01
2 pgm_pn0_0_s3:1 vs_57_0:A 1.000000e-03
3 pgm_pn0_0_s3:1 vs_51_0:A 1.000000e-03
*END

*D_NET pgm_pn0_10_s2 1.182623e-02
*CONN
*I lt_pn0_10_s2:Z O
*I vs_38_0:A I
*CAP
1 pgm_pn0_10_s2:1 1.182623e-02
*RES
1 lt_pn0_10_s2:Z pgm_pn0_10_s2:1 1.102796e+01
2 pgm_pn0_10_s2:1 vs_38_0:A 1.000000e-03
*END

*D_NET pgm_pn0_11_s1 1.863746e-02
*CONN
*I lt_pn0_11_s1:Z O
*I vs_16_0:A I
*CAP
1 pgm_pn0_11_s1:1 1.863746e-02
*RES
1 lt_pn0_11_s1:Z pgm_pn0_11_s1:1 2.114946e+01
2 pgm_pn0_11_s1:1 vs_16_0:A 1.000000e-03
*END

*D_NET pgm_pn0_11_s2 1.828008e-02
*CONN
*I lt_pn0_11_s2:Z O
*I vs_35_0:A I
*CAP
1 pgm_pn0_11_s2:1 1.828008e-02
*RES
1 lt_pn0_11_s2:Z pgm_pn0_11_s2:1 1.630375e+01
2 pgm_pn0_11_s2:1 vs_35_0:A 1.000000e-03
*END

*D_NET pgm_pn0_12_s2 8.440333e-03
*CONN
*I lt_pn0_12_s2:Z O
*I vs_42_0:A I
*CAP
1 pgm_pn0_12_s2:1 8.440333e-03
*RES
1 lt_pn0_12_s2:Z pgm_pn0_12_s2:1 9.577939e+00
2 pgm_pn0_12_s2:1 vs_42_0:A 1.000000e-03
*END

*D_NET pgm_pn0_1_s0 1.579044e-03
*CONN
*I lt_pn0_1_s0:Z O
*I vs_2_0:A I
*CAP
1 pgm_pn0_1_s0:1 1.579044e-03
*RES
1 lt_pn0_1_s0:Z pgm_pn0_1_s0:1 1.791871e+00
2 pgm_pn0_1_s0:1 vs_2_0:A 1.000000e-03
*END

*D_NET pgm_pn0_1_s2 1.182892e-02
*CONN
*I lt_pn0_1_s2:Z O
*I vs_41_0:A I
*I vs_34_0:A I
*CAP
1 pgm_pn0_1_s2:1 1.182892e-02
*RES
1 lt_pn0_1_s2:Z pgm_pn0_1_s2:1 1.228301e+01
2 pgm_pn0_1_s2:1 vs_41_0:A 1.000000e-03
3 pgm_pn0_1_s2:1 vs_34_0:A 1.000000e-03
*END

*D_NET pgm_pn0_1_s3 6.366710e-03
*CONN
*I lt_pn0_1_s3:Z O
*I vs_53_0:A I
*CAP
1 pgm_pn0_1_s3:1 6.366710e-03
*RES
1 lt_pn0_1_s3:Z pgm_pn0_1_s3:1 5.364696e+00
2 pgm_pn0_1_s3:1 vs_53_0:A 1.000000e-03
*END

*D_NET pgm_pn0_2_s0 1.356852e-03
*CONN
*I lt_pn0_2_s0:Z O
*I vs_3_0:A I
*CAP
1 pgm_pn0_2_s0:1 1.356852e-03
*RES
1 lt_pn0_2_s0:Z pgm_pn0_2_s0:1 1.539732e+00
2 pgm_pn0_2_s0:1 vs_3_0:A 1.000000e-03
*END

*D_NET pgm_pn0_2_s1 1.031267e-02
*CONN
*I lt_pn0_2_s1:Z O
*I vs_26_0:A I
*CAP
1 pgm_pn0_2_s1:1 1.031267e-02
*RES
1 lt_pn0_2_s1:Z pgm_pn0_2_s1:1 1.170263e+01
2 pgm_pn0_2_s1:1 vs_26_0:A 1.000000e-03
*END

*D_NET pgm_pn0_2_s2 7.348203e-03
*CONN
*I lt_pn0_2_s2:Z O
*I vs_39_0:A I
*CAP
1 pgm_pn0_2_s2:1 7.348203e-03
*RES
1 lt_pn0_2_s2:Z pgm_pn0_2_s2:1 6.766435e+00
2 pgm_pn0_2_s2:1 vs_39_0:A 1.000000e-03
*END

*D_NET pgm_pn0_3_s0 6.307729e-03
*CONN
*I lt_pn0_3_s0:Z O
*I vs_7_0:A I
*CAP
1 pgm_pn0_3_s0:1 6.307729e-03
*RES
1 lt_pn0_3_s0:Z pgm_pn0_3_s0:1 3.501153e+00
2 pgm_pn0_3_s0:1 vs_7_0:A 1.000000e-03
*END

*D_NET pgm_pn0_4_s2 5.706639e-03
*CONN
*I lt_pn0_4_s2:Z O
*I vs_40_0:A I
*CAP
1 pgm_pn0_4_s2:1 5.706639e-03
*RES
1 lt_pn0_4_s2:Z pgm_pn0_4_s2:1 5.767494e+00
2 pgm_pn0_4_s2:1 vs_40_0:A 1.000000e-03
*END

*D_NET pgm_pn0_5_s0 1.592784e-02
*CONN
*I lt_pn0_5_s0:Z O
*I vs_14_0:A I
*I vs_4_0:A I
*CAP
1 pgm_pn0_5_s0:1 1.592784e-02
*RES
1 lt_pn0_5_s0:Z pgm_pn0_5_s0:1 1.673408e+01
2 pgm_pn0_5_s0:1 vs_14_0:A 1.000000e-03
3 pgm_pn0_5_s0:1 vs_4_0:A 1.000000e-03
*END

*D_NET pgm_pn0_5_s2 1.044302e-02
*CONN
*I lt_pn0_5_s2:Z O
*I vs_46_0:A I
*CAP
1 pgm_pn0_5_s2:1 1.044302e-02
*RES
1 lt_pn0_5_s2:Z pgm_pn0_5_s2:1 1.185056e+01
2 pgm_pn0_5_s2:1 vs_46_0:A 1.000000e-03
*END

*D_NET pgm_pn0_6_s1 8.781028e-03
*CONN
*I lt_pn0_6_s1:Z O
*I vs_30_0:A I
*I vs_24_0:A I
*CAP
1 pgm_pn0_6_s1:1 8.781028e-03
*RES
1 lt_pn0_6_s1:Z pgm_pn0_6_s1:1 9.964553e+00
2 pgm_pn0_6_s1:1 vs_30_0:A 1.000000e-03
3 pgm_pn0_6_s1:1 vs_24_0:A 1.000000e-03
*END

*D_NET pgm_pn0_7_s0 6.730936e-03
*CONN
*I lt_pn0_7_s0:Z O
*I vs_5_0:A I
*CAP
1 pgm_pn0_7_s0:1 6.730936e-03
*RES
1 lt_pn0_7_s0:Z pgm_pn0_7_s0:1 7.638146e+00
2 pgm_pn0_7_s0:1 vs_5_0:A 1.000000e-03
*END

*D_NET pgm_pn0_7_s1 8.434645e-03
*CONN
*I lt_pn0_7_s1:Z O
*I vs_19_0:A I
*CAP
1 pgm_pn0_7_s1:1 8.434645e-03
*RES
1 lt_pn0_7_s1:Z pgm_pn0_7_s1:1 7.942971e+00
2 pgm_pn0_7_s1:1 vs_19_0:A 1.000000e-03
*END

*D_NET pgm_pn0_8_s0 4.177210e-03
*CONN
*I lt_pn0_8_s0:Z O
*I vs_13_0:A I
*CAP
1 pgm_pn0_8_s0:1 4.177210e-03
*RES
1 lt_pn0_8_s0:Z pgm_pn0_8_s0:1 4.740223e+00
2 pgm_pn0_8_s0:1 vs_13_0:A 1.000000e-03
*END

*D_NET pgm_pn0_8_s2 1.129624e-02
*CONN
*I lt_pn0_8_s2:Z O
*I vs_43_0:A I
*I vs_36_0:A I
*CAP
1 pgm_pn0_8_s2:1 1.129624e-02
*RES
1 lt_pn0_8_s2:Z pgm_pn0_8_s2:1 1.281877e+01
2 pgm_pn0_8_s2:1 vs_43_0:A 1.000000e-03
3 pgm_pn0_8_s2:1 vs_36_0:A 1.000000e-03
*END

*D_NET pgm_pn0_8_s3 2.610015e-03
*CONN
*I lt_pn0_8_s3:Z O
*I vs_60_0:A I
*CAP
1 pgm_pn0_8_s3:1 2.610015e-03
*RES
1 lt_pn0_8_s3:Z pgm_pn0_8_s3:1 2.961799e+00
2 pgm_pn0_8_s3:1 vs_60_0:A 1.000000e-03
*END

*D_NET pgm_pn0_9_s2 2.832207e-03
*CONN
*I lt_pn0_9_s2:Z O
*I vs_45_0:A I
*CAP
1 pgm_pn0_9_s2:1 2.832207e-03
*RES
1 lt_pn0_9_s2:Z pgm_pn0_9_s2:1 3.213938e+00
2 pgm_pn0_9_s2:1 vs_45_0:A 1.000000e-03
*END

*D_NET pgm_pn10_0_s0 1.712877e-02
*CONN
*I lt_pn10_0_s0:Z O
*I vs_10_10:A I
*I vs_7_10:A I
*CAP
1 pgm_pn10_0_s0:1 1.712877e-02
*RES
1 lt_pn10_0_s0:Z pgm_pn10_0_s0:1 1.527896e+01
2 pgm_pn10_0_s0:1 vs_10_10:A 1.000000e-03
3 pgm_pn10_0_s0:1 vs_7_10:A 1.000000e-03
*END

*D_NET pgm_pn10_10_s0 3.910579e-03
*CONN
*I lt_pn10_10_s0:Z O
*I vs_15_10:A I
*CAP
1 pgm_pn10_10_s0:1 3.910579e-03
*RES
1 lt_pn10_10_s0:Z pgm_pn10_10_s0:1 4.437655e+00
2 pgm_pn10_10_s0:1 vs_15_10:A 1.000000e-03
*END

*D_NET pgm_pn10_10_s3 1.339731e-02
*CONN
*I lt_pn10_10_s3:Z O
*I vs_52_10:A I
*CAP
1 pgm_pn10_10_s3:1 1.339731e-02
*RES
1 lt_pn10_10_s3:Z pgm_pn10_10_s3:1 1.348687e+01
2 pgm_pn10_10_s3:1 vs_52_10:A 1.000000e-03
*END

*D_NET pgm_pn10_11_s3 1.008442e-02
*CONN
*I lt_pn10_11_s3:Z O
*I vs_55_10:A I
*CAP
1 pgm_pn10_11_s3:1 1.008442e-02
*RES
1 lt_pn10_11_s3:Z pgm_pn10_11_s3:1 1.044736e+01
2 pgm_pn10_11_s3:1 vs_55_10:A 1.000000e-03
*END

*D_NET pgm_pn10_12_s1 2.021078e-02
*CONN
*I lt_pn10_12_s1:Z O
*I vs_19_10:A I
*CAP
1 pgm_pn10_12_s1:1 2.021078e-02
*RES
1 lt_pn10_12_s1:Z pgm_pn10_12_s1:1 1.820671e+01
2 pgm_pn10_12_s1:1 vs_19_10:A 1.000000e-03
*END

*D_NET pgm_pn10_12_s2 1.635333e-03
*CONN
*I lt_pn10_12_s2:Z O
*I vs_47_10:A I
*CAP
1 pgm_pn10_12_s2:1 1.635333e-03
*RES
1 lt_pn10_12_s2:Z pgm_pn10_12_s2:1 1.855747e+00
2 pgm_pn10_12_s2:1 vs_47_10:A 1.000000e-03
*END

*D_NET pgm_pn10_1_s0 1.787707e-02
*CONN
*I lt_pn10_1_s0:Z O
*I vs_13_10:A I
*I vs_4_10:A I
*CAP
1 pgm_pn10_1_s0:1 1.787707e-02
*RES
1 lt_pn10_1_s0:Z pgm_pn10_1_s0:1 1.793817e+01
2 pgm_pn10_1_s0:1 vs_13_10:A 1.000000e-03
3 pgm_pn10_1_s0:1 vs_4_10:A 1.000000e-03
*END

*D_NET pgm_pn10_1_s1 1.774573e-02
*CONN
*I lt_pn10_1_s1:Z O
*I vs_31_10:A I
*CAP
1 pgm_pn10_1_s1:1 1.774573e-02
*RES
1 lt_pn10_1_s1:Z pgm_pn10_1_s1:1 2.013754e+01
2 pgm_pn10_1_s1:1 vs_31_10:A 1.000000e-03
*END

*D_NET pgm_pn10_1_s2 2.006678e-02
*CONN
*I lt_pn10_1_s2:Z O
*I vs_46_10:A I
*I vs_39_10:A I
*CAP
1 pgm_pn10_1_s2:1 2.006678e-02
*RES
1 lt_pn10_1_s2:Z pgm_pn10_1_s2:1 2.034117e+01
2 pgm_pn10_1_s2:1 vs_46_10:A 1.000000e-03
3 pgm_pn10_1_s2:1 vs_39_10:A 1.000000e-03
*END

*D_NET pgm_pn10_3_s1 1.326338e-02
*CONN
*I lt_pn10_3_s1:Z O
*I vs_30_10:A I
*CAP
1 pgm_pn10_3_s1:1 1.326338e-02
*RES
1 lt_pn10_3_s1:Z pgm_pn10_3_s1:1 1.505105e+01
2 pgm_pn10_3_s1:1 vs_30_10:A 1.000000e-03
*END

*D_NET pgm_pn10_3_s2 5.012652e-03
*CONN
*I lt_pn10_3_s2:Z O
*I vs_33_10:A I
*CAP
1 pgm_pn10_3_s2:1 5.012652e-03
*RES
1 lt_pn10_3_s2:Z pgm_pn10_3_s2:1 5.688267e+00
2 pgm_pn10_3_s2:1 vs_33_10:A 1.000000e-03
*END

*D_NET pgm_pn10_4_s1 3.128463e-03
*CONN
*I lt_pn10_4_s1:Z O
*I vs_23_10:A I
*CAP
1 pgm_pn10_4_s1:1 3.128463e-03
*RES
1 lt_pn10_4_s1:Z pgm_pn10_4_s1:1 3.550124e+00
2 pgm_pn10_4_s1:1 vs_23_10:A 1.000000e-03
*END

*D_NET pgm_pn10_4_s2 8.167778e-03
*CONN
*I lt_pn10_4_s2:Z O
*I vs_32_10:A I
*CAP
1 pgm_pn10_4_s2:1 8.167778e-03
*RES
1 lt_pn10_4_s2:Z pgm_pn10_4_s2:1 9.268648e+00
2 pgm_pn10_4_s2:1 vs_32_10:A 1.000000e-03
*END

*D_NET pgm_pn10_4_s3 1.164286e-03
*CONN
*I lt_pn10_4_s3:Z O
*I vs_54_10:A I
*CAP
1 pgm_pn10_4_s3:1 1.164286e-03
*RES
1 lt_pn10_4_s3:Z pgm_pn10_4_s3:1 1.321211e+00
2 pgm_pn10_4_s3:1 vs_54_10:A 1.000000e-03
*END

*D_NET pgm_pn10_5_s0 5.113379e-03
*CONN
*I lt_pn10_5_s0:Z O
*I vs_3_10:A I
*CAP
1 pgm_pn10_5_s0:1 5.113379e-03
*RES
1 lt_pn10_5_s0:Z pgm_pn10_5_s0:1 5.802570e+00
2 pgm_pn10_5_s0:1 vs_3_10:A 1.000000e-03
*END

*D_NET pgm_pn10_5_s3 1.125848e-02
*CONN
*I lt_pn10_5_s3:Z O
*I vs_62_10:A I
*CAP
1 pgm_pn10_5_s3:1 1.125848e-02
*RES
1 lt_pn10_5_s3:Z pgm_pn10_5_s3:1 1.206762e+01
2 pgm_pn10_5_s3:1 vs_62_10:A 1.000000e-03
*END

*D_NET pgm_pn10_6_s2 1.362778e-04
*CONN
*I lt_pn10_6_s2:Z O
*I vs_40_10:A I
*CAP
1 pgm_pn10_6_s2:1 1.362778e-04
*RES
1 lt_pn10_6_s2:Z pgm_pn10_6_s2:1 1.546456e-01
2 pgm_pn10_6_s2:1 vs_40_10:A 1.000000e-03
*END

*D_NET pgm_pn10_6_s3 1.144141e-02
*CONN
*I lt_pn10_6_s3:Z O
*I vs_57_10:A I
*I vs_49_10:A I
*CAP
1 pgm_pn10_6_s3:1 1.144141e-02
*RES
1 lt_pn10_6_s3:Z pgm_pn10_6_s3:1 1.298350e+01
2 pgm_pn10_6_s3:1 vs_57_10:A 1.000000e-03
3 pgm_pn10_6_s3:1 vs_49_10:A 1.000000e-03
*END

*D_NET pgm_pn10_7_s0 1.354870e-02
*CONN
*I lt_pn10_7_s0:Z O
*I vs_1_10:A I
*CAP
1 pgm_pn10_7_s0:1 1.354870e-02
*RES
1 lt_pn10_7_s0:Z pgm_pn10_7_s0:1 1.280640e+01
2 pgm_pn10_7_s0:1 vs_1_10:A 1.000000e-03
*END

*D_NET pgm_pn10_7_s1 1.638296e-03
*CONN
*I lt_pn10_7_s1:Z O
*I vs_25_10:A I
*CAP
1 pgm_pn10_7_s1:1 1.638296e-03
*RES
1 lt_pn10_7_s1:Z pgm_pn10_7_s1:1 1.859109e+00
2 pgm_pn10_7_s1:1 vs_25_10:A 1.000000e-03
*END

*D_NET pgm_pn10_7_s3 5.702928e-03
*CONN
*I lt_pn10_7_s3:Z O
*I vs_53_10:A I
*CAP
1 pgm_pn10_7_s3:1 5.702928e-03
*RES
1 lt_pn10_7_s3:Z pgm_pn10_7_s3:1 6.471580e+00
2 pgm_pn10_7_s3:1 vs_53_10:A 1.000000e-03
*END

*D_NET pgm_pn10_9_s0 4.047536e-03
*CONN
*I lt_pn10_9_s0:Z O
*I vs_9_10:A I
*CAP
1 pgm_pn10_9_s0:1 4.047536e-03
*RES
1 lt_pn10_9_s0:Z pgm_pn10_9_s0:1 3.108538e+00
2 pgm_pn10_9_s0:1 vs_9_10:A 1.000000e-03
*END

*D_NET pgm_pn10_9_s3 1.491945e-02
*CONN
*I lt_pn10_9_s3:Z O
*I vs_48_10:A I
*CAP
1 pgm_pn10_9_s3:1 1.491945e-02
*RES
1 lt_pn10_9_s3:Z pgm_pn10_9_s3:1 1.693033e+01
2 pgm_pn10_9_s3:1 vs_48_10:A 1.000000e-03
*END

*D_NET pgm_pn11_0_s0 2.536574e-02
*CONN
*I lt_pn11_0_s0:Z O
*I vs_14_11:A I
*I vs_6_11:A I
*I vs_0_11:A I
*CAP
1 pgm_pn11_0_s0:1 2.536574e-02
*RES
1 lt_pn11_0_s0:Z pgm_pn11_0_s0:1 2.793232e+01
2 pgm_pn11_0_s0:1 vs_14_11:A 1.000000e-03
3 pgm_pn11_0_s0:1 vs_6_11:A 1.000000e-03
4 pgm_pn11_0_s0:1 vs_0_11:A 1.000000e-03
*END

*D_NET pgm_pn11_0_s1 1.686987e-02
*CONN
*I lt_pn11_0_s1:Z O
*I vs_29_11:A I
*CAP
1 pgm_pn11_0_s1:1 1.686987e-02
*RES
1 lt_pn11_0_s1:Z pgm_pn11_0_s1:1 1.757145e+01
2 pgm_pn11_0_s1:1 vs_29_11:A 1.000000e-03
*END

*D_NET pgm_pn11_0_s3 1.912629e-02
*CONN
*I lt_pn11_0_s3:Z O
*I vs_63_11:A I
*CAP
1 pgm_pn11_0_s3:1 1.912629e-02
*RES
1 lt_pn11_0_s3:Z pgm_pn11_0_s3:1 2.170417e+01
2 pgm_pn11_0_s3:1 vs_63_11:A 1.000000e-03
*END

*D_NET pgm_pn11_10_s1 1.856933e-02
*CONN
*I lt_pn11_10_s1:Z O
*I vs_20_11:A I
*I vs_16_11:A I
*CAP
1 pgm_pn11_10_s1:1 1.856933e-02
*RES
1 lt_pn11_10_s1:Z pgm_pn11_10_s1:1 2.107214e+01
2 pgm_pn11_10_s1:1 vs_20_11:A 1.000000e-03
3 pgm_pn11_10_s1:1 vs_16_11:A 1.000000e-03
*END

*D_NET pgm_pn11_10_s2 1.906662e-02
*CONN
*I lt_pn11_10_s2:Z O
*I vs_33_11:A I
*CAP
1 pgm_pn11_10_s2:1 1.906662e-02
*RES
1 lt_pn11_10_s2:Z pgm_pn11_10_s2:1 1.862450e+01
2 pgm_pn11_10_s2:1 vs_33_11:A 1.000000e-03
*END

*D_NET pgm_pn11_10_s3 2.298947e-03
*CONN
*I lt_pn11_10_s3:Z O
*I vs_62_11:A I
*CAP
1 pgm_pn11_10_s3:1 2.298947e-03
*RES
1 lt_pn11_10_s3:Z pgm_pn11_10_s3:1 2.608803e+00
2 pgm_pn11_10_s3:1 vs_62_11:A 1.000000e-03
*END

*D_NET pgm_pn11_11_s3 8.562409e-03
*CONN
*I lt_pn11_11_s3:Z O
*I vs_57_11:A I
*CAP
1 pgm_pn11_11_s3:1 8.562409e-03
*RES
1 lt_pn11_11_s3:Z pgm_pn11_11_s3:1 8.000316e+00
2 pgm_pn11_11_s3:1 vs_57_11:A 1.000000e-03
*END

*D_NET pgm_pn11_12_s0 1.246070e-02
*CONN
*I lt_pn11_12_s0:Z O
*I vs_7_11:A I
*CAP
1 pgm_pn11_12_s0:1 1.246070e-02
*RES
1 lt_pn11_12_s0:Z pgm_pn11_12_s0:1 1.228004e+01
2 pgm_pn11_12_s0:1 vs_7_11:A 1.000000e-03
*END

*D_NET pgm_pn11_12_s1 1.346633e-02
*CONN
*I lt_pn11_12_s1:Z O
*I vs_22_11:A I
*CAP
1 pgm_pn11_12_s1:1 1.346633e-02
*RES
1 lt_pn11_12_s1:Z pgm_pn11_12_s1:1 1.385316e+01
2 pgm_pn11_12_s1:1 vs_22_11:A 1.000000e-03
*END

*D_NET pgm_pn11_12_s3 1.467301e-02
*CONN
*I lt_pn11_12_s3:Z O
*I vs_55_11:A I
*CAP
1 pgm_pn11_12_s3:1 1.467301e-02
*RES
1 lt_pn11_12_s3:Z pgm_pn11_12_s3:1 1.264245e+01
2 pgm_pn11_12_s3:1 vs_55_11:A 1.000000e-03
*END

*D_NET pgm_pn11_1_s2 1.313201e-02
*CONN
*I lt_pn11_1_s2:Z O
*I vs_43_11:A I
*CAP
1 pgm_pn11_1_s2:1 1.313201e-02
*RES
1 lt_pn11_1_s2:Z pgm_pn11_1_s2:1 1.361775e+01
2 pgm_pn11_1_s2:1 vs_43_11:A 1.000000e-03
*END

*D_NET pgm_pn11_2_s0 1.133758e-02
*CONN
*I lt_pn11_2_s0:Z O
*I vs_11_11:A I
*CAP
1 pgm_pn11_2_s0:1 1.133758e-02
*RES
1 lt_pn11_2_s0:Z pgm_pn11_2_s0:1 1.186943e+01
2 pgm_pn11_2_s0:1 vs_11_11:A 1.000000e-03
*END

*D_NET pgm_pn11_3_s1 1.535546e-02
*CONN
*I lt_pn11_3_s1:Z O
*I vs_30_11:A I
*I vs_26_11:A I
*CAP
1 pgm_pn11_3_s1:1 1.535546e-02
*RES
1 lt_pn11_3_s1:Z pgm_pn11_3_s1:1 1.454459e+01
2 pgm_pn11_3_s1:1 vs_30_11:A 1.000000e-03
3 pgm_pn11_3_s1:1 vs_26_11:A 1.000000e-03
*END

*D_NET pgm_pn11_3_s3 2.038241e-03
*CONN
*I lt_pn11_3_s3:Z O
*I vs_52_11:A I
*CAP
1 pgm_pn11_3_s3:1 2.038241e-03
*RES
1 lt_pn11_3_s3:Z pgm_pn11_3_s3:1 2.312960e+00
2 pgm_pn11_3_s3:1 vs_52_11:A 1.000000e-03
*END

*D_NET pgm_pn11_4_s0 6.413942e-03
*CONN
*I lt_pn11_4_s0:Z O
*I vs_1_11:A I
*CAP
1 pgm_pn11_4_s0:1 6.413942e-03
*RES
1 lt_pn11_4_s0:Z pgm_pn11_4_s0:1 7.278427e+00
2 pgm_pn11_4_s0:1 vs_1_11:A 1.000000e-03
*END

*D_NET pgm_pn11_4_s1 2.764068e-03
*CONN
*I lt_pn11_4_s1:Z O
*I vs_23_11:A I
*CAP
1 pgm_pn11_4_s1:1 2.764068e-03
*RES
1 lt_pn11_4_s1:Z pgm_pn11_4_s1:1 3.136615e+00
2 pgm_pn11_4_s1:1 vs_23_11:A 1.000000e-03
*END

*D_NET pgm_pn11_4_s3 6.873139e-03
*CONN
*I lt_pn11_4_s3:Z O
*I vs_49_11:A I
*CAP
1 pgm_pn11_4_s3:1 6.873139e-03
*RES
1 lt_pn11_4_s3:Z pgm_pn11_4_s3:1 7.799515e+00
2 pgm_pn11_4_s3:1 vs_49_11:A 1.000000e-03
*END

*D_NET pgm_pn11_5_s1 1.393571e-02
*CONN
*I lt_pn11_5_s1:Z O
*I vs_31_11:A I
*CAP
1 pgm_pn11_5_s1:1 1.393571e-02
*RES
1 lt_pn11_5_s1:Z pgm_pn11_5_s1:1 1.442962e+01
2 pgm_pn11_5_s1:1 vs_31_11:A 1.000000e-03
*END

*D_NET pgm_pn11_6_s2 9.154310e-03
*CONN
*I lt_pn11_6_s2:Z O
*I vs_46_11:A I
*CAP
1 pgm_pn11_6_s2:1 9.154310e-03
*RES
1 lt_pn11_6_s2:Z pgm_pn11_6_s2:1 1.038815e+01
2 pgm_pn11_6_s2:1 vs_46_11:A 1.000000e-03
*END

*D_NET pgm_pn11_7_s0 1.430916e-03
*CONN
*I lt_pn11_7_s0:Z O
*I vs_10_11:A I
*CAP
1 pgm_pn11_7_s0:1 1.430916e-03
*RES
1 lt_pn11_7_s0:Z pgm_pn11_7_s0:1 1.623778e+00
2 pgm_pn11_7_s0:1 vs_10_11:A 1.000000e-03
*END

*D_NET pgm_pn11_7_s2 6.754637e-04
*CONN
*I lt_pn11_7_s2:Z O
*I vs_41_11:A I
*CAP
1 pgm_pn11_7_s2:1 6.754637e-04
*RES
1 lt_pn11_7_s2:Z pgm_pn11_7_s2:1 7.665041e-01
2 pgm_pn11_7_s2:1 vs_41_11:A 1.000000e-03
*END

*D_NET pgm_pn11_7_s3 8.342569e-03
*CONN
*I lt_pn11_7_s3:Z O
*I vs_51_11:A I
*CAP
1 pgm_pn11_7_s3:1 8.342569e-03
*RES
1 lt_pn11_7_s3:Z pgm_pn11_7_s3:1 9.466998e+00
2 pgm_pn11_7_s3:1 vs_51_11:A 1.000000e-03
*END

*D_NET pgm_pn11_8_s1 1.421511e-02
*CONN
*I lt_pn11_8_s1:Z O
*I vs_17_11:A I
*CAP
1 pgm_pn11_8_s1:1 1.421511e-02
*RES
1 lt_pn11_8_s1:Z pgm_pn11_8_s1:1 1.542276e+01
2 pgm_pn11_8_s1:1 vs_17_11:A 1.000000e-03
*END

*D_NET pgm_pn11_9_s3 2.429299e-03
*CONN
*I lt_pn11_9_s3:Z O
*I vs_61_11:A I
*CAP
1 pgm_pn11_9_s3:1 2.429299e-03
*RES
1 lt_pn11_9_s3:Z pgm_pn11_9_s3:1 2.756725e+00
2 pgm_pn11_9_s3:1 vs_61_11:A 1.000000e-03
*END

*D_NET pgm_pn12_0_s0 1.856353e-02
*CONN
*I lt_pn12_0_s0:Z O
*I vs_14_12:A I
*I vs_12_12:A I
*CAP
1 pgm_pn12_0_s0:1 1.856353e-02
*RES
1 lt_pn12_0_s0:Z pgm_pn12_0_s0:1 1.881732e+01
2 pgm_pn12_0_s0:1 vs_14_12:A 1.000000e-03
3 pgm_pn12_0_s0:1 vs_12_12:A 1.000000e-03
*END

*D_NET pgm_pn12_0_s1 1.936329e-02
*CONN
*I lt_pn12_0_s1:Z O
*I vs_31_12:A I
*CAP
1 pgm_pn12_0_s1:1 1.936329e-02
*RES
1 lt_pn12_0_s1:Z pgm_pn12_0_s1:1 2.197312e+01
2 pgm_pn12_0_s1:1 vs_31_12:A 1.000000e-03
*END

*D_NET pgm_pn12_0_s2 1.980076e-02
*CONN
*I lt_pn12_0_s2:Z O
*I vs_44_12:A I
*CAP
1 pgm_pn12_0_s2:1 1.980076e-02
*RES
1 lt_pn12_0_s2:Z pgm_pn12_0_s2:1 1.831734e+01
2 pgm_pn12_0_s2:1 vs_44_12:A 1.000000e-03
*END

*D_NET pgm_pn12_11_s0 1.989658e-02
*CONN
*I lt_pn12_11_s0:Z O
*I vs_2_12:A I
*CAP
1 pgm_pn12_11_s0:1 1.989658e-02
*RES
1 lt_pn12_11_s0:Z pgm_pn12_11_s0:1 1.971030e+01
2 pgm_pn12_11_s0:1 vs_2_12:A 1.000000e-03
*END

*D_NET pgm_pn12_11_s1 2.521139e-03
*CONN
*I lt_pn12_11_s1:Z O
*I vs_29_12:A I
*CAP
1 pgm_pn12_11_s1:1 2.521139e-03
*RES
1 lt_pn12_11_s1:Z pgm_pn12_11_s1:1 2.860943e+00
2 pgm_pn12_11_s1:1 vs_29_12:A 1.000000e-03
*END

*D_NET pgm_pn12_12_s1 5.664415e-03
*CONN
*I lt_pn12_12_s1:Z O
*I vs_28_12:A I
*CAP
1 pgm_pn12_12_s1:1 5.664415e-03
*RES
1 lt_pn12_12_s1:Z pgm_pn12_12_s1:1 6.427876e+00
2 pgm_pn12_12_s1:1 vs_28_12:A 1.000000e-03
*END

*D_NET pgm_pn12_12_s2 6.520595e-03
*CONN
*I lt_pn12_12_s2:Z O
*I vs_43_12:A I
*CAP
1 pgm_pn12_12_s2:1 6.520595e-03
*RES
1 lt_pn12_12_s2:Z pgm_pn12_12_s2:1 7.399454e+00
2 pgm_pn12_12_s2:1 vs_43_12:A 1.000000e-03
*END

*D_NET pgm_pn12_12_s3 2.104146e-02
*CONN
*I lt_pn12_12_s3:Z O
*I vs_59_12:A I
*I vs_51_12:A I
*CAP
1 pgm_pn12_12_s3:1 2.104146e-02
*RES
1 lt_pn12_12_s3:Z pgm_pn12_12_s3:1 2.145302e+01
2 pgm_pn12_12_s3:1 vs_59_12:A 1.000000e-03
3 pgm_pn12_12_s3:1 vs_51_12:A 1.000000e-03
*END

*D_NET pgm_pn12_1_s0 7.622667e-03
*CONN
*I lt_pn12_1_s0:Z O
*I vs_7_12:A I
*CAP
1 pgm_pn12_1_s0:1 7.622667e-03
*RES
1 lt_pn12_1_s0:Z pgm_pn12_1_s0:1 8.650066e+00
2 pgm_pn12_1_s0:1 vs_7_12:A 1.000000e-03
*END

*D_NET pgm_pn12_1_s1 2.082680e-03
*CONN
*I lt_pn12_1_s1:Z O
*I vs_17_12:A I
*CAP
1 pgm_pn12_1_s1:1 2.082680e-03
*RES
1 lt_pn12_1_s1:Z pgm_pn12_1_s1:1 2.363388e+00
2 pgm_pn12_1_s1:1 vs_17_12:A 1.000000e-03
*END

*D_NET pgm_pn12_1_s2 5.991793e-03
*CONN
*I lt_pn12_1_s2:Z O
*I vs_37_12:A I
*CAP
1 pgm_pn12_1_s2:1 5.991793e-03
*RES
1 lt_pn12_1_s2:Z pgm_pn12_1_s2:1 5.371185e+00
2 pgm_pn12_1_s2:1 vs_37_12:A 1.000000e-03
*END

*D_NET pgm_pn12_1_s3 2.135212e-02
*CONN
*I lt_pn12_1_s3:Z O
*I vs_62_12:A I
*CAP
1 pgm_pn12_1_s3:1 2.135212e-02
*RES
1 lt_pn12_1_s3:Z pgm_pn12_1_s3:1 1.878198e+01
2 pgm_pn12_1_s3:1 vs_62_12:A 1.000000e-03
*END

*D_NET pgm_pn12_2_s0 1.776943e-02
*CONN
*I lt_pn12_2_s0:Z O
*I vs_15_12:A I
*I vs_6_12:A I
*CAP
1 pgm_pn12_2_s0:1 1.776943e-02
*RES
1 lt_pn12_2_s0:Z pgm_pn12_2_s0:1 2.016444e+01
2 pgm_pn12_2_s0:1 vs_15_12:A 1.000000e-03
3 pgm_pn12_2_s0:1 vs_6_12:A 1.000000e-03
*END

*D_NET pgm_pn12_2_s2 9.175048e-03
*CONN
*I lt_pn12_2_s2:Z O
*I vs_41_12:A I
*I vs_38_12:A I
*CAP
1 pgm_pn12_2_s2:1 9.175048e-03
*RES
1 lt_pn12_2_s2:Z pgm_pn12_2_s2:1 1.041168e+01
2 pgm_pn12_2_s2:1 vs_41_12:A 1.000000e-03
3 pgm_pn12_2_s2:1 vs_38_12:A 1.000000e-03
*END

*D_NET pgm_pn12_2_s3 1.053844e-02
*CONN
*I lt_pn12_2_s3:Z O
*I vs_56_12:A I
*I vs_50_12:A I
*CAP
1 pgm_pn12_2_s3:1 1.053844e-02
*RES
1 lt_pn12_2_s3:Z pgm_pn12_2_s3:1 1.024268e+01
2 pgm_pn12_2_s3:1 vs_56_12:A 1.000000e-03
3 pgm_pn12_2_s3:1 vs_50_12:A 1.000000e-03
*END

*D_NET pgm_pn12_3_s1 1.303683e-02
*CONN
*I lt_pn12_3_s1:Z O
*I vs_30_12:A I
*CAP
1 pgm_pn12_3_s1:1 1.303683e-02
*RES
1 lt_pn12_3_s1:Z pgm_pn12_3_s1:1 1.359738e+01
2 pgm_pn12_3_s1:1 vs_30_12:A 1.000000e-03
*END

*D_NET pgm_pn12_3_s3 9.133572e-03
*CONN
*I lt_pn12_3_s3:Z O
*I vs_58_12:A I
*CAP
1 pgm_pn12_3_s3:1 9.133572e-03
*RES
1 lt_pn12_3_s3:Z pgm_pn12_3_s3:1 1.036461e+01
2 pgm_pn12_3_s3:1 vs_58_12:A 1.000000e-03
*END

*D_NET pgm_pn12_4_s0 1.057062e-02
*CONN
*I lt_pn12_4_s0:Z O
*I vs_13_12:A I
*CAP
1 pgm_pn12_4_s0:1 1.057062e-02
*RES
1 lt_pn12_4_s0:Z pgm_pn12_4_s0:1 9.978714e+00
2 pgm_pn12_4_s0:1 vs_13_12:A 1.000000e-03
*END

*D_NET pgm_pn12_5_s0 5.919195e-03
*CONN
*I lt_pn12_5_s0:Z O
*I vs_11_12:A I
*CAP
1 pgm_pn12_5_s0:1 5.919195e-03
*RES
1 lt_pn12_5_s0:Z pgm_pn12_5_s0:1 6.716996e+00
2 pgm_pn12_5_s0:1 vs_11_12:A 1.000000e-03
*END

*D_NET pgm_pn12_5_s3 3.581735e-03
*CONN
*I lt_pn12_5_s3:Z O
*I vs_52_12:A I
*CAP
1 pgm_pn12_5_s3:1 3.581735e-03
*RES
1 lt_pn12_5_s3:Z pgm_pn12_5_s3:1 4.064489e+00
2 pgm_pn12_5_s3:1 vs_52_12:A 1.000000e-03
*END

*D_NET pgm_pn12_7_s1 2.725555e-04
*CONN
*I lt_pn12_7_s1:Z O
*I vs_25_12:A I
*CAP
1 pgm_pn12_7_s1:1 2.725555e-04
*RES
1 lt_pn12_7_s1:Z pgm_pn12_7_s1:1 3.092911e-01
2 pgm_pn12_7_s1:1 vs_25_12:A 1.000000e-03
*END

*D_NET pgm_pn12_8_s0 2.207107e-03
*CONN
*I lt_pn12_8_s0:Z O
*I vs_10_12:A I
*I vs_9_12:A I
*CAP
1 pgm_pn12_8_s0:1 2.207107e-03
*RES
1 lt_pn12_8_s0:Z pgm_pn12_8_s0:1 2.504586e+00
2 pgm_pn12_8_s0:1 vs_10_12:A 1.000000e-03
3 pgm_pn12_8_s0:1 vs_9_12:A 1.000000e-03
*END

*D_NET pgm_pn12_8_s2 1.027712e-02
*CONN
*I lt_pn12_8_s2:Z O
*I vs_35_12:A I
*CAP
1 pgm_pn12_8_s2:1 1.027712e-02
*RES
1 lt_pn12_8_s2:Z pgm_pn12_8_s2:1 1.166229e+01
2 pgm_pn12_8_s2:1 vs_35_12:A 1.000000e-03
*END

*D_NET pgm_pn13_0_s1 5.936970e-03
*CONN
*I lt_pn13_0_s1:Z O
*I vs_20_13:A I
*CAP
1 pgm_pn13_0_s1:1 5.936970e-03
*RES
1 lt_pn13_0_s1:Z pgm_pn13_0_s1:1 6.737167e+00
2 pgm_pn13_0_s1:1 vs_20_13:A 1.000000e-03
*END

*D_NET pgm_pn13_10_s0 1.519201e-02
*CONN
*I lt_pn13_10_s0:Z O
*I vs_1_13:A I
*CAP
1 pgm_pn13_10_s0:1 1.519201e-02
*RES
1 lt_pn13_10_s0:Z pgm_pn13_10_s0:1 1.723962e+01
2 pgm_pn13_10_s0:1 vs_1_13:A 1.000000e-03
*END

*D_NET pgm_pn13_10_s1 5.406672e-03
*CONN
*I lt_pn13_10_s1:Z O
*I vs_28_13:A I
*I vs_26_13:A I
*CAP
1 pgm_pn13_10_s1:1 5.406672e-03
*RES
1 lt_pn13_10_s1:Z pgm_pn13_10_s1:1 6.135395e+00
2 pgm_pn13_10_s1:1 vs_28_13:A 1.000000e-03
3 pgm_pn13_10_s1:1 vs_26_13:A 1.000000e-03
*END

*D_NET pgm_pn13_11_s0 2.571502e-03
*CONN
*I lt_pn13_11_s0:Z O
*I vs_13_13:A I
*CAP
1 pgm_pn13_11_s0:1 2.571502e-03
*RES
1 lt_pn13_11_s0:Z pgm_pn13_11_s0:1 2.918094e+00
2 pgm_pn13_11_s0:1 vs_13_13:A 1.000000e-03
*END

*D_NET pgm_pn13_1_s0 1.618447e-02
*CONN
*I lt_pn13_1_s0:Z O
*I vs_14_13:A I
*CAP
1 pgm_pn13_1_s0:1 1.618447e-02
*RES
1 lt_pn13_1_s0:Z pgm_pn13_1_s0:1 1.836584e+01
2 pgm_pn13_1_s0:1 vs_14_13:A 1.000000e-03
*END

*D_NET pgm_pn13_1_s2 1.376405e-02
*CONN
*I lt_pn13_1_s2:Z O
*I vs_43_13:A I
*I vs_40_13:A I
*CAP
1 pgm_pn13_1_s2:1 1.376405e-02
*RES
1 lt_pn13_1_s2:Z pgm_pn13_1_s2:1 1.561920e+01
2 pgm_pn13_1_s2:1 vs_43_13:A 1.000000e-03
3 pgm_pn13_1_s2:1 vs_40_13:A 1.000000e-03
*END

*D_NET pgm_pn13_1_s3 1.278627e-02
*CONN
*I lt_pn13_1_s3:Z O
*I vs_58_13:A I
*I vs_51_13:A I
*CAP
1 pgm_pn13_1_s3:1 1.278627e-02
*RES
1 lt_pn13_1_s3:Z pgm_pn13_1_s3:1 1.351338e+01
2 pgm_pn13_1_s3:1 vs_58_13:A 1.000000e-03
3 pgm_pn13_1_s3:1 vs_51_13:A 1.000000e-03
*END

*D_NET pgm_pn13_2_s1 1.262837e-02
*CONN
*I lt_pn13_2_s1:Z O
*I vs_27_13:A I
*CAP
1 pgm_pn13_2_s1:1 1.262837e-02
*RES
1 lt_pn13_2_s1:Z pgm_pn13_2_s1:1 1.304623e+01
2 pgm_pn13_2_s1:1 vs_27_13:A 1.000000e-03
*END

*D_NET pgm_pn13_3_s0 5.415560e-03
*CONN
*I lt_pn13_3_s0:Z O
*I vs_7_13:A I
*CAP
1 pgm_pn13_3_s0:1 5.415560e-03
*RES
1 lt_pn13_3_s0:Z pgm_pn13_3_s0:1 6.145480e+00
2 pgm_pn13_3_s0:1 vs_7_13:A 1.000000e-03
*END

*D_NET pgm_pn13_3_s3 1.000398e-02
*CONN
*I lt_pn13_3_s3:Z O
*I vs_59_13:A I
*CAP
1 pgm_pn13_3_s3:1 1.000398e-02
*RES
1 lt_pn13_3_s3:Z pgm_pn13_3_s3:1 1.021211e+01
2 pgm_pn13_3_s3:1 vs_59_13:A 1.000000e-03
*END

*D_NET pgm_pn13_4_s2 6.736861e-03
*CONN
*I lt_pn13_4_s2:Z O
*I vs_33_13:A I
*CAP
1 pgm_pn13_4_s2:1 6.736861e-03
*RES
1 lt_pn13_4_s2:Z pgm_pn13_4_s2:1 7.644870e+00
2 pgm_pn13_4_s2:1 vs_33_13:A 1.000000e-03
*END

*D_NET pgm_pn13_5_s3 3.552109e-03
*CONN
*I lt_pn13_5_s3:Z O
*I vs_57_13:A I
*CAP
1 pgm_pn13_5_s3:1 3.552109e-03
*RES
1 lt_pn13_5_s3:Z pgm_pn13_5_s3:1 4.030870e+00
2 pgm_pn13_5_s3:1 vs_57_13:A 1.000000e-03
*END

*D_NET pgm_pn13_6_s2 6.191750e-03
*CONN
*I lt_pn13_6_s2:Z O
*I vs_44_13:A I
*CAP
1 pgm_pn13_6_s2:1 6.191750e-03
*RES
1 lt_pn13_6_s2:Z pgm_pn13_6_s2:1 7.026287e+00
2 pgm_pn13_6_s2:1 vs_44_13:A 1.000000e-03
*END

*D_NET pgm_pn13_7_s0 9.411842e-03
*CONN
*I lt_pn13_7_s0:Z O
*I vs_11_13:A I
*I vs_4_13:A I
*CAP
1 pgm_pn13_7_s0:1 9.411842e-03
*RES
1 lt_pn13_7_s0:Z pgm_pn13_7_s0:1 4.562555e+00
2 pgm_pn13_7_s0:1 vs_11_13:A 1.000000e-03
3 pgm_pn13_7_s0:1 vs_4_13:A 1.000000e-03
*END

*D_NET pgm_pn13_7_s2 2.136006e-03
*CONN
*I lt_pn13_7_s2:Z O
*I vs_42_13:A I
*CAP
1 pgm_pn13_7_s2:1 2.136006e-03
*RES
1 lt_pn13_7_s2:Z pgm_pn13_7_s2:1 2.423901e+00
2 pgm_pn13_7_s2:1 vs_42_13:A 1.000000e-03
*END

*D_NET pgm_pn13_8_s0 7.486389e-03
*CONN
*I lt_pn13_8_s0:Z O
*I vs_5_13:A I
*CAP
1 pgm_pn13_8_s0:1 7.486389e-03
*RES
1 lt_pn13_8_s0:Z pgm_pn13_8_s0:1 8.495420e+00
2 pgm_pn13_8_s0:1 vs_5_13:A 1.000000e-03
*END

*D_NET pgm_pn13_8_s3 6.404302e-03
*CONN
*I lt_pn13_8_s3:Z O
*I vs_54_13:A I
*CAP
1 pgm_pn13_8_s3:1 6.404302e-03
*RES
1 lt_pn13_8_s3:Z pgm_pn13_8_s3:1 4.186660e+00
2 pgm_pn13_8_s3:1 vs_54_13:A 1.000000e-03
*END

*D_NET pgm_pn13_9_s2 1.971188e-02
*CONN
*I lt_pn13_9_s2:Z O
*I vs_32_13:A I
*CAP
1 pgm_pn13_9_s2:1 1.971188e-02
*RES
1 lt_pn13_9_s2:Z pgm_pn13_9_s2:1 1.821649e+01
2 pgm_pn13_9_s2:1 vs_32_13:A 1.000000e-03
*END

*D_NET pgm_pn14_0_s0 1.466467e-02
*CONN
*I lt_pn14_0_s0:Z O
*I vs_11_14:A I
*CAP
1 pgm_pn14_0_s0:1 1.466467e-02
*RES
1 lt_pn14_0_s0:Z pgm_pn14_0_s0:1 1.664121e+01
2 pgm_pn14_0_s0:1 vs_11_14:A 1.000000e-03
*END

*D_NET pgm_pn14_0_s2 8.079069e-03
*CONN
*I lt_pn14_0_s2:Z O
*I vs_37_14:A I
*I vs_36_14:A I
*CAP
1 pgm_pn14_0_s2:1 8.079069e-03
*RES
1 lt_pn14_0_s2:Z pgm_pn14_0_s2:1 7.307851e+00
2 pgm_pn14_0_s2:1 vs_37_14:A 1.000000e-03
3 pgm_pn14_0_s2:1 vs_36_14:A 1.000000e-03
*END

*D_NET pgm_pn14_0_s3 1.312652e-02
*CONN
*I lt_pn14_0_s3:Z O
*I vs_58_14:A I
*CAP
1 pgm_pn14_0_s3:1 1.312652e-02
*RES
1 lt_pn14_0_s3:Z pgm_pn14_0_s3:1 1.375551e+01
2 pgm_pn14_0_s3:1 vs_58_14:A 1.000000e-03
*END

*D_NET pgm_pn14_10_s3 2.938860e-03
*CONN
*I lt_pn14_10_s3:Z O
*I vs_61_14:A I
*CAP
1 pgm_pn14_10_s3:1 2.938860e-03
*RES
1 lt_pn14_10_s3:Z pgm_pn14_10_s3:1 3.334965e+00
2 pgm_pn14_10_s3:1 vs_61_14:A 1.000000e-03
*END

*D_NET pgm_pn14_11_s0 1.362778e-03
*CONN
*I lt_pn14_11_s0:Z O
*I vs_14_14:A I
*CAP
1 pgm_pn14_11_s0:1 1.362778e-03
*RES
1 lt_pn14_11_s0:Z pgm_pn14_11_s0:1 1.546456e+00
2 pgm_pn14_11_s0:1 vs_14_14:A 1.000000e-03
*END

*D_NET pgm_pn14_12_s0 1.339271e-02
*CONN
*I lt_pn14_12_s0:Z O
*I vs_7_14:A I
*CAP
1 pgm_pn14_12_s0:1 1.339271e-02
*RES
1 lt_pn14_12_s0:Z pgm_pn14_12_s0:1 1.391359e+01
2 pgm_pn14_12_s0:1 vs_7_14:A 1.000000e-03
*END

*D_NET pgm_pn14_1_s0 2.070692e-03
*CONN
*I lt_pn14_1_s0:Z O
*I vs_1_14:A I
*CAP
1 pgm_pn14_1_s0:1 2.070692e-03
*RES
1 lt_pn14_1_s0:Z pgm_pn14_1_s0:1 1.353528e+00
2 pgm_pn14_1_s0:1 vs_1_14:A 1.000000e-03
*END

*D_NET pgm_pn14_1_s2 4.197948e-03
*CONN
*I lt_pn14_1_s2:Z O
*I vs_32_14:A I
*CAP
1 pgm_pn14_1_s2:1 4.197948e-03
*RES
1 lt_pn14_1_s2:Z pgm_pn14_1_s2:1 4.763756e+00
2 pgm_pn14_1_s2:1 vs_32_14:A 1.000000e-03
*END

*D_NET pgm_pn14_2_s1 9.326139e-03
*CONN
*I lt_pn14_2_s1:Z O
*I vs_25_14:A I
*I vs_23_14:A I
*CAP
1 pgm_pn14_2_s1:1 9.326139e-03
*RES
1 lt_pn14_2_s1:Z pgm_pn14_2_s1:1 1.058314e+01
2 pgm_pn14_2_s1:1 vs_25_14:A 1.000000e-03
3 pgm_pn14_2_s1:1 vs_23_14:A 1.000000e-03
*END

*D_NET pgm_pn14_3_s0 1.572602e-02
*CONN
*I lt_pn14_3_s0:Z O
*I vs_15_14:A I
*CAP
1 pgm_pn14_3_s0:1 1.572602e-02
*RES
1 lt_pn14_3_s0:Z pgm_pn14_3_s0:1 1.713731e+01
2 pgm_pn14_3_s0:1 vs_15_14:A 1.000000e-03
*END

*D_NET pgm_pn14_4_s2 3.581735e-03
*CONN
*I lt_pn14_4_s2:Z O
*I vs_40_14:A I
*CAP
1 pgm_pn14_4_s2:1 3.581735e-03
*RES
1 lt_pn14_4_s2:Z pgm_pn14_4_s2:1 4.064489e+00
2 pgm_pn14_4_s2:1 vs_40_14:A 1.000000e-03
*END

*D_NET pgm_pn14_4_s3 7.889297e-03
*CONN
*I lt_pn14_4_s3:Z O
*I vs_59_14:A I
*I vs_56_14:A I
*CAP
1 pgm_pn14_4_s3:1 7.889297e-03
*RES
1 lt_pn14_4_s3:Z pgm_pn14_4_s3:1 8.952633e+00
2 pgm_pn14_4_s3:1 vs_59_14:A 1.000000e-03
3 pgm_pn14_4_s3:1 vs_56_14:A 1.000000e-03
*END

*D_NET pgm_pn14_5_s0 2.150819e-03
*CONN
*I lt_pn14_5_s0:Z O
*I vs_5_14:A I
*CAP
1 pgm_pn14_5_s0:1 2.150819e-03
*RES
1 lt_pn14_5_s0:Z pgm_pn14_5_s0:1 2.440710e+00
2 pgm_pn14_5_s0:1 vs_5_14:A 1.000000e-03
*END

*D_NET pgm_pn14_5_s3 2.041738e-02
*CONN
*I lt_pn14_5_s3:Z O
*I vs_63_14:A I
*I vs_49_14:A I
*CAP
1 pgm_pn14_5_s3:1 2.041738e-02
*RES
1 lt_pn14_5_s3:Z pgm_pn14_5_s3:1 2.203485e+01
2 pgm_pn14_5_s3:1 vs_63_14:A 1.000000e-03
3 pgm_pn14_5_s3:1 vs_49_14:A 1.000000e-03
*END

*D_NET pgm_pn14_6_s2 7.314561e-03
*CONN
*I lt_pn14_6_s2:Z O
*I vs_45_14:A I
*CAP
1 pgm_pn14_6_s2:1 7.314561e-03
*RES
1 lt_pn14_6_s2:Z pgm_pn14_6_s2:1 8.300432e+00
2 pgm_pn14_6_s2:1 vs_45_14:A 1.000000e-03
*END

*D_NET pgm_pn14_6_s3 1.235878e-02
*CONN
*I lt_pn14_6_s3:Z O
*I vs_48_14:A I
*CAP
1 pgm_pn14_6_s3:1 1.235878e-02
*RES
1 lt_pn14_6_s3:Z pgm_pn14_6_s3:1 1.274030e+01
2 pgm_pn14_6_s3:1 vs_48_14:A 1.000000e-03
*END

*D_NET pgm_pn14_7_s1 5.329645e-03
*CONN
*I lt_pn14_7_s1:Z O
*I vs_21_14:A I
*CAP
1 pgm_pn14_7_s1:1 5.329645e-03
*RES
1 lt_pn14_7_s1:Z pgm_pn14_7_s1:1 6.047986e+00
2 pgm_pn14_7_s1:1 vs_21_14:A 1.000000e-03
*END

*D_NET pgm_pn14_7_s2 1.365444e-02
*CONN
*I lt_pn14_7_s2:Z O
*I vs_42_14:A I
*I vs_33_14:A I
*CAP
1 pgm_pn14_7_s2:1 1.365444e-02
*RES
1 lt_pn14_7_s2:Z pgm_pn14_7_s2:1 1.549481e+01
2 pgm_pn14_7_s2:1 vs_42_14:A 1.000000e-03
3 pgm_pn14_7_s2:1 vs_33_14:A 1.000000e-03
*END

*D_NET pgm_pn14_7_s3 8.101136e-03
*CONN
*I lt_pn14_7_s3:Z O
*I vs_54_14:A I
*CAP
1 pgm_pn14_7_s3:1 8.101136e-03
*RES
1 lt_pn14_7_s3:Z pgm_pn14_7_s3:1 7.764830e+00
2 pgm_pn14_7_s3:1 vs_54_14:A 1.000000e-03
*END

*D_NET pgm_pn14_8_s0 2.464850e-03
*CONN
*I lt_pn14_8_s0:Z O
*I vs_9_14:A I
*CAP
1 pgm_pn14_8_s0:1 2.464850e-03
*RES
1 lt_pn14_8_s0:Z pgm_pn14_8_s0:1 2.797068e+00
2 pgm_pn14_8_s0:1 vs_9_14:A 1.000000e-03
*END

*D_NET pgm_pn14_8_s1 7.003492e-03
*CONN
*I lt_pn14_8_s1:Z O
*I vs_31_14:A I
*CAP
1 pgm_pn14_8_s1:1 7.003492e-03
*RES
1 lt_pn14_8_s1:Z pgm_pn14_8_s1:1 7.947437e+00
2 pgm_pn14_8_s1:1 vs_31_14:A 1.000000e-03
*END

*D_NET pgm_pn14_9_s1 2.328572e-03
*CONN
*I lt_pn14_9_s1:Z O
*I vs_28_14:A I
*CAP
1 pgm_pn14_9_s1:1 2.328572e-03
*RES
1 lt_pn14_9_s1:Z pgm_pn14_9_s1:1 2.642422e+00
2 pgm_pn14_9_s1:1 vs_28_14:A 1.000000e-03
*END

*D_NET pgm_pn15_0_s0 1.235741e-02
*CONN
*I lt_pn15_0_s0:Z O
*I vs_8_15:A I
*CAP
1 pgm_pn15_0_s0:1 1.235741e-02
*RES
1 lt_pn15_0_s0:Z pgm_pn15_0_s0:1 1.191870e+01
2 pgm_pn15_0_s0:1 vs_8_15:A 1.000000e-03
*END

*D_NET pgm_pn15_0_s2 9.617524e-03
*CONN
*I lt_pn15_0_s2:Z O
*I vs_39_15:A I
*CAP
1 pgm_pn15_0_s2:1 9.617524e-03
*RES
1 lt_pn15_0_s2:Z pgm_pn15_0_s2:1 9.341620e+00
2 pgm_pn15_0_s2:1 vs_39_15:A 1.000000e-03
*END

*D_NET pgm_pn15_10_s0 1.403365e-02
*CONN
*I lt_pn15_10_s0:Z O
*I vs_2_15:A I
*CAP
1 pgm_pn15_10_s0:1 1.403365e-02
*RES
1 lt_pn15_10_s0:Z pgm_pn15_10_s0:1 1.592513e+01
2 pgm_pn15_10_s0:1 vs_2_15:A 1.000000e-03
*END

*D_NET pgm_pn15_10_s2 1.565713e-02
*CONN
*I lt_pn15_10_s2:Z O
*I vs_46_15:A I
*I vs_45_15:A I
*I vs_35_15:A I
*CAP
1 pgm_pn15_10_s2:1 1.565713e-02
*RES
1 lt_pn15_10_s2:Z pgm_pn15_10_s2:1 1.776743e+01
2 pgm_pn15_10_s2:1 vs_46_15:A 1.000000e-03
3 pgm_pn15_10_s2:1 vs_45_15:A 1.000000e-03
4 pgm_pn15_10_s2:1 vs_35_15:A 1.000000e-03
*END

*D_NET pgm_pn15_12_s2 6.569935e-03
*CONN
*I lt_pn15_12_s2:Z O
*I vs_43_15:A I
*CAP
1 pgm_pn15_12_s2:1 6.569935e-03
*RES
1 lt_pn15_12_s2:Z pgm_pn15_12_s2:1 6.171230e+00
2 pgm_pn15_12_s2:1 vs_43_15:A 1.000000e-03
*END

*D_NET pgm_pn15_1_s0 2.057590e-02
*CONN
*I lt_pn15_1_s0:Z O
*I vs_15_15:A I
*CAP
1 pgm_pn15_1_s0:1 2.057590e-02
*RES
1 lt_pn15_1_s0:Z pgm_pn15_1_s0:1 2.076913e+01
2 pgm_pn15_1_s0:1 vs_15_15:A 1.000000e-03
*END

*D_NET pgm_pn15_1_s2 6.413942e-03
*CONN
*I lt_pn15_1_s2:Z O
*I vs_38_15:A I
*CAP
1 pgm_pn15_1_s2:1 6.413942e-03
*RES
1 lt_pn15_1_s2:Z pgm_pn15_1_s2:1 7.278427e+00
2 pgm_pn15_1_s2:1 vs_38_15:A 1.000000e-03
*END

*D_NET pgm_pn15_2_s1 7.350111e-03
*CONN
*I lt_pn15_2_s1:Z O
*I vs_24_15:A I
*CAP
1 pgm_pn15_2_s1:1 7.350111e-03
*RES
1 lt_pn15_2_s1:Z pgm_pn15_2_s1:1 8.340775e+00
2 pgm_pn15_2_s1:1 vs_24_15:A 1.000000e-03
*END

*D_NET pgm_pn15_2_s2 1.662565e-02
*CONN
*I lt_pn15_2_s2:Z O
*I vs_47_15:A I
*I vs_41_15:A I
*CAP
1 pgm_pn15_2_s2:1 1.662565e-02
*RES
1 lt_pn15_2_s2:Z pgm_pn15_2_s2:1 1.670587e+01
2 pgm_pn15_2_s2:1 vs_47_15:A 1.000000e-03
3 pgm_pn15_2_s2:1 vs_41_15:A 1.000000e-03
*END

*D_NET pgm_pn15_3_s0 5.788842e-03
*CONN
*I lt_pn15_3_s0:Z O
*I vs_0_15:A I
*CAP
1 pgm_pn15_3_s0:1 5.788842e-03
*RES
1 lt_pn15_3_s0:Z pgm_pn15_3_s0:1 6.569074e+00
2 pgm_pn15_3_s0:1 vs_0_15:A 1.000000e-03
*END

*D_NET pgm_pn15_3_s1 1.144141e-02
*CONN
*I lt_pn15_3_s1:Z O
*I vs_28_15:A I
*I vs_23_15:A I
*CAP
1 pgm_pn15_3_s1:1 1.144141e-02
*RES
1 lt_pn15_3_s1:Z pgm_pn15_3_s1:1 1.298350e+01
2 pgm_pn15_3_s1:1 vs_28_15:A 1.000000e-03
3 pgm_pn15_3_s1:1 vs_23_15:A 1.000000e-03
*END

*D_NET pgm_pn15_3_s2 1.309230e-02
*CONN
*I lt_pn15_3_s2:Z O
*I vs_44_15:A I
*CAP
1 pgm_pn15_3_s2:1 1.309230e-02
*RES
1 lt_pn15_3_s2:Z pgm_pn15_3_s2:1 1.414861e+01
2 pgm_pn15_3_s2:1 vs_44_15:A 1.000000e-03
*END

*D_NET pgm_pn15_3_s3 5.939933e-03
*CONN
*I lt_pn15_3_s3:Z O
*I vs_55_15:A I
*I vs_52_15:A I
*CAP
1 pgm_pn15_3_s3:1 5.939933e-03
*RES
1 lt_pn15_3_s3:Z pgm_pn15_3_s3:1 6.740529e+00
2 pgm_pn15_3_s3:1 vs_55_15:A 1.000000e-03
3 pgm_pn15_3_s3:1 vs_52_15:A 1.000000e-03
*END

*D_NET pgm_pn15_4_s0 1.040451e-02
*CONN
*I lt_pn15_4_s0:Z O
*I vs_11_15:A I
*I vs_4_15:A I
*CAP
1 pgm_pn15_4_s0:1 1.040451e-02
*RES
1 lt_pn15_4_s0:Z pgm_pn15_4_s0:1 1.180685e+01
2 pgm_pn15_4_s0:1 vs_11_15:A 1.000000e-03
3 pgm_pn15_4_s0:1 vs_4_15:A 1.000000e-03
*END

*D_NET pgm_pn15_4_s3 8.621050e-04
*CONN
*I lt_pn15_4_s3:Z O
*I vs_53_15:A I
*CAP
1 pgm_pn15_4_s3:1 8.621050e-04
*RES
1 lt_pn15_4_s3:Z pgm_pn15_4_s3:1 9.783013e-01
2 pgm_pn15_4_s3:1 vs_53_15:A 1.000000e-03
*END

*D_NET pgm_pn15_6_s0 1.821678e-02
*CONN
*I lt_pn15_6_s0:Z O
*I vs_14_15:A I
*I vs_1_15:A I
*CAP
1 pgm_pn15_6_s0:1 1.821678e-02
*RES
1 lt_pn15_6_s0:Z pgm_pn15_6_s0:1 2.067208e+01
2 pgm_pn15_6_s0:1 vs_14_15:A 1.000000e-03
3 pgm_pn15_6_s0:1 vs_1_15:A 1.000000e-03
*END

*D_NET pgm_pn15_6_s1 7.933736e-03
*CONN
*I lt_pn15_6_s1:Z O
*I vs_21_15:A I
*I vs_18_15:A I
*CAP
1 pgm_pn15_6_s1:1 7.933736e-03
*RES
1 lt_pn15_6_s1:Z pgm_pn15_6_s1:1 9.003061e+00
2 pgm_pn15_6_s1:1 vs_21_15:A 1.000000e-03
3 pgm_pn15_6_s1:1 vs_18_15:A 1.000000e-03
*END

*D_NET pgm_pn15_6_s3 1.121921e-02
*CONN
*I lt_pn15_6_s3:Z O
*I vs_48_15:A I
*CAP
1 pgm_pn15_6_s3:1 1.121921e-02
*RES
1 lt_pn15_6_s3:Z pgm_pn15_6_s3:1 1.273136e+01
2 pgm_pn15_6_s3:1 vs_48_15:A 1.000000e-03
*END

*D_NET pgm_pn15_7_s0 1.156021e-02
*CONN
*I lt_pn15_7_s0:Z O
*I vs_13_15:A I
*I vs_5_15:A I
*CAP
1 pgm_pn15_7_s0:1 1.156021e-02
*RES
1 lt_pn15_7_s0:Z pgm_pn15_7_s0:1 1.226605e+01
2 pgm_pn15_7_s0:1 vs_13_15:A 1.000000e-03
3 pgm_pn15_7_s0:1 vs_5_15:A 1.000000e-03
*END

*D_NET pgm_pn15_7_s1 1.177618e-02
*CONN
*I lt_pn15_7_s1:Z O
*I vs_16_15:A I
*CAP
1 pgm_pn15_7_s1:1 1.177618e-02
*RES
1 lt_pn15_7_s1:Z pgm_pn15_7_s1:1 1.336339e+01
2 pgm_pn15_7_s1:1 vs_16_15:A 1.000000e-03
*END

*D_NET pgm_pn15_7_s3 8.644750e-03
*CONN
*I lt_pn15_7_s3:Z O
*I vs_51_15:A I
*CAP
1 pgm_pn15_7_s3:1 8.644750e-03
*RES
1 lt_pn15_7_s3:Z pgm_pn15_7_s3:1 9.809907e+00
2 pgm_pn15_7_s3:1 vs_51_15:A 1.000000e-03
*END

*D_NET pgm_pn15_8_s1 9.480192e-04
*CONN
*I lt_pn15_8_s1:Z O
*I vs_26_15:A I
*CAP
1 pgm_pn15_8_s1:1 9.480192e-04
*RES
1 lt_pn15_8_s1:Z pgm_pn15_8_s1:1 1.075795e+00
2 pgm_pn15_8_s1:1 vs_26_15:A 1.000000e-03
*END

*D_NET pgm_pn15_8_s2 1.102665e-02
*CONN
*I lt_pn15_8_s2:Z O
*I vs_37_15:A I
*I vs_36_15:A I
*I vs_34_15:A I
*CAP
1 pgm_pn15_8_s2:1 1.102665e-02
*RES
1 lt_pn15_8_s2:Z pgm_pn15_8_s2:1 1.251284e+01
2 pgm_pn15_8_s2:1 vs_37_15:A 1.000000e-03
3 pgm_pn15_8_s2:1 vs_36_15:A 1.000000e-03
4 pgm_pn15_8_s2:1 vs_34_15:A 1.000000e-03
*END

*D_NET pgm_pn15_8_s3 3.768376e-03
*CONN
*I lt_pn15_8_s3:Z O
*I vs_61_15:A I
*CAP
1 pgm_pn15_8_s3:1 3.768376e-03
*RES
1 lt_pn15_8_s3:Z pgm_pn15_8_s3:1 4.276286e+00
2 pgm_pn15_8_s3:1 vs_61_15:A 1.000000e-03
*END

*D_NET pgm_pn15_9_s1 1.170211e-03
*CONN
*I lt_pn15_9_s1:Z O
*I vs_27_15:A I
*CAP
1 pgm_pn15_9_s1:1 1.170211e-03
*RES
1 lt_pn15_9_s1:Z pgm_pn15_9_s1:1 1.327935e+00
2 pgm_pn15_9_s1:1 vs_27_15:A 1.000000e-03
*END

*D_NET pgm_pn15_9_s3 5.199293e-03
*CONN
*I lt_pn15_9_s3:Z O
*I vs_56_15:A I
*CAP
1 pgm_pn15_9_s3:1 5.199293e-03
*RES
1 lt_pn15_9_s3:Z pgm_pn15_9_s3:1 5.900064e+00
2 pgm_pn15_9_s3:1 vs_56_15:A 1.000000e-03
*END

*D_NET pgm_pn16_0_s0 1.332828e-02
*CONN
*I lt_pn16_0_s0:Z O
*I vs_9_16:A I
*I vs_6_16:A I
*CAP
1 pgm_pn16_0_s0:1 1.332828e-02
*RES
1 lt_pn16_0_s0:Z pgm_pn16_0_s0:1 1.312058e+01
2 pgm_pn16_0_s0:1 vs_9_16:A 1.000000e-03
3 pgm_pn16_0_s0:1 vs_6_16:A 1.000000e-03
*END

*D_NET pgm_pn16_0_s1 1.987878e-03
*CONN
*I lt_pn16_0_s1:Z O
*I vs_17_16:A I
*CAP
1 pgm_pn16_0_s1:1 1.987878e-03
*RES
1 lt_pn16_0_s1:Z pgm_pn16_0_s1:1 2.255808e+00
2 pgm_pn16_0_s1:1 vs_17_16:A 1.000000e-03
*END

*D_NET pgm_pn16_0_s2 2.164330e-02
*CONN
*I lt_pn16_0_s2:Z O
*I vs_46_16:A I
*I vs_33_16:A I
*CAP
1 pgm_pn16_0_s2:1 2.164330e-02
*RES
1 lt_pn16_0_s2:Z pgm_pn16_0_s2:1 2.227996e+01
2 pgm_pn16_0_s2:1 vs_46_16:A 1.000000e-03
3 pgm_pn16_0_s2:1 vs_33_16:A 1.000000e-03
*END

*D_NET pgm_pn16_10_s2 8.253112e-03
*CONN
*I lt_pn16_10_s2:Z O
*I vs_40_16:A I
*CAP
1 pgm_pn16_10_s2:1 8.253112e-03
*RES
1 lt_pn16_10_s2:Z pgm_pn16_10_s2:1 8.225248e+00
2 pgm_pn16_10_s2:1 vs_40_16:A 1.000000e-03
*END

*D_NET pgm_pn16_10_s3 3.457308e-03
*CONN
*I lt_pn16_10_s3:Z O
*I vs_63_16:A I
*CAP
1 pgm_pn16_10_s3:1 3.457308e-03
*RES
1 lt_pn16_10_s3:Z pgm_pn16_10_s3:1 3.923291e+00
2 pgm_pn16_10_s3:1 vs_63_16:A 1.000000e-03
*END

*D_NET pgm_pn16_11_s0 1.707620e-02
*CONN
*I lt_pn16_11_s0:Z O
*I vs_1_16:A I
*CAP
1 pgm_pn16_11_s0:1 1.707620e-02
*RES
1 lt_pn16_11_s0:Z pgm_pn16_11_s0:1 1.937776e+01
2 pgm_pn16_11_s0:1 vs_1_16:A 1.000000e-03
*END

*D_NET pgm_pn16_11_s1 2.090563e-02
*CONN
*I lt_pn16_11_s1:Z O
*I vs_16_16:A I
*CAP
1 pgm_pn16_11_s1:1 2.090563e-02
*RES
1 lt_pn16_11_s1:Z pgm_pn16_11_s1:1 2.143126e+01
2 pgm_pn16_11_s1:1 vs_16_16:A 1.000000e-03
*END

*D_NET pgm_pn16_12_s0 2.039130e-02
*CONN
*I lt_pn16_12_s0:Z O
*I vs_0_16:A I
*CAP
1 pgm_pn16_12_s0:1 2.039130e-02
*RES
1 lt_pn16_12_s0:Z pgm_pn16_12_s0:1 2.313968e+01
2 pgm_pn16_12_s0:1 vs_0_16:A 1.000000e-03
*END

*D_NET pgm_pn16_12_s1 1.783301e-02
*CONN
*I lt_pn16_12_s1:Z O
*I vs_25_16:A I
*I vs_20_16:A I
*CAP
1 pgm_pn16_12_s1:1 1.783301e-02
*RES
1 lt_pn16_12_s1:Z pgm_pn16_12_s1:1 1.781213e+01
2 pgm_pn16_12_s1:1 vs_25_16:A 1.000000e-03
3 pgm_pn16_12_s1:1 vs_20_16:A 1.000000e-03
*END

*D_NET pgm_pn16_1_s3 3.377318e-03
*CONN
*I lt_pn16_1_s3:Z O
*I vs_48_16:A I
*CAP
1 pgm_pn16_1_s3:1 3.377318e-03
*RES
1 lt_pn16_1_s3:Z pgm_pn16_1_s3:1 3.832520e+00
2 pgm_pn16_1_s3:1 vs_48_16:A 1.000000e-03
*END

*D_NET pgm_pn16_2_s1 1.045133e-02
*CONN
*I lt_pn16_2_s1:Z O
*I vs_26_16:A I
*CAP
1 pgm_pn16_2_s1:1 1.045133e-02
*RES
1 lt_pn16_2_s1:Z pgm_pn16_2_s1:1 1.071975e+01
2 pgm_pn16_2_s1:1 vs_26_16:A 1.000000e-03
*END

*D_NET pgm_pn16_2_s3 8.386427e-03
*CONN
*I lt_pn16_2_s3:Z O
*I vs_57_16:A I
*CAP
1 pgm_pn16_2_s3:1 8.386427e-03
*RES
1 lt_pn16_2_s3:Z pgm_pn16_2_s3:1 8.376532e+00
2 pgm_pn16_2_s3:1 vs_57_16:A 1.000000e-03
*END

*D_NET pgm_pn16_3_s3 4.766759e-03
*CONN
*I lt_pn16_3_s3:Z O
*I vs_55_16:A I
*CAP
1 pgm_pn16_3_s3:1 4.766759e-03
*RES
1 lt_pn16_3_s3:Z pgm_pn16_3_s3:1 5.409233e+00
2 pgm_pn16_3_s3:1 vs_55_16:A 1.000000e-03
*END

*D_NET pgm_pn16_4_s2 6.378392e-03
*CONN
*I lt_pn16_4_s2:Z O
*I vs_41_16:A I
*I vs_37_16:A I
*CAP
1 pgm_pn16_4_s2:1 6.378392e-03
*RES
1 lt_pn16_4_s2:Z pgm_pn16_4_s2:1 7.238085e+00
2 pgm_pn16_4_s2:1 vs_41_16:A 1.000000e-03
3 pgm_pn16_4_s2:1 vs_37_16:A 1.000000e-03
*END

*D_NET pgm_pn16_4_s3 5.782917e-03
*CONN
*I lt_pn16_4_s3:Z O
*I vs_49_16:A I
*CAP
1 pgm_pn16_4_s3:1 5.782917e-03
*RES
1 lt_pn16_4_s3:Z pgm_pn16_4_s3:1 6.562351e+00
2 pgm_pn16_4_s3:1 vs_49_16:A 1.000000e-03
*END

*D_NET pgm_pn16_5_s1 1.884188e-03
*CONN
*I lt_pn16_5_s1:Z O
*I vs_21_16:A I
*CAP
1 pgm_pn16_5_s1:1 1.884188e-03
*RES
1 lt_pn16_5_s1:Z pgm_pn16_5_s1:1 2.138143e+00
2 pgm_pn16_5_s1:1 vs_21_16:A 1.000000e-03
*END

*D_NET pgm_pn16_5_s3 7.450838e-03
*CONN
*I lt_pn16_5_s3:Z O
*I vs_60_16:A I
*I vs_58_16:A I
*CAP
1 pgm_pn16_5_s3:1 7.450838e-03
*RES
1 lt_pn16_5_s3:Z pgm_pn16_5_s3:1 8.455078e+00
2 pgm_pn16_5_s3:1 vs_60_16:A 1.000000e-03
3 pgm_pn16_5_s3:1 vs_58_16:A 1.000000e-03
*END

*D_NET pgm_pn16_6_s0 3.768376e-03
*CONN
*I lt_pn16_6_s0:Z O
*I vs_7_16:A I
*I vs_5_16:A I
*CAP
1 pgm_pn16_6_s0:1 3.768376e-03
*RES
1 lt_pn16_6_s0:Z pgm_pn16_6_s0:1 4.276286e+00
2 pgm_pn16_6_s0:1 vs_7_16:A 1.000000e-03
3 pgm_pn16_6_s0:1 vs_5_16:A 1.000000e-03
*END

*D_NET pgm_pn16_6_s2 2.876646e-03
*CONN
*I lt_pn16_6_s2:Z O
*I vs_42_16:A I
*CAP
1 pgm_pn16_6_s2:1 2.876646e-03
*RES
1 lt_pn16_6_s2:Z pgm_pn16_6_s2:1 3.264366e+00
2 pgm_pn16_6_s2:1 vs_42_16:A 1.000000e-03
*END

*D_NET pgm_pn16_7_s0 5.057090e-03
*CONN
*I lt_pn16_7_s0:Z O
*I vs_13_16:A I
*CAP
1 pgm_pn16_7_s0:1 5.057090e-03
*RES
1 lt_pn16_7_s0:Z pgm_pn16_7_s0:1 5.738695e+00
2 pgm_pn16_7_s0:1 vs_13_16:A 1.000000e-03
*END

*D_NET pgm_pn16_7_s1 1.072150e-02
*CONN
*I lt_pn16_7_s1:Z O
*I vs_23_16:A I
*I vs_18_16:A I
*CAP
1 pgm_pn16_7_s1:1 1.072150e-02
*RES
1 lt_pn16_7_s1:Z pgm_pn16_7_s1:1 1.216657e+01
2 pgm_pn16_7_s1:1 vs_23_16:A 1.000000e-03
3 pgm_pn16_7_s1:1 vs_18_16:A 1.000000e-03
*END

*D_NET pgm_pn16_7_s3 8.342569e-03
*CONN
*I lt_pn16_7_s3:Z O
*I vs_51_16:A I
*CAP
1 pgm_pn16_7_s3:1 8.342569e-03
*RES
1 lt_pn16_7_s3:Z pgm_pn16_7_s3:1 9.466998e+00
2 pgm_pn16_7_s3:1 vs_51_16:A 1.000000e-03
*END

*D_NET pgm_pn16_8_s1 2.559652e-03
*CONN
*I lt_pn16_8_s1:Z O
*I vs_28_16:A I
*CAP
1 pgm_pn16_8_s1:1 2.559652e-03
*RES
1 lt_pn16_8_s1:Z pgm_pn16_8_s1:1 2.904647e+00
2 pgm_pn16_8_s1:1 vs_28_16:A 1.000000e-03
*END

*D_NET pgm_pn16_9_s1 7.797321e-03
*CONN
*I lt_pn16_9_s1:Z O
*I vs_22_16:A I
*CAP
1 pgm_pn16_9_s1:1 7.797321e-03
*RES
1 lt_pn16_9_s1:Z pgm_pn16_9_s1:1 7.852004e+00
2 pgm_pn16_9_s1:1 vs_22_16:A 1.000000e-03
*END

*D_NET pgm_pn17_10_s0 1.672944e-02
*CONN
*I lt_pn17_10_s0:Z O
*I vs_7_17:A I
*I vs_1_17:A I
*CAP
1 pgm_pn17_10_s0:1 1.672944e-02
*RES
1 lt_pn17_10_s0:Z pgm_pn17_10_s0:1 1.798801e+01
2 pgm_pn17_10_s0:1 vs_7_17:A 1.000000e-03
3 pgm_pn17_10_s0:1 vs_1_17:A 1.000000e-03
*END

*D_NET pgm_pn17_12_s1 6.073248e-03
*CONN
*I lt_pn17_12_s1:Z O
*I vs_28_17:A I
*CAP
1 pgm_pn17_12_s1:1 6.073248e-03
*RES
1 lt_pn17_12_s1:Z pgm_pn17_12_s1:1 6.891813e+00
2 pgm_pn17_12_s1:1 vs_28_17:A 1.000000e-03
*END

*D_NET pgm_pn17_1_s0 1.357050e-02
*CONN
*I lt_pn17_1_s0:Z O
*I vs_9_17:A I
*CAP
1 pgm_pn17_1_s0:1 1.357050e-02
*RES
1 lt_pn17_1_s0:Z pgm_pn17_1_s0:1 1.124735e+01
2 pgm_pn17_1_s0:1 vs_9_17:A 1.000000e-03
*END

*D_NET pgm_pn17_1_s1 2.470775e-03
*CONN
*I lt_pn17_1_s1:Z O
*I vs_18_17:A I
*CAP
1 pgm_pn17_1_s1:1 2.470775e-03
*RES
1 lt_pn17_1_s1:Z pgm_pn17_1_s1:1 2.803791e+00
2 pgm_pn17_1_s1:1 vs_18_17:A 1.000000e-03
*END

*D_NET pgm_pn17_1_s3 1.159103e-02
*CONN
*I lt_pn17_1_s3:Z O
*I vs_57_17:A I
*CAP
1 pgm_pn17_1_s3:1 1.159103e-02
*RES
1 lt_pn17_1_s3:Z pgm_pn17_1_s3:1 1.172510e+01
2 pgm_pn17_1_s3:1 vs_57_17:A 1.000000e-03
*END

*D_NET pgm_pn17_2_s1 5.614357e-03
*CONN
*I lt_pn17_2_s1:Z O
*I vs_22_17:A I
*CAP
1 pgm_pn17_2_s1:1 5.614357e-03
*RES
1 lt_pn17_2_s1:Z pgm_pn17_2_s1:1 5.518795e+00
2 pgm_pn17_2_s1:1 vs_22_17:A 1.000000e-03
*END

*D_NET pgm_pn17_2_s2 1.101466e-02
*CONN
*I lt_pn17_2_s2:Z O
*I vs_43_17:A I
*CAP
1 pgm_pn17_2_s2:1 1.101466e-02
*RES
1 lt_pn17_2_s2:Z pgm_pn17_2_s2:1 1.150298e+01
2 pgm_pn17_2_s2:1 vs_43_17:A 1.000000e-03
*END

*D_NET pgm_pn17_3_s0 1.264911e-02
*CONN
*I lt_pn17_3_s0:Z O
*I vs_13_17:A I
*CAP
1 pgm_pn17_3_s0:1 1.264911e-02
*RES
1 lt_pn17_3_s0:Z pgm_pn17_3_s0:1 1.306977e+01
2 pgm_pn17_3_s0:1 vs_13_17:A 1.000000e-03
*END

*D_NET pgm_pn17_3_s1 8.321831e-03
*CONN
*I lt_pn17_3_s1:Z O
*I vs_16_17:A I
*CAP
1 pgm_pn17_3_s1:1 8.321831e-03
*RES
1 lt_pn17_3_s1:Z pgm_pn17_3_s1:1 9.443465e+00
2 pgm_pn17_3_s1:1 vs_16_17:A 1.000000e-03
*END

*D_NET pgm_pn17_3_s2 5.335571e-03
*CONN
*I lt_pn17_3_s2:Z O
*I vs_40_17:A I
*CAP
1 pgm_pn17_3_s2:1 5.335571e-03
*RES
1 lt_pn17_3_s2:Z pgm_pn17_3_s2:1 6.054710e+00
2 pgm_pn17_3_s2:1 vs_40_17:A 1.000000e-03
*END

*D_NET pgm_pn17_3_s3 1.304119e-02
*CONN
*I lt_pn17_3_s3:Z O
*I vs_62_17:A I
*CAP
1 pgm_pn17_3_s3:1 1.304119e-02
*RES
1 lt_pn17_3_s3:Z pgm_pn17_3_s3:1 1.479891e+01
2 pgm_pn17_3_s3:1 vs_62_17:A 1.000000e-03
*END

*D_NET pgm_pn17_4_s1 1.831703e-02
*CONN
*I lt_pn17_4_s1:Z O
*I vs_30_17:A I
*I vs_20_17:A I
*I vs_17_17:A I
*CAP
1 pgm_pn17_4_s1:1 1.831703e-02
*RES
1 lt_pn17_4_s1:Z pgm_pn17_4_s1:1 2.026534e+01
2 pgm_pn17_4_s1:1 vs_30_17:A 1.000000e-03
3 pgm_pn17_4_s1:1 vs_20_17:A 1.000000e-03
4 pgm_pn17_4_s1:1 vs_17_17:A 1.000000e-03
*END

*D_NET pgm_pn17_4_s3 9.625357e-03
*CONN
*I lt_pn17_4_s3:Z O
*I vs_61_17:A I
*CAP
1 pgm_pn17_4_s3:1 9.625357e-03
*RES
1 lt_pn17_4_s3:Z pgm_pn17_4_s3:1 1.092268e+01
2 pgm_pn17_4_s3:1 vs_61_17:A 1.000000e-03
*END

*D_NET pgm_pn17_5_s0 1.336115e-02
*CONN
*I lt_pn17_5_s0:Z O
*I vs_10_17:A I
*I vs_3_17:A I
*CAP
1 pgm_pn17_5_s0:1 1.336115e-02
*RES
1 lt_pn17_5_s0:Z pgm_pn17_5_s0:1 1.516199e+01
2 pgm_pn17_5_s0:1 vs_10_17:A 1.000000e-03
3 pgm_pn17_5_s0:1 vs_3_17:A 1.000000e-03
*END

*D_NET pgm_pn17_6_s0 1.142349e-02
*CONN
*I lt_pn17_6_s0:Z O
*I vs_14_17:A I
*CAP
1 pgm_pn17_6_s0:1 1.142349e-02
*RES
1 lt_pn17_6_s0:Z pgm_pn17_6_s0:1 1.196692e+01
2 pgm_pn17_6_s0:1 vs_14_17:A 1.000000e-03
*END

*D_NET pgm_pn17_6_s3 9.939389e-03
*CONN
*I lt_pn17_6_s3:Z O
*I vs_63_17:A I
*CAP
1 pgm_pn17_6_s3:1 9.939389e-03
*RES
1 lt_pn17_6_s3:Z pgm_pn17_6_s3:1 1.127904e+01
2 pgm_pn17_6_s3:1 vs_63_17:A 1.000000e-03
*END

*D_NET pgm_pn17_7_s0 1.247830e-02
*CONN
*I lt_pn17_7_s0:Z O
*I vs_4_17:A I
*CAP
1 pgm_pn17_7_s0:1 1.247830e-02
*RES
1 lt_pn17_7_s0:Z pgm_pn17_7_s0:1 7.647933e+00
2 pgm_pn17_7_s0:1 vs_4_17:A 1.000000e-03
*END

*D_NET pgm_pn17_7_s3 1.634005e-03
*CONN
*I lt_pn17_7_s3:Z O
*I vs_56_17:A I
*CAP
1 pgm_pn17_7_s3:1 1.634005e-03
*RES
1 lt_pn17_7_s3:Z pgm_pn17_7_s3:1 1.433901e+00
2 pgm_pn17_7_s3:1 vs_56_17:A 1.000000e-03
*END

*D_NET pgm_pn17_8_s3 1.084001e-02
*CONN
*I lt_pn17_8_s3:Z O
*I vs_50_17:A I
*CAP
1 pgm_pn17_8_s3:1 1.084001e-02
*RES
1 lt_pn17_8_s3:Z pgm_pn17_8_s3:1 1.230105e+01
2 pgm_pn17_8_s3:1 vs_50_17:A 1.000000e-03
*END

*D_NET pgm_pn17_9_s0 5.249656e-03
*CONN
*I lt_pn17_9_s0:Z O
*I vs_8_17:A I
*CAP
1 pgm_pn17_9_s0:1 5.249656e-03
*RES
1 lt_pn17_9_s0:Z pgm_pn17_9_s0:1 5.957216e+00
2 pgm_pn17_9_s0:1 vs_8_17:A 1.000000e-03
*END

*D_NET pgm_pn17_9_s2 8.342432e-03
*CONN
*I lt_pn17_9_s2:Z O
*I vs_46_17:A I
*I vs_41_17:A I
*CAP
1 pgm_pn17_9_s2:1 8.342432e-03
*RES
1 lt_pn17_9_s2:Z pgm_pn17_9_s2:1 8.470586e+00
2 pgm_pn17_9_s2:1 vs_46_17:A 1.000000e-03
3 pgm_pn17_9_s2:1 vs_41_17:A 1.000000e-03
*END

*D_NET pgm_pn18_0_s3 1.994160e-02
*CONN
*I lt_pn18_0_s3:Z O
*I vs_62_18:A I
*I vs_54_18:A I
*CAP
1 pgm_pn18_0_s3:1 1.994160e-02
*RES
1 lt_pn18_0_s3:Z pgm_pn18_0_s3:1 2.091322e+01
2 pgm_pn18_0_s3:1 vs_62_18:A 1.000000e-03
3 pgm_pn18_0_s3:1 vs_54_18:A 1.000000e-03
*END

*D_NET pgm_pn18_10_s0 1.255860e-02
*CONN
*I lt_pn18_10_s0:Z O
*I vs_13_18:A I
*I vs_5_18:A I
*CAP
1 pgm_pn18_10_s0:1 1.255860e-02
*RES
1 lt_pn18_10_s0:Z pgm_pn18_10_s0:1 1.339899e+01
2 pgm_pn18_10_s0:1 vs_13_18:A 1.000000e-03
3 pgm_pn18_10_s0:1 vs_5_18:A 1.000000e-03
*END

*D_NET pgm_pn18_11_s1 2.521139e-03
*CONN
*I lt_pn18_11_s1:Z O
*I vs_29_18:A I
*CAP
1 pgm_pn18_11_s1:1 2.521139e-03
*RES
1 lt_pn18_11_s1:Z pgm_pn18_11_s1:1 2.860943e+00
2 pgm_pn18_11_s1:1 vs_29_18:A 1.000000e-03
*END

*D_NET pgm_pn18_11_s2 1.471994e-02
*CONN
*I lt_pn18_11_s2:Z O
*I vs_36_18:A I
*CAP
1 pgm_pn18_11_s2:1 1.471994e-02
*RES
1 lt_pn18_11_s2:Z pgm_pn18_11_s2:1 1.541971e+01
2 pgm_pn18_11_s2:1 vs_36_18:A 1.000000e-03
*END

*D_NET pgm_pn18_12_s1 2.193479e-02
*CONN
*I lt_pn18_12_s1:Z O
*I vs_17_18:A I
*I vs_16_18:A I
*CAP
1 pgm_pn18_12_s1:1 2.193479e-02
*RES
1 lt_pn18_12_s1:Z pgm_pn18_12_s1:1 2.489121e+01
2 pgm_pn18_12_s1:1 vs_17_18:A 1.000000e-03
3 pgm_pn18_12_s1:1 vs_16_18:A 1.000000e-03
*END

*D_NET pgm_pn18_1_s3 4.237958e-03
*CONN
*I lt_pn18_1_s3:Z O
*I vs_52_18:A I
*CAP
1 pgm_pn18_1_s3:1 4.237958e-03
*RES
1 lt_pn18_1_s3:Z pgm_pn18_1_s3:1 3.380964e+00
2 pgm_pn18_1_s3:1 vs_52_18:A 1.000000e-03
*END

*D_NET pgm_pn18_2_s1 1.994108e-03
*CONN
*I lt_pn18_2_s1:Z O
*I vs_19_18:A I
*CAP
1 pgm_pn18_2_s1:1 1.994108e-03
*RES
1 lt_pn18_2_s1:Z pgm_pn18_2_s1:1 1.410602e+00
2 pgm_pn18_2_s1:1 vs_19_18:A 1.000000e-03
*END

*D_NET pgm_pn18_2_s3 9.618409e-03
*CONN
*I lt_pn18_2_s3:Z O
*I vs_57_18:A I
*I vs_53_18:A I
*CAP
1 pgm_pn18_2_s3:1 9.618409e-03
*RES
1 lt_pn18_2_s3:Z pgm_pn18_2_s3:1 9.630584e+00
2 pgm_pn18_2_s3:1 vs_57_18:A 1.000000e-03
3 pgm_pn18_2_s3:1 vs_53_18:A 1.000000e-03
*END

*D_NET pgm_pn18_4_s0 7.975212e-03
*CONN
*I lt_pn18_4_s0:Z O
*I vs_2_18:A I
*I vs_0_18:A I
*CAP
1 pgm_pn18_4_s0:1 7.975212e-03
*RES
1 lt_pn18_4_s0:Z pgm_pn18_4_s0:1 9.050127e+00
2 pgm_pn18_4_s0:1 vs_2_18:A 1.000000e-03
3 pgm_pn18_4_s0:1 vs_0_18:A 1.000000e-03
*END

*D_NET pgm_pn18_4_s1 1.113923e-02
*CONN
*I lt_pn18_4_s1:Z O
*I vs_28_18:A I
*I vs_22_18:A I
*CAP
1 pgm_pn18_4_s1:1 1.113923e-02
*RES
1 lt_pn18_4_s1:Z pgm_pn18_4_s1:1 1.264059e+01
2 pgm_pn18_4_s1:1 vs_28_18:A 1.000000e-03
3 pgm_pn18_4_s1:1 vs_22_18:A 1.000000e-03
*END

*D_NET pgm_pn18_4_s2 1.466933e-02
*CONN
*I lt_pn18_4_s2:Z O
*I vs_44_18:A I
*I vs_33_18:A I
*CAP
1 pgm_pn18_4_s2:1 1.466933e-02
*RES
1 lt_pn18_4_s2:Z pgm_pn18_4_s2:1 1.264545e+01
2 pgm_pn18_4_s2:1 vs_44_18:A 1.000000e-03
3 pgm_pn18_4_s2:1 vs_33_18:A 1.000000e-03
*END

*D_NET pgm_pn18_4_s3 4.387551e-03
*CONN
*I lt_pn18_4_s3:Z O
*I vs_50_18:A I
*CAP
1 pgm_pn18_4_s3:1 4.387551e-03
*RES
1 lt_pn18_4_s3:Z pgm_pn18_4_s3:1 4.978915e+00
2 pgm_pn18_4_s3:1 vs_50_18:A 1.000000e-03
*END

*D_NET pgm_pn18_5_s0 8.484772e-03
*CONN
*I lt_pn18_5_s0:Z O
*I vs_1_18:A I
*CAP
1 pgm_pn18_5_s0:1 8.484772e-03
*RES
1 lt_pn18_5_s0:Z pgm_pn18_5_s0:1 9.628367e+00
2 pgm_pn18_5_s0:1 vs_1_18:A 1.000000e-03
*END

*D_NET pgm_pn18_5_s1 6.594659e-03
*CONN
*I lt_pn18_5_s1:Z O
*I vs_18_18:A I
*CAP
1 pgm_pn18_5_s1:1 6.594659e-03
*RES
1 lt_pn18_5_s1:Z pgm_pn18_5_s1:1 7.483500e+00
2 pgm_pn18_5_s1:1 vs_18_18:A 1.000000e-03
*END

*D_NET pgm_pn18_6_s0 6.413942e-03
*CONN
*I lt_pn18_6_s0:Z O
*I vs_12_18:A I
*CAP
1 pgm_pn18_6_s0:1 6.413942e-03
*RES
1 lt_pn18_6_s0:Z pgm_pn18_6_s0:1 7.278427e+00
2 pgm_pn18_6_s0:1 vs_12_18:A 1.000000e-03
*END

*D_NET pgm_pn18_6_s1 8.058163e-04
*CONN
*I lt_pn18_6_s1:Z O
*I vs_23_18:A I
*CAP
1 pgm_pn18_6_s1:1 8.058163e-04
*RES
1 lt_pn18_6_s1:Z pgm_pn18_6_s1:1 9.144259e-01
2 pgm_pn18_6_s1:1 vs_23_18:A 1.000000e-03
*END

*D_NET pgm_pn18_6_s2 8.019650e-03
*CONN
*I lt_pn18_6_s2:Z O
*I vs_34_18:A I
*CAP
1 pgm_pn18_6_s2:1 8.019650e-03
*RES
1 lt_pn18_6_s2:Z pgm_pn18_6_s2:1 9.100555e+00
2 pgm_pn18_6_s2:1 vs_34_18:A 1.000000e-03
*END

*D_NET pgm_pn18_7_s2 1.300268e-02
*CONN
*I lt_pn18_7_s2:Z O
*I vs_32_18:A I
*CAP
1 pgm_pn18_7_s2:1 1.300268e-02
*RES
1 lt_pn18_7_s2:Z pgm_pn18_7_s2:1 1.475520e+01
2 pgm_pn18_7_s2:1 vs_32_18:A 1.000000e-03
*END

*D_NET pgm_pn18_7_s3 2.912196e-03
*CONN
*I lt_pn18_7_s3:Z O
*I vs_55_18:A I
*CAP
1 pgm_pn18_7_s3:1 2.912196e-03
*RES
1 lt_pn18_7_s3:Z pgm_pn18_7_s3:1 3.304708e+00
2 pgm_pn18_7_s3:1 vs_55_18:A 1.000000e-03
*END

*D_NET pgm_pn18_8_s1 8.823558e-03
*CONN
*I lt_pn18_8_s1:Z O
*I vs_21_18:A I
*CAP
1 pgm_pn18_8_s1:1 8.823558e-03
*RES
1 lt_pn18_8_s1:Z pgm_pn18_8_s1:1 8.440641e+00
2 pgm_pn18_8_s1:1 vs_21_18:A 1.000000e-03
*END

*D_NET pgm_pn18_8_s2 2.056017e-03
*CONN
*I lt_pn18_8_s2:Z O
*I vs_43_18:A I
*I vs_42_18:A I
*CAP
1 pgm_pn18_8_s2:1 2.056017e-03
*RES
1 lt_pn18_8_s2:Z pgm_pn18_8_s2:1 2.333131e+00
2 pgm_pn18_8_s2:1 vs_43_18:A 1.000000e-03
3 pgm_pn18_8_s2:1 vs_42_18:A 1.000000e-03
*END

*D_NET pgm_pn18_9_s0 3.537297e-03
*CONN
*I lt_pn18_9_s0:Z O
*I vs_10_18:A I
*CAP
1 pgm_pn18_9_s0:1 3.537297e-03
*RES
1 lt_pn18_9_s0:Z pgm_pn18_9_s0:1 4.014061e+00
2 pgm_pn18_9_s0:1 vs_10_18:A 1.000000e-03
*END

*D_NET pgm_pn18_9_s3 2.530026e-03
*CONN
*I lt_pn18_9_s3:Z O
*I vs_59_18:A I
*CAP
1 pgm_pn18_9_s3:1 2.530026e-03
*RES
1 lt_pn18_9_s3:Z pgm_pn18_9_s3:1 2.871028e+00
2 pgm_pn18_9_s3:1 vs_59_18:A 1.000000e-03
*END

*D_NET pgm_pn19_0_s0 1.616373e-02
*CONN
*I lt_pn19_0_s0:Z O
*I vs_11_19:A I
*I vs_1_19:A I
*CAP
1 pgm_pn19_0_s0:1 1.616373e-02
*RES
1 lt_pn19_0_s0:Z pgm_pn19_0_s0:1 1.834231e+01
2 pgm_pn19_0_s0:1 vs_11_19:A 1.000000e-03
3 pgm_pn19_0_s0:1 vs_1_19:A 1.000000e-03
*END

*D_NET pgm_pn19_0_s1 1.851600e-03
*CONN
*I lt_pn19_0_s1:Z O
*I vs_17_19:A I
*CAP
1 pgm_pn19_0_s1:1 1.851600e-03
*RES
1 lt_pn19_0_s1:Z pgm_pn19_0_s1:1 2.101163e+00
2 pgm_pn19_0_s1:1 vs_17_19:A 1.000000e-03
*END

*D_NET pgm_pn19_0_s2 2.203998e-02
*CONN
*I lt_pn19_0_s2:Z O
*I vs_47_19:A I
*I vs_39_19:A I
*CAP
1 pgm_pn19_0_s2:1 2.203998e-02
*RES
1 lt_pn19_0_s2:Z pgm_pn19_0_s2:1 2.358238e+01
2 pgm_pn19_0_s2:1 vs_47_19:A 1.000000e-03
3 pgm_pn19_0_s2:1 vs_39_19:A 1.000000e-03
*END

*D_NET pgm_pn19_10_s1 1.043059e-02
*CONN
*I lt_pn19_10_s1:Z O
*I vs_29_19:A I
*I vs_23_19:A I
*CAP
1 pgm_pn19_10_s1:1 1.043059e-02
*RES
1 lt_pn19_10_s1:Z pgm_pn19_10_s1:1 1.069622e+01
2 pgm_pn19_10_s1:1 vs_29_19:A 1.000000e-03
3 pgm_pn19_10_s1:1 vs_23_19:A 1.000000e-03
*END

*D_NET pgm_pn19_11_s1 2.571502e-03
*CONN
*I lt_pn19_11_s1:Z O
*I vs_31_19:A I
*CAP
1 pgm_pn19_11_s1:1 2.571502e-03
*RES
1 lt_pn19_11_s1:Z pgm_pn19_11_s1:1 2.918094e+00
2 pgm_pn19_11_s1:1 vs_31_19:A 1.000000e-03
*END

*D_NET pgm_pn19_11_s2 2.986603e-02
*CONN
*I lt_pn19_11_s2:Z O
*I vs_35_19:A I
*CAP
1 pgm_pn19_11_s2:1 2.986603e-02
*RES
1 lt_pn19_11_s2:Z pgm_pn19_11_s2:1 1.865281e+01
2 pgm_pn19_11_s2:1 vs_35_19:A 1.000000e-03
*END

*D_NET pgm_pn19_12_s0 1.044895e-02
*CONN
*I lt_pn19_12_s0:Z O
*I vs_8_19:A I
*CAP
1 pgm_pn19_12_s0:1 1.044895e-02
*RES
1 lt_pn19_12_s0:Z pgm_pn19_12_s0:1 1.185728e+01
2 pgm_pn19_12_s0:1 vs_8_19:A 1.000000e-03
*END

*D_NET pgm_pn19_12_s1 1.695030e-02
*CONN
*I lt_pn19_12_s1:Z O
*I vs_19_19:A I
*CAP
1 pgm_pn19_12_s1:1 1.695030e-02
*RES
1 lt_pn19_12_s1:Z pgm_pn19_12_s1:1 1.780671e+01
2 pgm_pn19_12_s1:1 vs_19_19:A 1.000000e-03
*END

*D_NET pgm_pn19_1_s0 3.482317e-02
*CONN
*I lt_pn19_1_s0:Z O
*I vs_15_19:A I
*CAP
1 pgm_pn19_1_s0:1 3.482317e-02
*RES
1 lt_pn19_1_s0:Z pgm_pn19_1_s0:1 2.067860e+01
2 pgm_pn19_1_s0:1 vs_15_19:A 1.000000e-03
*END

*D_NET pgm_pn19_1_s3 1.113972e-02
*CONN
*I lt_pn19_1_s3:Z O
*I vs_55_19:A I
*CAP
1 pgm_pn19_1_s3:1 1.113972e-02
*RES
1 lt_pn19_1_s3:Z pgm_pn19_1_s3:1 1.147275e+01
2 pgm_pn19_1_s3:1 vs_55_19:A 1.000000e-03
*END

*D_NET pgm_pn19_2_s3 3.371393e-03
*CONN
*I lt_pn19_2_s3:Z O
*I vs_49_19:A I
*CAP
1 pgm_pn19_2_s3:1 3.371393e-03
*RES
1 lt_pn19_2_s3:Z pgm_pn19_2_s3:1 3.825797e+00
2 pgm_pn19_2_s3:1 vs_49_19:A 1.000000e-03
*END

*D_NET pgm_pn19_3_s0 3.854291e-03
*CONN
*I lt_pn19_3_s0:Z O
*I vs_2_19:A I
*CAP
1 pgm_pn19_3_s0:1 3.854291e-03
*RES
1 lt_pn19_3_s0:Z pgm_pn19_3_s0:1 4.373780e+00
2 pgm_pn19_3_s0:1 vs_2_19:A 1.000000e-03
*END

*D_NET pgm_pn19_3_s2 1.089630e-02
*CONN
*I lt_pn19_3_s2:Z O
*I vs_44_19:A I
*CAP
1 pgm_pn19_3_s2:1 1.089630e-02
*RES
1 lt_pn19_3_s2:Z pgm_pn19_3_s2:1 1.236492e+01
2 pgm_pn19_3_s2:1 vs_44_19:A 1.000000e-03
*END

*D_NET pgm_pn19_4_s1 6.055473e-03
*CONN
*I lt_pn19_4_s1:Z O
*I vs_24_19:A I
*I vs_20_19:A I
*CAP
1 pgm_pn19_4_s1:1 6.055473e-03
*RES
1 lt_pn19_4_s1:Z pgm_pn19_4_s1:1 6.871642e+00
2 pgm_pn19_4_s1:1 vs_24_19:A 1.000000e-03
3 pgm_pn19_4_s1:1 vs_20_19:A 1.000000e-03
*END

*D_NET pgm_pn19_4_s3 4.387551e-03
*CONN
*I lt_pn19_4_s3:Z O
*I vs_50_19:A I
*CAP
1 pgm_pn19_4_s3:1 4.387551e-03
*RES
1 lt_pn19_4_s3:Z pgm_pn19_4_s3:1 4.978915e+00
2 pgm_pn19_4_s3:1 vs_50_19:A 1.000000e-03
*END

*D_NET pgm_pn19_5_s0 4.888224e-04
*CONN
*I lt_pn19_5_s0:Z O
*I vs_7_19:A I
*CAP
1 pgm_pn19_5_s0:1 4.888224e-04
*RES
1 lt_pn19_5_s0:Z pgm_pn19_5_s0:1 5.547069e-01
2 pgm_pn19_5_s0:1 vs_7_19:A 1.000000e-03
*END

*D_NET pgm_pn19_5_s1 1.747910e-03
*CONN
*I lt_pn19_5_s1:Z O
*I vs_21_19:A I
*CAP
1 pgm_pn19_5_s1:1 1.747910e-03
*RES
1 lt_pn19_5_s1:Z pgm_pn19_5_s1:1 1.983497e+00
2 pgm_pn19_5_s1:1 vs_21_19:A 1.000000e-03
*END

*D_NET pgm_pn19_6_s0 1.443655e-02
*CONN
*I lt_pn19_6_s0:Z O
*I vs_14_19:A I
*I vs_9_19:A I
*I vs_3_19:A I
*CAP
1 pgm_pn19_6_s0:1 1.443655e-02
*RES
1 lt_pn19_6_s0:Z pgm_pn19_6_s0:1 1.638234e+01
2 pgm_pn19_6_s0:1 vs_14_19:A 1.000000e-03
3 pgm_pn19_6_s0:1 vs_9_19:A 1.000000e-03
4 pgm_pn19_6_s0:1 vs_3_19:A 1.000000e-03
*END

*D_NET pgm_pn19_6_s3 8.292205e-03
*CONN
*I lt_pn19_6_s3:Z O
*I vs_58_19:A I
*I vs_52_19:A I
*CAP
1 pgm_pn19_6_s3:1 8.292205e-03
*RES
1 lt_pn19_6_s3:Z pgm_pn19_6_s3:1 9.409846e+00
2 pgm_pn19_6_s3:1 vs_58_19:A 1.000000e-03
3 pgm_pn19_6_s3:1 vs_52_19:A 1.000000e-03
*END

*D_NET pgm_pn19_7_s0 4.171284e-03
*CONN
*I lt_pn19_7_s0:Z O
*I vs_6_19:A I
*CAP
1 pgm_pn19_7_s0:1 4.171284e-03
*RES
1 lt_pn19_7_s0:Z pgm_pn19_7_s0:1 4.733499e+00
2 pgm_pn19_7_s0:1 vs_6_19:A 1.000000e-03
*END

*D_NET pgm_pn19_8_s0 1.528385e-02
*CONN
*I lt_pn19_8_s0:Z O
*I vs_5_19:A I
*I vs_0_19:A I
*CAP
1 pgm_pn19_8_s0:1 1.528385e-02
*RES
1 lt_pn19_8_s0:Z pgm_pn19_8_s0:1 1.734384e+01
2 pgm_pn19_8_s0:1 vs_5_19:A 1.000000e-03
3 pgm_pn19_8_s0:1 vs_0_19:A 1.000000e-03
*END

*D_NET pgm_pn19_8_s1 1.703768e-02
*CONN
*I lt_pn19_8_s1:Z O
*I vs_30_19:A I
*I vs_28_19:A I
*I vs_18_19:A I
*CAP
1 pgm_pn19_8_s1:1 1.703768e-02
*RES
1 lt_pn19_8_s1:Z pgm_pn19_8_s1:1 1.933406e+01
2 pgm_pn19_8_s1:1 vs_30_19:A 1.000000e-03
3 pgm_pn19_8_s1:1 vs_28_19:A 1.000000e-03
4 pgm_pn19_8_s1:1 vs_18_19:A 1.000000e-03
*END

*D_NET pgm_pn19_8_s2 1.250793e-02
*CONN
*I lt_pn19_8_s2:Z O
*I vs_33_19:A I
*CAP
1 pgm_pn19_8_s2:1 1.250793e-02
*RES
1 lt_pn19_8_s2:Z pgm_pn19_8_s2:1 1.419377e+01
2 pgm_pn19_8_s2:1 vs_33_19:A 1.000000e-03
*END

*D_NET pgm_pn19_9_s2 1.062967e-02
*CONN
*I lt_pn19_9_s2:Z O
*I vs_36_19:A I
*CAP
1 pgm_pn19_9_s2:1 1.062967e-02
*RES
1 lt_pn19_9_s2:Z pgm_pn19_9_s2:1 1.206235e+01
2 pgm_pn19_9_s2:1 vs_36_19:A 1.000000e-03
*END

*D_NET pgm_pn1_0_s0 1.297455e-02
*CONN
*I lt_pn1_0_s0:Z O
*I vs_8_1:A I
*I vs_5_1:A I
*CAP
1 pgm_pn1_0_s0:1 1.297455e-02
*RES
1 lt_pn1_0_s0:Z pgm_pn1_0_s0:1 1.329509e+01
2 pgm_pn1_0_s0:1 vs_8_1:A 1.000000e-03
3 pgm_pn1_0_s0:1 vs_5_1:A 1.000000e-03
*END

*D_NET pgm_pn1_0_s1 1.926951e-02
*CONN
*I lt_pn1_0_s1:Z O
*I vs_30_1:A I
*I vs_26_1:A I
*CAP
1 pgm_pn1_0_s1:1 1.926951e-02
*RES
1 lt_pn1_0_s1:Z pgm_pn1_0_s1:1 1.990640e+01
2 pgm_pn1_0_s1:1 vs_30_1:A 1.000000e-03
3 pgm_pn1_0_s1:1 vs_26_1:A 1.000000e-03
*END

*D_NET pgm_pn1_0_s2 1.962992e-02
*CONN
*I lt_pn1_0_s2:Z O
*I vs_47_1:A I
*CAP
1 pgm_pn1_0_s2:1 1.962992e-02
*RES
1 lt_pn1_0_s2:Z pgm_pn1_0_s2:1 2.227568e+01
2 pgm_pn1_0_s2:1 vs_47_1:A 1.000000e-03
*END

*D_NET pgm_pn1_12_s0 3.146239e-03
*CONN
*I lt_pn1_12_s0:Z O
*I vs_14_1:A I
*CAP
1 pgm_pn1_12_s0:1 3.146239e-03
*RES
1 lt_pn1_12_s0:Z pgm_pn1_12_s0:1 3.570295e+00
2 pgm_pn1_12_s0:1 vs_14_1:A 1.000000e-03
*END

*D_NET pgm_pn1_1_s2 1.288448e-02
*CONN
*I lt_pn1_1_s2:Z O
*I vs_42_1:A I
*CAP
1 pgm_pn1_1_s2:1 1.288448e-02
*RES
1 lt_pn1_1_s2:Z pgm_pn1_1_s2:1 1.376880e+01
2 pgm_pn1_1_s2:1 vs_42_1:A 1.000000e-03
*END

*D_NET pgm_pn1_2_s1 7.388487e-03
*CONN
*I lt_pn1_2_s1:Z O
*I vs_24_1:A I
*CAP
1 pgm_pn1_2_s1:1 7.388487e-03
*RES
1 lt_pn1_2_s1:Z pgm_pn1_2_s1:1 7.388067e+00
2 pgm_pn1_2_s1:1 vs_24_1:A 1.000000e-03
*END

*D_NET pgm_pn1_2_s2 5.584426e-03
*CONN
*I lt_pn1_2_s2:Z O
*I vs_37_1:A I
*I vs_35_1:A I
*I vs_34_1:A I
*CAP
1 pgm_pn1_2_s2:1 5.584426e-03
*RES
1 lt_pn1_2_s2:Z pgm_pn1_2_s2:1 6.337106e+00
2 pgm_pn1_2_s2:1 vs_37_1:A 1.000000e-03
3 pgm_pn1_2_s2:1 vs_35_1:A 1.000000e-03
4 pgm_pn1_2_s2:1 vs_34_1:A 1.000000e-03
*END

*D_NET pgm_pn1_3_s1 1.033933e-03
*CONN
*I lt_pn1_3_s1:Z O
*I vs_20_1:A I
*CAP
1 pgm_pn1_3_s1:1 1.033933e-03
*RES
1 lt_pn1_3_s1:Z pgm_pn1_3_s1:1 1.173289e+00
2 pgm_pn1_3_s1:1 vs_20_1:A 1.000000e-03
*END

*D_NET pgm_pn1_4_s0 1.291084e-02
*CONN
*I lt_pn1_4_s0:Z O
*I vs_15_1:A I
*CAP
1 pgm_pn1_4_s0:1 1.291084e-02
*RES
1 lt_pn1_4_s0:Z pgm_pn1_4_s0:1 1.465099e+01
2 pgm_pn1_4_s0:1 vs_15_1:A 1.000000e-03
*END

*D_NET pgm_pn1_4_s2 2.020466e-03
*CONN
*I lt_pn1_4_s2:Z O
*I vs_36_1:A I
*CAP
1 pgm_pn1_4_s2:1 2.020466e-03
*RES
1 lt_pn1_4_s2:Z pgm_pn1_4_s2:1 2.292789e+00
2 pgm_pn1_4_s2:1 vs_36_1:A 1.000000e-03
*END

*D_NET pgm_pn1_4_s3 1.164286e-03
*CONN
*I lt_pn1_4_s3:Z O
*I vs_54_1:A I
*CAP
1 pgm_pn1_4_s3:1 1.164286e-03
*RES
1 lt_pn1_4_s3:Z pgm_pn1_4_s3:1 1.321211e+00
2 pgm_pn1_4_s3:1 vs_54_1:A 1.000000e-03
*END

*D_NET pgm_pn1_5_s0 3.279554e-03
*CONN
*I lt_pn1_5_s0:Z O
*I vs_9_1:A I
*CAP
1 pgm_pn1_5_s0:1 3.279554e-03
*RES
1 lt_pn1_5_s0:Z pgm_pn1_5_s0:1 3.721579e+00
2 pgm_pn1_5_s0:1 vs_9_1:A 1.000000e-03
*END

*D_NET pgm_pn1_5_s1 4.790460e-03
*CONN
*I lt_pn1_5_s1:Z O
*I vs_21_1:A I
*I vs_19_1:A I
*CAP
1 pgm_pn1_5_s1:1 4.790460e-03
*RES
1 lt_pn1_5_s1:Z pgm_pn1_5_s1:1 5.436128e+00
2 pgm_pn1_5_s1:1 vs_21_1:A 1.000000e-03
3 pgm_pn1_5_s1:1 vs_19_1:A 1.000000e-03
*END

*D_NET pgm_pn1_6_s0 3.638024e-03
*CONN
*I lt_pn1_6_s0:Z O
*I vs_10_1:A I
*CAP
1 pgm_pn1_6_s0:1 3.638024e-03
*RES
1 lt_pn1_6_s0:Z pgm_pn1_6_s0:1 4.128364e+00
2 pgm_pn1_6_s0:1 vs_10_1:A 1.000000e-03
*END

*D_NET pgm_pn1_6_s1 1.144675e-02
*CONN
*I lt_pn1_6_s1:Z O
*I vs_31_1:A I
*CAP
1 pgm_pn1_6_s1:1 1.144675e-02
*RES
1 lt_pn1_6_s1:Z pgm_pn1_6_s1:1 1.184933e+01
2 pgm_pn1_6_s1:1 vs_31_1:A 1.000000e-03
*END

*D_NET pgm_pn1_7_s0 2.912196e-03
*CONN
*I lt_pn1_7_s0:Z O
*I vs_11_1:A I
*CAP
1 pgm_pn1_7_s0:1 2.912196e-03
*RES
1 lt_pn1_7_s0:Z pgm_pn1_7_s0:1 3.304708e+00
2 pgm_pn1_7_s0:1 vs_11_1:A 1.000000e-03
*END

*D_NET pgm_pn1_7_s1 9.681646e-03
*CONN
*I lt_pn1_7_s1:Z O
*I vs_18_1:A I
*CAP
1 pgm_pn1_7_s1:1 9.681646e-03
*RES
1 lt_pn1_7_s1:Z pgm_pn1_7_s1:1 1.098656e+01
2 pgm_pn1_7_s1:1 vs_18_1:A 1.000000e-03
*END

*D_NET pgm_pn1_7_s2 1.116293e-02
*CONN
*I lt_pn1_7_s2:Z O
*I vs_33_1:A I
*CAP
1 pgm_pn1_7_s2:1 1.116293e-02
*RES
1 lt_pn1_7_s2:Z pgm_pn1_7_s2:1 1.266749e+01
2 pgm_pn1_7_s2:1 vs_33_1:A 1.000000e-03
*END

*D_NET pgm_pn1_7_s3 8.751402e-03
*CONN
*I lt_pn1_7_s3:Z O
*I vs_51_1:A I
*CAP
1 pgm_pn1_7_s3:1 8.751402e-03
*RES
1 lt_pn1_7_s3:Z pgm_pn1_7_s3:1 9.930934e+00
2 pgm_pn1_7_s3:1 vs_51_1:A 1.000000e-03
*END

*D_NET pgm_pn1_8_s3 1.974403e-02
*CONN
*I lt_pn1_8_s3:Z O
*I vs_61_1:A I
*I vs_48_1:A I
*CAP
1 pgm_pn1_8_s3:1 1.974403e-02
*RES
1 lt_pn1_8_s3:Z pgm_pn1_8_s3:1 2.082048e+01
2 pgm_pn1_8_s3:1 vs_61_1:A 1.000000e-03
3 pgm_pn1_8_s3:1 vs_48_1:A 1.000000e-03
*END

*D_NET pgm_pn1_9_s0 1.170211e-03
*CONN
*I lt_pn1_9_s0:Z O
*I vs_12_1:A I
*CAP
1 pgm_pn1_9_s0:1 1.170211e-03
*RES
1 lt_pn1_9_s0:Z pgm_pn1_9_s0:1 1.327935e+00
2 pgm_pn1_9_s0:1 vs_12_1:A 1.000000e-03
*END

*D_NET pgm_pn1_9_s2 1.940477e-02
*CONN
*I lt_pn1_9_s2:Z O
*I vs_46_1:A I
*I vs_32_1:A I
*CAP
1 pgm_pn1_9_s2:1 1.940477e-02
*RES
1 lt_pn1_9_s2:Z pgm_pn1_9_s2:1 2.202018e+01
2 pgm_pn1_9_s2:1 vs_46_1:A 1.000000e-03
3 pgm_pn1_9_s2:1 vs_32_1:A 1.000000e-03
*END

*D_NET pgm_pn1_9_s3 2.900140e-03
*CONN
*I lt_pn1_9_s3:Z O
*I vs_58_1:A I
*CAP
1 pgm_pn1_9_s3:1 2.900140e-03
*RES
1 lt_pn1_9_s3:Z pgm_pn1_9_s3:1 1.518534e+00
2 pgm_pn1_9_s3:1 vs_58_1:A 1.000000e-03
*END

*D_NET pgm_pn20_0_s0 1.208963e-02
*CONN
*I lt_pn20_0_s0:Z O
*I vs_8_20:A I
*CAP
1 pgm_pn20_0_s0:1 1.208963e-02
*RES
1 lt_pn20_0_s0:Z pgm_pn20_0_s0:1 1.257886e+01
2 pgm_pn20_0_s0:1 vs_8_20:A 1.000000e-03
*END

*D_NET pgm_pn20_0_s1 1.704898e-02
*CONN
*I lt_pn20_0_s1:Z O
*I vs_27_20:A I
*CAP
1 pgm_pn20_0_s1:1 1.704898e-02
*RES
1 lt_pn20_0_s1:Z pgm_pn20_0_s1:1 1.533866e+01
2 pgm_pn20_0_s1:1 vs_27_20:A 1.000000e-03
*END

*D_NET pgm_pn20_0_s2 3.513596e-03
*CONN
*I lt_pn20_0_s2:Z O
*I vs_34_20:A I
*CAP
1 pgm_pn20_0_s2:1 3.513596e-03
*RES
1 lt_pn20_0_s2:Z pgm_pn20_0_s2:1 3.987166e+00
2 pgm_pn20_0_s2:1 vs_34_20:A 1.000000e-03
*END

*D_NET pgm_pn20_10_s0 1.493130e-03
*CONN
*I lt_pn20_10_s0:Z O
*I vs_13_20:A I
*CAP
1 pgm_pn20_10_s0:1 1.493130e-03
*RES
1 lt_pn20_10_s0:Z pgm_pn20_10_s0:1 1.694377e+00
2 pgm_pn20_10_s0:1 vs_13_20:A 1.000000e-03
*END

*D_NET pgm_pn20_10_s1 4.313487e-03
*CONN
*I lt_pn20_10_s1:Z O
*I vs_26_20:A I
*CAP
1 pgm_pn20_10_s1:1 4.313487e-03
*RES
1 lt_pn20_10_s1:Z pgm_pn20_10_s1:1 4.894868e+00
2 pgm_pn20_10_s1:1 vs_26_20:A 1.000000e-03
*END

*D_NET pgm_pn20_10_s2 4.185960e-03
*CONN
*I lt_pn20_10_s2:Z O
*I vs_46_20:A I
*I vs_44_20:A I
*CAP
1 pgm_pn20_10_s2:1 4.185960e-03
*RES
1 lt_pn20_10_s2:Z pgm_pn20_10_s2:1 3.753896e+00
2 pgm_pn20_10_s2:1 vs_46_20:A 1.000000e-03
3 pgm_pn20_10_s2:1 vs_44_20:A 1.000000e-03
*END

*D_NET pgm_pn20_10_s3 1.021068e-02
*CONN
*I lt_pn20_10_s3:Z O
*I vs_56_20:A I
*CAP
1 pgm_pn20_10_s3:1 1.021068e-02
*RES
1 lt_pn20_10_s3:Z pgm_pn20_10_s3:1 8.130471e+00
2 pgm_pn20_10_s3:1 vs_56_20:A 1.000000e-03
*END

*D_NET pgm_pn20_11_s1 9.698603e-03
*CONN
*I lt_pn20_11_s1:Z O
*I vs_24_20:A I
*CAP
1 pgm_pn20_11_s1:1 9.698603e-03
*RES
1 lt_pn20_11_s1:Z pgm_pn20_11_s1:1 9.871825e+00
2 pgm_pn20_11_s1:1 vs_24_20:A 1.000000e-03
*END

*D_NET pgm_pn20_11_s3 1.499055e-03
*CONN
*I lt_pn20_11_s3:Z O
*I vs_62_20:A I
*CAP
1 pgm_pn20_11_s3:1 1.499055e-03
*RES
1 lt_pn20_11_s3:Z pgm_pn20_11_s3:1 1.701101e+00
2 pgm_pn20_11_s3:1 vs_62_20:A 1.000000e-03
*END

*D_NET pgm_pn20_12_s1 2.174519e-03
*CONN
*I lt_pn20_12_s1:Z O
*I vs_31_20:A I
*CAP
1 pgm_pn20_12_s1:1 2.174519e-03
*RES
1 lt_pn20_12_s1:Z pgm_pn20_12_s1:1 2.467605e+00
2 pgm_pn20_12_s1:1 vs_31_20:A 1.000000e-03
*END

*D_NET pgm_pn20_12_s2 1.972615e-02
*CONN
*I lt_pn20_12_s2:Z O
*I vs_37_20:A I
*I vs_33_20:A I
*CAP
1 pgm_pn20_12_s2:1 1.972615e-02
*RES
1 lt_pn20_12_s2:Z pgm_pn20_12_s2:1 2.018045e+01
2 pgm_pn20_12_s2:1 vs_37_20:A 1.000000e-03
3 pgm_pn20_12_s2:1 vs_33_20:A 1.000000e-03
*END

*D_NET pgm_pn20_1_s0 1.366942e-02
*CONN
*I lt_pn20_1_s0:Z O
*I vs_11_20:A I
*CAP
1 pgm_pn20_1_s0:1 1.366942e-02
*RES
1 lt_pn20_1_s0:Z pgm_pn20_1_s0:1 1.365168e+01
2 pgm_pn20_1_s0:1 vs_11_20:A 1.000000e-03
*END

*D_NET pgm_pn20_1_s2 2.152837e-02
*CONN
*I lt_pn20_1_s2:Z O
*I vs_47_20:A I
*CAP
1 pgm_pn20_1_s2:1 2.152837e-02
*RES
1 lt_pn20_1_s2:Z pgm_pn20_1_s2:1 2.042179e+01
2 pgm_pn20_1_s2:1 vs_47_20:A 1.000000e-03
*END

*D_NET pgm_pn20_2_s1 1.912516e-02
*CONN
*I lt_pn20_2_s1:Z O
*I vs_29_20:A I
*CAP
1 pgm_pn20_2_s1:1 1.912516e-02
*RES
1 lt_pn20_2_s1:Z pgm_pn20_2_s1:1 1.654283e+01
2 pgm_pn20_2_s1:1 vs_29_20:A 1.000000e-03
*END

*D_NET pgm_pn20_2_s3 1.259742e-02
*CONN
*I lt_pn20_2_s3:Z O
*I vs_59_20:A I
*CAP
1 pgm_pn20_2_s3:1 1.259742e-02
*RES
1 lt_pn20_2_s3:Z pgm_pn20_2_s3:1 1.257917e+01
2 pgm_pn20_2_s3:1 vs_59_20:A 1.000000e-03
*END

*D_NET pgm_pn20_4_s0 1.257014e-02
*CONN
*I lt_pn20_4_s0:Z O
*I vs_14_20:A I
*CAP
1 pgm_pn20_4_s0:1 1.257014e-02
*RES
1 lt_pn20_4_s0:Z pgm_pn20_4_s0:1 1.426437e+01
2 pgm_pn20_4_s0:1 vs_14_20:A 1.000000e-03
*END

*D_NET pgm_pn20_4_s1 2.423374e-03
*CONN
*I lt_pn20_4_s1:Z O
*I vs_23_20:A I
*CAP
1 pgm_pn20_4_s1:1 2.423374e-03
*RES
1 lt_pn20_4_s1:Z pgm_pn20_4_s1:1 2.750001e+00
2 pgm_pn20_4_s1:1 vs_23_20:A 1.000000e-03
*END

*D_NET pgm_pn20_4_s2 1.067410e-02
*CONN
*I lt_pn20_4_s2:Z O
*I vs_45_20:A I
*CAP
1 pgm_pn20_4_s2:1 1.067410e-02
*RES
1 lt_pn20_4_s2:Z pgm_pn20_4_s2:1 1.211278e+01
2 pgm_pn20_4_s2:1 vs_45_20:A 1.000000e-03
*END

*D_NET pgm_pn20_5_s3 1.513974e-02
*CONN
*I lt_pn20_5_s3:Z O
*I vs_63_20:A I
*CAP
1 pgm_pn20_5_s3:1 1.513974e-02
*RES
1 lt_pn20_5_s3:Z pgm_pn20_5_s3:1 1.560813e+01
2 pgm_pn20_5_s3:1 vs_63_20:A 1.000000e-03
*END

*D_NET pgm_pn20_6_s0 9.645412e-03
*CONN
*I lt_pn20_6_s0:Z O
*I vs_1_20:A I
*CAP
1 pgm_pn20_6_s0:1 9.645412e-03
*RES
1 lt_pn20_6_s0:Z pgm_pn20_6_s0:1 8.640850e+00
2 pgm_pn20_6_s0:1 vs_1_20:A 1.000000e-03
*END

*D_NET pgm_pn20_6_s3 1.149177e-02
*CONN
*I lt_pn20_6_s3:Z O
*I vs_48_20:A I
*CAP
1 pgm_pn20_6_s3:1 1.149177e-02
*RES
1 lt_pn20_6_s3:Z pgm_pn20_6_s3:1 1.304065e+01
2 pgm_pn20_6_s3:1 vs_48_20:A 1.000000e-03
*END

*D_NET pgm_pn20_7_s1 5.329645e-03
*CONN
*I lt_pn20_7_s1:Z O
*I vs_21_20:A I
*CAP
1 pgm_pn20_7_s1:1 5.329645e-03
*RES
1 lt_pn20_7_s1:Z pgm_pn20_7_s1:1 6.047986e+00
2 pgm_pn20_7_s1:1 vs_21_20:A 1.000000e-03
*END

*D_NET pgm_pn20_7_s3 7.422710e-03
*CONN
*I lt_pn20_7_s3:Z O
*I vs_53_20:A I
*CAP
1 pgm_pn20_7_s3:1 7.422710e-03
*RES
1 lt_pn20_7_s3:Z pgm_pn20_7_s3:1 6.994964e+00
2 pgm_pn20_7_s3:1 vs_53_20:A 1.000000e-03
*END

*D_NET pgm_pn20_8_s0 1.042807e-02
*CONN
*I lt_pn20_8_s0:Z O
*I vs_10_20:A I
*I vs_4_20:A I
*CAP
1 pgm_pn20_8_s0:1 1.042807e-02
*RES
1 lt_pn20_8_s0:Z pgm_pn20_8_s0:1 1.083734e+01
2 pgm_pn20_8_s0:1 vs_10_20:A 1.000000e-03
3 pgm_pn20_8_s0:1 vs_4_20:A 1.000000e-03
*END

*D_NET pgm_pn20_8_s1 6.005109e-03
*CONN
*I lt_pn20_8_s1:Z O
*I vs_22_20:A I
*CAP
1 pgm_pn20_8_s1:1 6.005109e-03
*RES
1 lt_pn20_8_s1:Z pgm_pn20_8_s1:1 6.814490e+00
2 pgm_pn20_8_s1:1 vs_22_20:A 1.000000e-03
*END

*D_NET pgm_pn20_9_s0 9.742837e-03
*CONN
*I lt_pn20_9_s0:Z O
*I vs_5_20:A I
*CAP
1 pgm_pn20_9_s0:1 9.742837e-03
*RES
1 lt_pn20_9_s0:Z pgm_pn20_9_s0:1 9.771782e+00
2 pgm_pn20_9_s0:1 vs_5_20:A 1.000000e-03
*END

*D_NET pgm_pn20_9_s2 7.196364e-03
*CONN
*I lt_pn20_9_s2:Z O
*I vs_39_20:A I
*CAP
1 pgm_pn20_9_s2:1 7.196364e-03
*RES
1 lt_pn20_9_s2:Z pgm_pn20_9_s2:1 7.314028e+00
2 pgm_pn20_9_s2:1 vs_39_20:A 1.000000e-03
*END

*D_NET pgm_pn21_0_s0 1.546456e-02
*CONN
*I lt_pn21_0_s0:Z O
*I vs_11_21:A I
*I vs_7_21:A I
*I vs_4_21:A I
*I vs_3_21:A I
*I vs_0_21:A I
*CAP
1 pgm_pn21_0_s0:1 1.546456e-02
*RES
1 lt_pn21_0_s0:Z pgm_pn21_0_s0:1 1.754891e+01
2 pgm_pn21_0_s0:1 vs_11_21:A 1.000000e-03
3 pgm_pn21_0_s0:1 vs_7_21:A 1.000000e-03
4 pgm_pn21_0_s0:1 vs_4_21:A 1.000000e-03
5 pgm_pn21_0_s0:1 vs_3_21:A 1.000000e-03
6 pgm_pn21_0_s0:1 vs_0_21:A 1.000000e-03
*END

*D_NET pgm_pn21_0_s1 9.637208e-03
*CONN
*I lt_pn21_0_s1:Z O
*I vs_29_21:A I
*I vs_25_21:A I
*I vs_23_21:A I
*I vs_22_21:A I
*CAP
1 pgm_pn21_0_s1:1 9.637208e-03
*RES
1 lt_pn21_0_s1:Z pgm_pn21_0_s1:1 1.093613e+01
2 pgm_pn21_0_s1:1 vs_29_21:A 1.000000e-03
3 pgm_pn21_0_s1:1 vs_25_21:A 1.000000e-03
4 pgm_pn21_0_s1:1 vs_23_21:A 1.000000e-03
5 pgm_pn21_0_s1:1 vs_22_21:A 1.000000e-03
*END

*D_NET pgm_pn21_0_s2 1.416992e-02
*CONN
*I lt_pn21_0_s2:Z O
*I vs_41_21:A I
*I vs_40_21:A I
*I vs_39_21:A I
*I vs_35_21:A I
*I vs_34_21:A I
*I vs_33_21:A I
*CAP
1 pgm_pn21_0_s2:1 1.416992e-02
*RES
1 lt_pn21_0_s2:Z pgm_pn21_0_s2:1 1.607978e+01
2 pgm_pn21_0_s2:1 vs_41_21:A 1.000000e-03
3 pgm_pn21_0_s2:1 vs_40_21:A 1.000000e-03
4 pgm_pn21_0_s2:1 vs_39_21:A 1.000000e-03
5 pgm_pn21_0_s2:1 vs_35_21:A 1.000000e-03
6 pgm_pn21_0_s2:1 vs_34_21:A 1.000000e-03
7 pgm_pn21_0_s2:1 vs_33_21:A 1.000000e-03
*END

*D_NET pgm_pn21_0_s3 1.707620e-02
*CONN
*I lt_pn21_0_s3:Z O
*I vs_62_21:A I
*I vs_60_21:A I
*I vs_55_21:A I
*I vs_54_21:A I
*I vs_49_21:A I
*CAP
1 pgm_pn21_0_s3:1 1.707620e-02
*RES
1 lt_pn21_0_s3:Z pgm_pn21_0_s3:1 1.937776e+01
2 pgm_pn21_0_s3:1 vs_62_21:A 1.000000e-03
3 pgm_pn21_0_s3:1 vs_60_21:A 1.000000e-03
4 pgm_pn21_0_s3:1 vs_55_21:A 1.000000e-03
5 pgm_pn21_0_s3:1 vs_54_21:A 1.000000e-03
6 pgm_pn21_0_s3:1 vs_49_21:A 1.000000e-03
*END

*D_NET pgm_pn2_0_s0 2.068180e-02
*CONN
*I lt_pn2_0_s0:Z O
*I vs_15_2:A I
*CAP
1 pgm_pn2_0_s0:1 2.068180e-02
*RES
1 lt_pn2_0_s0:Z pgm_pn2_0_s0:1 2.106458e+01
2 pgm_pn2_0_s0:1 vs_15_2:A 1.000000e-03
*END

*D_NET pgm_pn2_0_s1 3.110688e-03
*CONN
*I lt_pn2_0_s1:Z O
*I vs_18_2:A I
*CAP
1 pgm_pn2_0_s1:1 3.110688e-03
*RES
1 lt_pn2_0_s1:Z pgm_pn2_0_s1:1 3.529953e+00
2 pgm_pn2_0_s1:1 vs_18_2:A 1.000000e-03
*END

*D_NET pgm_pn2_10_s0 1.493130e-03
*CONN
*I lt_pn2_10_s0:Z O
*I vs_13_2:A I
*CAP
1 pgm_pn2_10_s0:1 1.493130e-03
*RES
1 lt_pn2_10_s0:Z pgm_pn2_10_s0:1 1.694377e+00
2 pgm_pn2_10_s0:1 vs_13_2:A 1.000000e-03
*END

*D_NET pgm_pn2_10_s1 1.993646e-02
*CONN
*I lt_pn2_10_s1:Z O
*I vs_17_2:A I
*CAP
1 pgm_pn2_10_s1:1 1.993646e-02
*RES
1 lt_pn2_10_s1:Z pgm_pn2_10_s1:1 1.731950e+01
2 pgm_pn2_10_s1:1 vs_17_2:A 1.000000e-03
*END

*D_NET pgm_pn2_10_s2 4.615668e-03
*CONN
*I lt_pn2_10_s2:Z O
*I vs_42_2:A I
*CAP
1 pgm_pn2_10_s2:1 4.615668e-03
*RES
1 lt_pn2_10_s2:Z pgm_pn2_10_s2:1 5.237778e+00
2 pgm_pn2_10_s2:1 vs_42_2:A 1.000000e-03
*END

*D_NET pgm_pn2_11_s0 1.855748e-02
*CONN
*I lt_pn2_11_s0:Z O
*I vs_0_2:A I
*CAP
1 pgm_pn2_11_s0:1 1.855748e-02
*RES
1 lt_pn2_11_s0:Z pgm_pn2_11_s0:1 2.105869e+01
2 pgm_pn2_11_s0:1 vs_0_2:A 1.000000e-03
*END

*D_NET pgm_pn2_11_s1 1.026040e-02
*CONN
*I lt_pn2_11_s1:Z O
*I vs_24_2:A I
*CAP
1 pgm_pn2_11_s1:1 1.026040e-02
*RES
1 lt_pn2_11_s1:Z pgm_pn2_11_s1:1 1.007114e+01
2 pgm_pn2_11_s1:1 vs_24_2:A 1.000000e-03
*END

*D_NET pgm_pn2_11_s2 1.891002e-02
*CONN
*I lt_pn2_11_s2:Z O
*I vs_32_2:A I
*CAP
1 pgm_pn2_11_s2:1 1.891002e-02
*RES
1 lt_pn2_11_s2:Z pgm_pn2_11_s2:1 2.145875e+01
2 pgm_pn2_11_s2:1 vs_32_2:A 1.000000e-03
*END

*D_NET pgm_pn2_1_s1 6.612434e-03
*CONN
*I lt_pn2_1_s1:Z O
*I vs_21_2:A I
*I vs_19_2:A I
*CAP
1 pgm_pn2_1_s1:1 6.612434e-03
*RES
1 lt_pn2_1_s1:Z pgm_pn2_1_s1:1 7.503672e+00
2 pgm_pn2_1_s1:1 vs_21_2:A 1.000000e-03
3 pgm_pn2_1_s1:1 vs_19_2:A 1.000000e-03
*END

*D_NET pgm_pn2_1_s2 1.579044e-03
*CONN
*I lt_pn2_1_s2:Z O
*I vs_34_2:A I
*CAP
1 pgm_pn2_1_s2:1 1.579044e-03
*RES
1 lt_pn2_1_s2:Z pgm_pn2_1_s2:1 1.791871e+00
2 pgm_pn2_1_s2:1 vs_34_2:A 1.000000e-03
*END

*D_NET pgm_pn2_2_s1 1.227685e-02
*CONN
*I lt_pn2_2_s1:Z O
*I vs_27_2:A I
*CAP
1 pgm_pn2_2_s1:1 1.227685e-02
*RES
1 lt_pn2_2_s1:Z pgm_pn2_2_s1:1 1.393155e+01
2 pgm_pn2_2_s1:1 vs_27_2:A 1.000000e-03
*END

*D_NET pgm_pn2_2_s2 4.988951e-03
*CONN
*I lt_pn2_2_s2:Z O
*I vs_38_2:A I
*CAP
1 pgm_pn2_2_s2:1 4.988951e-03
*RES
1 lt_pn2_2_s2:Z pgm_pn2_2_s2:1 5.661372e+00
2 pgm_pn2_2_s2:1 vs_38_2:A 1.000000e-03
*END

*D_NET pgm_pn2_2_s3 1.667315e-02
*CONN
*I lt_pn2_2_s3:Z O
*I vs_63_2:A I
*I vs_59_2:A I
*CAP
1 pgm_pn2_2_s3:1 1.667315e-02
*RES
1 lt_pn2_2_s3:Z pgm_pn2_2_s3:1 1.792414e+01
2 pgm_pn2_2_s3:1 vs_63_2:A 1.000000e-03
3 pgm_pn2_2_s3:1 vs_59_2:A 1.000000e-03
*END

*D_NET pgm_pn2_3_s2 1.348840e-02
*CONN
*I lt_pn2_3_s2:Z O
*I vs_46_2:A I
*CAP
1 pgm_pn2_3_s2:1 1.348840e-02
*RES
1 lt_pn2_3_s2:Z pgm_pn2_3_s2:1 1.431014e+01
2 pgm_pn2_3_s2:1 vs_46_2:A 1.000000e-03
*END

*D_NET pgm_pn2_5_s0 3.798002e-03
*CONN
*I lt_pn2_5_s0:Z O
*I vs_7_2:A I
*I vs_4_2:A I
*CAP
1 pgm_pn2_5_s0:1 3.798002e-03
*RES
1 lt_pn2_5_s0:Z pgm_pn2_5_s0:1 4.309905e+00
2 pgm_pn2_5_s0:1 vs_7_2:A 1.000000e-03
3 pgm_pn2_5_s0:1 vs_4_2:A 1.000000e-03
*END

*D_NET pgm_pn2_5_s2 1.647183e-03
*CONN
*I lt_pn2_5_s2:Z O
*I vs_40_2:A I
*CAP
1 pgm_pn2_5_s2:1 1.647183e-03
*RES
1 lt_pn2_5_s2:Z pgm_pn2_5_s2:1 1.869194e+00
2 pgm_pn2_5_s2:1 vs_40_2:A 1.000000e-03
*END

*D_NET pgm_pn2_5_s3 5.990296e-03
*CONN
*I lt_pn2_5_s3:Z O
*I vs_58_2:A I
*CAP
1 pgm_pn2_5_s3:1 5.990296e-03
*RES
1 lt_pn2_5_s3:Z pgm_pn2_5_s3:1 6.797681e+00
2 pgm_pn2_5_s3:1 vs_58_2:A 1.000000e-03
*END

*D_NET pgm_pn2_6_s0 1.157768e-02
*CONN
*I lt_pn2_6_s0:Z O
*I vs_11_2:A I
*I vs_3_2:A I
*CAP
1 pgm_pn2_6_s0:1 1.157768e-02
*RES
1 lt_pn2_6_s0:Z pgm_pn2_6_s0:1 1.313815e+01
2 pgm_pn2_6_s0:1 vs_11_2:A 1.000000e-03
3 pgm_pn2_6_s0:1 vs_3_2:A 1.000000e-03
*END

*D_NET pgm_pn2_7_s1 4.988951e-03
*CONN
*I lt_pn2_7_s1:Z O
*I vs_28_2:A I
*CAP
1 pgm_pn2_7_s1:1 4.988951e-03
*RES
1 lt_pn2_7_s1:Z pgm_pn2_7_s1:1 5.661372e+00
2 pgm_pn2_7_s1:1 vs_28_2:A 1.000000e-03
*END

*D_NET pgm_pn2_7_s2 5.839206e-03
*CONN
*I lt_pn2_7_s2:Z O
*I vs_45_2:A I
*CAP
1 pgm_pn2_7_s2:1 5.839206e-03
*RES
1 lt_pn2_7_s2:Z pgm_pn2_7_s2:1 6.626226e+00
2 pgm_pn2_7_s2:1 vs_45_2:A 1.000000e-03
*END

*D_NET pgm_pn2_8_s0 8.706964e-03
*CONN
*I lt_pn2_8_s0:Z O
*I vs_6_2:A I
*CAP
1 pgm_pn2_8_s0:1 8.706964e-03
*RES
1 lt_pn2_8_s0:Z pgm_pn2_8_s0:1 9.880507e+00
2 pgm_pn2_8_s0:1 vs_6_2:A 1.000000e-03
*END

*D_NET pgm_pn2_8_s2 8.472922e-03
*CONN
*I lt_pn2_8_s2:Z O
*I vs_36_2:A I
*CAP
1 pgm_pn2_8_s2:1 8.472922e-03
*RES
1 lt_pn2_8_s2:Z pgm_pn2_8_s2:1 9.614920e+00
2 pgm_pn2_8_s2:1 vs_36_2:A 1.000000e-03
*END

*D_NET pgm_pn2_9_s2 1.884051e-03
*CONN
*I lt_pn2_9_s2:Z O
*I vs_44_2:A I
*CAP
1 pgm_pn2_9_s2:1 1.884051e-03
*RES
1 lt_pn2_9_s2:Z pgm_pn2_9_s2:1 1.141731e+00
2 pgm_pn2_9_s2:1 vs_44_2:A 1.000000e-03
*END

*D_NET pgm_pn2_9_s3 6.066300e-03
*CONN
*I lt_pn2_9_s3:Z O
*I vs_56_2:A I
*CAP
1 pgm_pn2_9_s3:1 6.066300e-03
*RES
1 lt_pn2_9_s3:Z pgm_pn2_9_s3:1 5.599714e+00
2 pgm_pn2_9_s3:1 vs_56_2:A 1.000000e-03
*END

*D_NET pgm_pn3_0_s0 1.413734e-02
*CONN
*I lt_pn3_0_s0:Z O
*I vs_10_3:A I
*CAP
1 pgm_pn3_0_s0:1 1.413734e-02
*RES
1 lt_pn3_0_s0:Z pgm_pn3_0_s0:1 1.604280e+01
2 pgm_pn3_0_s0:1 vs_10_3:A 1.000000e-03
*END

*D_NET pgm_pn3_12_s3 1.615770e-02
*CONN
*I lt_pn3_12_s3:Z O
*I vs_54_3:A I
*CAP
1 pgm_pn3_12_s3:1 1.615770e-02
*RES
1 lt_pn3_12_s3:Z pgm_pn3_12_s3:1 1.447122e+01
2 pgm_pn3_12_s3:1 vs_54_3:A 1.000000e-03
*END

*D_NET pgm_pn3_1_s0 1.504388e-02
*CONN
*I lt_pn3_1_s0:Z O
*I vs_11_3:A I
*CAP
1 pgm_pn3_1_s0:1 1.504388e-02
*RES
1 lt_pn3_1_s0:Z pgm_pn3_1_s0:1 1.707153e+01
2 pgm_pn3_1_s0:1 vs_11_3:A 1.000000e-03
*END

*D_NET pgm_pn3_1_s1 1.485577e-02
*CONN
*I lt_pn3_1_s1:Z O
*I vs_28_3:A I
*CAP
1 pgm_pn3_1_s1:1 1.485577e-02
*RES
1 lt_pn3_1_s1:Z pgm_pn3_1_s1:1 1.542987e+01
2 pgm_pn3_1_s1:1 vs_28_3:A 1.000000e-03
*END

*D_NET pgm_pn3_1_s2 1.864932e-02
*CONN
*I lt_pn3_1_s2:Z O
*I vs_47_3:A I
*CAP
1 pgm_pn3_1_s2:1 1.864932e-02
*RES
1 lt_pn3_1_s2:Z pgm_pn3_1_s2:1 2.116291e+01
2 pgm_pn3_1_s2:1 vs_47_3:A 1.000000e-03
*END

*D_NET pgm_pn3_1_s3 1.816407e-02
*CONN
*I lt_pn3_1_s3:Z O
*I vs_60_3:A I
*I vs_48_3:A I
*CAP
1 pgm_pn3_1_s3:1 1.816407e-02
*RES
1 lt_pn3_1_s3:Z pgm_pn3_1_s3:1 1.889610e+01
2 pgm_pn3_1_s3:1 vs_60_3:A 1.000000e-03
3 pgm_pn3_1_s3:1 vs_48_3:A 1.000000e-03
*END

*D_NET pgm_pn3_2_s1 1.147386e-02
*CONN
*I lt_pn3_2_s1:Z O
*I vs_27_3:A I
*CAP
1 pgm_pn3_2_s1:1 1.147386e-02
*RES
1 lt_pn3_2_s1:Z pgm_pn3_2_s1:1 1.202407e+01
2 pgm_pn3_2_s1:1 vs_27_3:A 1.000000e-03
*END

*D_NET pgm_pn3_3_s0 2.059285e-03
*CONN
*I lt_pn3_3_s0:Z O
*I vs_3_3:A I
*CAP
1 pgm_pn3_3_s0:1 2.059285e-03
*RES
1 lt_pn3_3_s0:Z pgm_pn3_3_s0:1 1.484563e+00
2 pgm_pn3_3_s0:1 vs_3_3:A 1.000000e-03
*END

*D_NET pgm_pn3_3_s1 3.860216e-03
*CONN
*I lt_pn3_3_s1:Z O
*I vs_18_3:A I
*CAP
1 pgm_pn3_3_s1:1 3.860216e-03
*RES
1 lt_pn3_3_s1:Z pgm_pn3_3_s1:1 4.380504e+00
2 pgm_pn3_3_s1:1 vs_18_3:A 1.000000e-03
*END

*D_NET pgm_pn3_3_s3 6.675140e-03
*CONN
*I lt_pn3_3_s3:Z O
*I vs_56_3:A I
*CAP
1 pgm_pn3_3_s3:1 6.675140e-03
*RES
1 lt_pn3_3_s3:Z pgm_pn3_3_s3:1 6.406424e+00
2 pgm_pn3_3_s3:1 vs_56_3:A 1.000000e-03
*END

*D_NET pgm_pn3_4_s0 2.373011e-03
*CONN
*I lt_pn3_4_s0:Z O
*I vs_7_3:A I
*CAP
1 pgm_pn3_4_s0:1 2.373011e-03
*RES
1 lt_pn3_4_s0:Z pgm_pn3_4_s0:1 2.692850e+00
2 pgm_pn3_4_s0:1 vs_7_3:A 1.000000e-03
*END

*D_NET pgm_pn3_4_s2 1.904630e-02
*CONN
*I lt_pn3_4_s2:Z O
*I vs_46_3:A I
*I vs_37_3:A I
*I vs_32_3:A I
*CAP
1 pgm_pn3_4_s2:1 1.904630e-02
*RES
1 lt_pn3_4_s2:Z pgm_pn3_4_s2:1 2.161340e+01
2 pgm_pn3_4_s2:1 vs_46_3:A 1.000000e-03
3 pgm_pn3_4_s2:1 vs_37_3:A 1.000000e-03
4 pgm_pn3_4_s2:1 vs_32_3:A 1.000000e-03
*END

*D_NET pgm_pn3_5_s0 1.120331e-02
*CONN
*I lt_pn3_5_s0:Z O
*I vs_14_3:A I
*CAP
1 pgm_pn3_5_s0:1 1.120331e-02
*RES
1 lt_pn3_5_s0:Z pgm_pn3_5_s0:1 1.065286e+01
2 pgm_pn3_5_s0:1 vs_14_3:A 1.000000e-03
*END

*D_NET pgm_pn3_6_s3 1.410921e-02
*CONN
*I lt_pn3_6_s3:Z O
*I vs_58_3:A I
*I vs_57_3:A I
*I vs_50_3:A I
*CAP
1 pgm_pn3_6_s3:1 1.410921e-02
*RES
1 lt_pn3_6_s3:Z pgm_pn3_6_s3:1 1.458268e+01
2 pgm_pn3_6_s3:1 vs_58_3:A 1.000000e-03
3 pgm_pn3_6_s3:1 vs_57_3:A 1.000000e-03
4 pgm_pn3_6_s3:1 vs_50_3:A 1.000000e-03
*END

*D_NET pgm_pn3_7_s0 3.898729e-03
*CONN
*I lt_pn3_7_s0:Z O
*I vs_6_3:A I
*CAP
1 pgm_pn3_7_s0:1 3.898729e-03
*RES
1 lt_pn3_7_s0:Z pgm_pn3_7_s0:1 4.424208e+00
2 pgm_pn3_7_s0:1 vs_6_3:A 1.000000e-03
*END

*D_NET pgm_pn3_7_s1 1.259384e-02
*CONN
*I lt_pn3_7_s1:Z O
*I vs_16_3:A I
*CAP
1 pgm_pn3_7_s1:1 1.259384e-02
*RES
1 lt_pn3_7_s1:Z pgm_pn3_7_s1:1 1.429127e+01
2 pgm_pn3_7_s1:1 vs_16_3:A 1.000000e-03
*END

*D_NET pgm_pn3_7_s2 4.035007e-03
*CONN
*I lt_pn3_7_s2:Z O
*I vs_44_3:A I
*I vs_43_3:A I
*CAP
1 pgm_pn3_7_s2:1 4.035007e-03
*RES
1 lt_pn3_7_s2:Z pgm_pn3_7_s2:1 4.578853e+00
2 pgm_pn3_7_s2:1 vs_44_3:A 1.000000e-03
3 pgm_pn3_7_s2:1 vs_43_3:A 1.000000e-03
*END

*D_NET pgm_pn3_7_s3 7.542678e-03
*CONN
*I lt_pn3_7_s3:Z O
*I vs_55_3:A I
*I vs_52_3:A I
*CAP
1 pgm_pn3_7_s3:1 7.542678e-03
*RES
1 lt_pn3_7_s3:Z pgm_pn3_7_s3:1 8.559296e+00
2 pgm_pn3_7_s3:1 vs_55_3:A 1.000000e-03
3 pgm_pn3_7_s3:1 vs_52_3:A 1.000000e-03
*END

*D_NET pgm_pn3_8_s0 1.778129e-02
*CONN
*I lt_pn3_8_s0:Z O
*I vs_15_3:A I
*I vs_2_3:A I
*CAP
1 pgm_pn3_8_s0:1 1.778129e-02
*RES
1 lt_pn3_8_s0:Z pgm_pn3_8_s0:1 2.017788e+01
2 pgm_pn3_8_s0:1 vs_15_3:A 1.000000e-03
3 pgm_pn3_8_s0:1 vs_2_3:A 1.000000e-03
*END

*D_NET pgm_pn3_9_s1 7.524765e-03
*CONN
*I lt_pn3_9_s1:Z O
*I vs_22_3:A I
*CAP
1 pgm_pn3_9_s1:1 7.524765e-03
*RES
1 lt_pn3_9_s1:Z pgm_pn3_9_s1:1 7.542713e+00
2 pgm_pn3_9_s1:1 vs_22_3:A 1.000000e-03
*END

*D_NET pgm_pn3_9_s3 2.429299e-03
*CONN
*I lt_pn3_9_s3:Z O
*I vs_61_3:A I
*CAP
1 pgm_pn3_9_s3:1 2.429299e-03
*RES
1 lt_pn3_9_s3:Z pgm_pn3_9_s3:1 2.756725e+00
2 pgm_pn3_9_s3:1 vs_61_3:A 1.000000e-03
*END

*D_NET pgm_pn4_0_s3 1.328473e-02
*CONN
*I lt_pn4_0_s3:Z O
*I vs_58_4:A I
*CAP
1 pgm_pn4_0_s3:1 1.328473e-02
*RES
1 lt_pn4_0_s3:Z pgm_pn4_0_s3:1 1.335912e+01
2 pgm_pn4_0_s3:1 vs_58_4:A 1.000000e-03
*END

*D_NET pgm_pn4_10_s0 7.036691e-03
*CONN
*I lt_pn4_10_s0:Z O
*I vs_9_4:A I
*CAP
1 pgm_pn4_10_s0:1 7.036691e-03
*RES
1 lt_pn4_10_s0:Z pgm_pn4_10_s0:1 6.268958e+00
2 pgm_pn4_10_s0:1 vs_9_4:A 1.000000e-03
*END

*D_NET pgm_pn4_10_s2 2.701855e-03
*CONN
*I lt_pn4_10_s2:Z O
*I vs_46_4:A I
*CAP
1 pgm_pn4_10_s2:1 2.701855e-03
*RES
1 lt_pn4_10_s2:Z pgm_pn4_10_s2:1 3.066016e+00
2 pgm_pn4_10_s2:1 vs_46_4:A 1.000000e-03
*END

*D_NET pgm_pn4_11_s0 1.831679e-02
*CONN
*I lt_pn4_11_s0:Z O
*I vs_2_4:A I
*CAP
1 pgm_pn4_11_s0:1 1.831679e-02
*RES
1 lt_pn4_11_s0:Z pgm_pn4_11_s0:1 1.863747e+01
2 pgm_pn4_11_s0:1 vs_2_4:A 1.000000e-03
*END

*D_NET pgm_pn4_11_s3 1.962757e-02
*CONN
*I lt_pn4_11_s3:Z O
*I vs_48_4:A I
*CAP
1 pgm_pn4_11_s3:1 1.962757e-02
*RES
1 lt_pn4_11_s3:Z pgm_pn4_11_s3:1 2.055686e+01
2 pgm_pn4_11_s3:1 vs_48_4:A 1.000000e-03
*END

*D_NET pgm_pn4_1_s0 1.814169e-02
*CONN
*I lt_pn4_1_s0:Z O
*I vs_14_4:A I
*I vs_5_4:A I
*CAP
1 pgm_pn4_1_s0:1 1.814169e-02
*RES
1 lt_pn4_1_s0:Z pgm_pn4_1_s0:1 1.930266e+01
2 pgm_pn4_1_s0:1 vs_14_4:A 1.000000e-03
3 pgm_pn4_1_s0:1 vs_5_4:A 1.000000e-03
*END

*D_NET pgm_pn4_1_s2 1.531085e-02
*CONN
*I lt_pn4_1_s2:Z O
*I vs_41_4:A I
*I vs_36_4:A I
*CAP
1 pgm_pn4_1_s2:1 1.531085e-02
*RES
1 lt_pn4_1_s2:Z pgm_pn4_1_s2:1 1.366001e+01
2 pgm_pn4_1_s2:1 vs_41_4:A 1.000000e-03
3 pgm_pn4_1_s2:1 vs_36_4:A 1.000000e-03
*END

*D_NET pgm_pn4_1_s3 1.670649e-02
*CONN
*I lt_pn4_1_s3:Z O
*I vs_61_4:A I
*I vs_59_4:A I
*I vs_51_4:A I
*CAP
1 pgm_pn4_1_s3:1 1.670649e-02
*RES
1 lt_pn4_1_s3:Z pgm_pn4_1_s3:1 1.724207e+01
2 pgm_pn4_1_s3:1 vs_61_4:A 1.000000e-03
3 pgm_pn4_1_s3:1 vs_59_4:A 1.000000e-03
4 pgm_pn4_1_s3:1 vs_51_4:A 1.000000e-03
*END

*D_NET pgm_pn4_2_s0 1.356852e-03
*CONN
*I lt_pn4_2_s0:Z O
*I vs_3_4:A I
*CAP
1 pgm_pn4_2_s0:1 1.356852e-03
*RES
1 lt_pn4_2_s0:Z pgm_pn4_2_s0:1 1.539732e+00
2 pgm_pn4_2_s0:1 vs_3_4:A 1.000000e-03
*END

*D_NET pgm_pn4_2_s1 9.899410e-03
*CONN
*I lt_pn4_2_s1:Z O
*I vs_25_4:A I
*I vs_24_4:A I
*CAP
1 pgm_pn4_2_s1:1 9.899410e-03
*RES
1 lt_pn4_2_s1:Z pgm_pn4_2_s1:1 9.805479e+00
2 pgm_pn4_2_s1:1 vs_25_4:A 1.000000e-03
3 pgm_pn4_2_s1:1 vs_24_4:A 1.000000e-03
*END

*D_NET pgm_pn4_3_s0 6.813888e-04
*CONN
*I lt_pn4_3_s0:Z O
*I vs_4_4:A I
*CAP
1 pgm_pn4_3_s0:1 6.813888e-04
*RES
1 lt_pn4_3_s0:Z pgm_pn4_3_s0:1 7.732278e-01
2 pgm_pn4_3_s0:1 vs_4_4:A 1.000000e-03
*END

*D_NET pgm_pn4_3_s2 1.161027e-02
*CONN
*I lt_pn4_3_s2:Z O
*I vs_45_4:A I
*CAP
1 pgm_pn4_3_s2:1 1.161027e-02
*RES
1 lt_pn4_3_s2:Z pgm_pn4_3_s2:1 1.317513e+01
2 pgm_pn4_3_s2:1 vs_45_4:A 1.000000e-03
*END

*D_NET pgm_pn4_3_s3 1.447211e-02
*CONN
*I lt_pn4_3_s3:Z O
*I vs_63_4:A I
*CAP
1 pgm_pn4_3_s3:1 1.447211e-02
*RES
1 lt_pn4_3_s3:Z pgm_pn4_3_s3:1 1.642269e+01
2 pgm_pn4_3_s3:1 vs_63_4:A 1.000000e-03
*END

*D_NET pgm_pn4_4_s3 9.737935e-03
*CONN
*I lt_pn4_4_s3:Z O
*I vs_60_4:A I
*I vs_57_4:A I
*I vs_53_4:A I
*CAP
1 pgm_pn4_4_s3:1 9.737935e-03
*RES
1 lt_pn4_4_s3:Z pgm_pn4_4_s3:1 1.105043e+01
2 pgm_pn4_4_s3:1 vs_60_4:A 1.000000e-03
3 pgm_pn4_4_s3:1 vs_57_4:A 1.000000e-03
4 pgm_pn4_4_s3:1 vs_53_4:A 1.000000e-03
*END

*D_NET pgm_pn4_5_s1 1.044302e-02
*CONN
*I lt_pn4_5_s1:Z O
*I vs_30_4:A I
*CAP
1 pgm_pn4_5_s1:1 1.044302e-02
*RES
1 lt_pn4_5_s1:Z pgm_pn4_5_s1:1 1.185056e+01
2 pgm_pn4_5_s1:1 vs_30_4:A 1.000000e-03
*END

*D_NET pgm_pn4_6_s2 4.660107e-03
*CONN
*I lt_pn4_6_s2:Z O
*I vs_43_4:A I
*CAP
1 pgm_pn4_6_s2:1 4.660107e-03
*RES
1 lt_pn4_6_s2:Z pgm_pn4_6_s2:1 5.288206e+00
2 pgm_pn4_6_s2:1 vs_43_4:A 1.000000e-03
*END

*D_NET pgm_pn4_7_s1 1.573030e-02
*CONN
*I lt_pn4_7_s1:Z O
*I vs_16_4:A I
*CAP
1 pgm_pn4_7_s1:1 1.573030e-02
*RES
1 lt_pn4_7_s1:Z pgm_pn4_7_s1:1 1.431800e+01
2 pgm_pn4_7_s1:1 vs_16_4:A 1.000000e-03
*END

*D_NET pgm_pn4_7_s2 6.165087e-03
*CONN
*I lt_pn4_7_s2:Z O
*I vs_44_4:A I
*I vs_40_4:A I
*CAP
1 pgm_pn4_7_s2:1 6.165087e-03
*RES
1 lt_pn4_7_s2:Z pgm_pn4_7_s2:1 6.996031e+00
2 pgm_pn4_7_s2:1 vs_44_4:A 1.000000e-03
3 pgm_pn4_7_s2:1 vs_40_4:A 1.000000e-03
*END

*D_NET pgm_pn4_7_s3 1.783461e-03
*CONN
*I lt_pn4_7_s3:Z O
*I vs_56_4:A I
*CAP
1 pgm_pn4_7_s3:1 1.783461e-03
*RES
1 lt_pn4_7_s3:Z pgm_pn4_7_s3:1 2.023840e+00
2 pgm_pn4_7_s3:1 vs_56_4:A 1.000000e-03
*END

*D_NET pgm_pn4_8_s0 6.277665e-03
*CONN
*I lt_pn4_8_s0:Z O
*I vs_6_4:A I
*CAP
1 pgm_pn4_8_s0:1 6.277665e-03
*RES
1 lt_pn4_8_s0:Z pgm_pn4_8_s0:1 7.123781e+00
2 pgm_pn4_8_s0:1 vs_6_4:A 1.000000e-03
*END

*D_NET pgm_pn4_8_s1 9.693496e-03
*CONN
*I lt_pn4_8_s1:Z O
*I vs_20_4:A I
*CAP
1 pgm_pn4_8_s1:1 9.693496e-03
*RES
1 lt_pn4_8_s1:Z pgm_pn4_8_s1:1 1.100001e+01
2 pgm_pn4_8_s1:1 vs_20_4:A 1.000000e-03
*END

*D_NET pgm_pn4_8_s2 1.123106e-02
*CONN
*I lt_pn4_8_s2:Z O
*I vs_38_4:A I
*I vs_35_4:A I
*CAP
1 pgm_pn4_8_s2:1 1.123106e-02
*RES
1 lt_pn4_8_s2:Z pgm_pn4_8_s2:1 1.274481e+01
2 pgm_pn4_8_s2:1 vs_38_4:A 1.000000e-03
3 pgm_pn4_8_s2:1 vs_35_4:A 1.000000e-03
*END

*D_NET pgm_pn4_8_s3 1.487947e-02
*CONN
*I lt_pn4_8_s3:Z O
*I vs_49_4:A I
*CAP
1 pgm_pn4_8_s3:1 1.487947e-02
*RES
1 lt_pn4_8_s3:Z pgm_pn4_8_s3:1 1.545677e+01
2 pgm_pn4_8_s3:1 vs_49_4:A 1.000000e-03
*END

*D_NET pgm_pn4_9_s3 8.200229e-03
*CONN
*I lt_pn4_9_s3:Z O
*I vs_54_4:A I
*CAP
1 pgm_pn4_9_s3:1 8.200229e-03
*RES
1 lt_pn4_9_s3:Z pgm_pn4_9_s3:1 8.309217e+00
2 pgm_pn4_9_s3:1 vs_54_4:A 1.000000e-03
*END

*D_NET pgm_pn5_0_s0 1.207985e-02
*CONN
*I lt_pn5_0_s0:Z O
*I vs_9_5:A I
*CAP
1 pgm_pn5_0_s0:1 1.207985e-02
*RES
1 lt_pn5_0_s0:Z pgm_pn5_0_s0:1 1.227981e+01
2 pgm_pn5_0_s0:1 vs_9_5:A 1.000000e-03
*END

*D_NET pgm_pn5_0_s1 1.712050e-02
*CONN
*I lt_pn5_0_s1:Z O
*I vs_29_5:A I
*I vs_26_5:A I
*CAP
1 pgm_pn5_0_s1:1 1.712050e-02
*RES
1 lt_pn5_0_s1:Z pgm_pn5_0_s1:1 1.843178e+01
2 pgm_pn5_0_s1:1 vs_29_5:A 1.000000e-03
3 pgm_pn5_0_s1:1 vs_26_5:A 1.000000e-03
*END

*D_NET pgm_pn5_0_s2 1.393884e-02
*CONN
*I lt_pn5_0_s2:Z O
*I vs_42_5:A I
*CAP
1 pgm_pn5_0_s2:1 1.393884e-02
*RES
1 lt_pn5_0_s2:Z pgm_pn5_0_s2:1 1.581755e+01
2 pgm_pn5_0_s2:1 vs_42_5:A 1.000000e-03
*END

*D_NET pgm_pn5_0_s3 1.252972e-02
*CONN
*I lt_pn5_0_s3:Z O
*I vs_57_5:A I
*CAP
1 pgm_pn5_0_s3:1 1.252972e-02
*RES
1 lt_pn5_0_s3:Z pgm_pn5_0_s3:1 1.264633e+01
2 pgm_pn5_0_s3:1 vs_57_5:A 1.000000e-03
*END

*D_NET pgm_pn5_11_s0 1.883003e-02
*CONN
*I lt_pn5_11_s0:Z O
*I vs_0_5:A I
*CAP
1 pgm_pn5_11_s0:1 1.883003e-02
*RES
1 lt_pn5_11_s0:Z pgm_pn5_11_s0:1 2.136798e+01
2 pgm_pn5_11_s0:1 vs_0_5:A 1.000000e-03
*END

*D_NET pgm_pn5_1_s0 6.464306e-03
*CONN
*I lt_pn5_1_s0:Z O
*I vs_6_5:A I
*CAP
1 pgm_pn5_1_s0:1 6.464306e-03
*RES
1 lt_pn5_1_s0:Z pgm_pn5_1_s0:1 7.335579e+00
2 pgm_pn5_1_s0:1 vs_6_5:A 1.000000e-03
*END

*D_NET pgm_pn5_1_s2 1.463208e-02
*CONN
*I lt_pn5_1_s2:Z O
*I vs_43_5:A I
*I vs_39_5:A I
*I vs_34_5:A I
*CAP
1 pgm_pn5_1_s2:1 1.463208e-02
*RES
1 lt_pn5_1_s2:Z pgm_pn5_1_s2:1 1.660423e+01
2 pgm_pn5_1_s2:1 vs_43_5:A 1.000000e-03
3 pgm_pn5_1_s2:1 vs_39_5:A 1.000000e-03
4 pgm_pn5_1_s2:1 vs_34_5:A 1.000000e-03
*END

*D_NET pgm_pn5_1_s3 1.803310e-02
*CONN
*I lt_pn5_1_s3:Z O
*I vs_63_5:A I
*I vs_59_5:A I
*CAP
1 pgm_pn5_1_s3:1 1.803310e-02
*RES
1 lt_pn5_1_s3:Z pgm_pn5_1_s3:1 2.046364e+01
2 pgm_pn5_1_s3:1 vs_63_5:A 1.000000e-03
3 pgm_pn5_1_s3:1 vs_59_5:A 1.000000e-03
*END

*D_NET pgm_pn5_2_s0 1.123403e-02
*CONN
*I lt_pn5_2_s0:Z O
*I vs_10_5:A I
*I vs_7_5:A I
*CAP
1 pgm_pn5_2_s0:1 1.123403e-02
*RES
1 lt_pn5_2_s0:Z pgm_pn5_2_s0:1 1.274817e+01
2 pgm_pn5_2_s0:1 vs_10_5:A 1.000000e-03
3 pgm_pn5_2_s0:1 vs_7_5:A 1.000000e-03
*END

*D_NET pgm_pn5_2_s3 5.183865e-03
*CONN
*I lt_pn5_2_s3:Z O
*I vs_54_5:A I
*CAP
1 pgm_pn5_2_s3:1 5.183865e-03
*RES
1 lt_pn5_2_s3:Z pgm_pn5_2_s3:1 4.354204e+00
2 pgm_pn5_2_s3:1 vs_54_5:A 1.000000e-03
*END

*D_NET pgm_pn5_3_s1 2.192294e-03
*CONN
*I lt_pn5_3_s1:Z O
*I vs_19_5:A I
*CAP
1 pgm_pn5_3_s1:1 2.192294e-03
*RES
1 lt_pn5_3_s1:Z pgm_pn5_3_s1:1 2.487776e+00
2 pgm_pn5_3_s1:1 vs_19_5:A 1.000000e-03
*END

*D_NET pgm_pn5_4_s1 2.054535e-02
*CONN
*I lt_pn5_4_s1:Z O
*I vs_30_5:A I
*I vs_16_5:A I
*CAP
1 pgm_pn5_4_s1:1 2.054535e-02
*RES
1 lt_pn5_4_s1:Z pgm_pn5_4_s1:1 2.331450e+01
2 pgm_pn5_4_s1:1 vs_30_5:A 1.000000e-03
3 pgm_pn5_4_s1:1 vs_16_5:A 1.000000e-03
*END

*D_NET pgm_pn5_5_s3 2.156744e-03
*CONN
*I lt_pn5_5_s3:Z O
*I vs_56_5:A I
*CAP
1 pgm_pn5_5_s3:1 2.156744e-03
*RES
1 lt_pn5_5_s3:Z pgm_pn5_5_s3:1 2.447434e+00
2 pgm_pn5_5_s3:1 vs_56_5:A 1.000000e-03
*END

*D_NET pgm_pn5_6_s1 7.920725e-03
*CONN
*I lt_pn5_6_s1:Z O
*I vs_20_5:A I
*CAP
1 pgm_pn5_6_s1:1 7.920725e-03
*RES
1 lt_pn5_6_s1:Z pgm_pn5_6_s1:1 6.707826e+00
2 pgm_pn5_6_s1:1 vs_20_5:A 1.000000e-03
*END

*D_NET pgm_pn5_6_s2 1.038674e-02
*CONN
*I lt_pn5_6_s2:Z O
*I vs_36_5:A I
*I vs_32_5:A I
*CAP
1 pgm_pn5_6_s2:1 1.038674e-02
*RES
1 lt_pn5_6_s2:Z pgm_pn5_6_s2:1 1.178668e+01
2 pgm_pn5_6_s2:1 vs_36_5:A 1.000000e-03
3 pgm_pn5_6_s2:1 vs_32_5:A 1.000000e-03
*END

*D_NET pgm_pn5_7_s0 2.639641e-03
*CONN
*I lt_pn5_7_s0:Z O
*I vs_11_5:A I
*CAP
1 pgm_pn5_7_s0:1 2.639641e-03
*RES
1 lt_pn5_7_s0:Z pgm_pn5_7_s0:1 2.995417e+00
2 pgm_pn5_7_s0:1 vs_11_5:A 1.000000e-03
*END

*D_NET pgm_pn5_7_s2 6.754637e-04
*CONN
*I lt_pn5_7_s2:Z O
*I vs_41_5:A I
*CAP
1 pgm_pn5_7_s2:1 6.754637e-04
*RES
1 lt_pn5_7_s2:Z pgm_pn5_7_s2:1 7.665041e-01
2 pgm_pn5_7_s2:1 vs_41_5:A 1.000000e-03
*END

*D_NET pgm_pn5_9_s1 1.623483e-03
*CONN
*I lt_pn5_9_s1:Z O
*I vs_28_5:A I
*CAP
1 pgm_pn5_9_s1:1 1.623483e-03
*RES
1 lt_pn5_9_s1:Z pgm_pn5_9_s1:1 1.842299e+00
2 pgm_pn5_9_s1:1 vs_28_5:A 1.000000e-03
*END

*D_NET pgm_pn5_9_s2 7.997582e-03
*CONN
*I lt_pn5_9_s2:Z O
*I vs_38_5:A I
*CAP
1 pgm_pn5_9_s2:1 7.997582e-03
*RES
1 lt_pn5_9_s2:Z pgm_pn5_9_s2:1 7.565939e+00
2 pgm_pn5_9_s2:1 vs_38_5:A 1.000000e-03
*END

*D_NET pgm_pn5_9_s3 1.294639e-02
*CONN
*I lt_pn5_9_s3:Z O
*I vs_51_5:A I
*I vs_50_5:A I
*CAP
1 pgm_pn5_9_s3:1 1.294639e-02
*RES
1 lt_pn5_9_s3:Z pgm_pn5_9_s3:1 1.469133e+01
2 pgm_pn5_9_s3:1 vs_51_5:A 1.000000e-03
3 pgm_pn5_9_s3:1 vs_50_5:A 1.000000e-03
*END

*D_NET pgm_pn6_0_s2 2.241030e-02
*CONN
*I lt_pn6_0_s2:Z O
*I vs_47_6:A I
*I vs_35_6:A I
*I vs_34_6:A I
*CAP
1 pgm_pn6_0_s2:1 2.241030e-02
*RES
1 lt_pn6_0_s2:Z pgm_pn6_0_s2:1 2.400261e+01
2 pgm_pn6_0_s2:1 vs_47_6:A 1.000000e-03
3 pgm_pn6_0_s2:1 vs_35_6:A 1.000000e-03
4 pgm_pn6_0_s2:1 vs_34_6:A 1.000000e-03
*END

*D_NET pgm_pn6_0_s3 1.766636e-02
*CONN
*I lt_pn6_0_s3:Z O
*I vs_61_6:A I
*CAP
1 pgm_pn6_0_s3:1 1.766636e-02
*RES
1 lt_pn6_0_s3:Z pgm_pn6_0_s3:1 1.833131e+01
2 pgm_pn6_0_s3:1 vs_61_6:A 1.000000e-03
*END

*D_NET pgm_pn6_11_s0 9.936426e-03
*CONN
*I lt_pn6_11_s0:Z O
*I vs_8_6:A I
*CAP
1 pgm_pn6_11_s0:1 9.936426e-03
*RES
1 lt_pn6_11_s0:Z pgm_pn6_11_s0:1 1.127568e+01
2 pgm_pn6_11_s0:1 vs_8_6:A 1.000000e-03
*END

*D_NET pgm_pn6_12_s0 2.011874e-02
*CONN
*I lt_pn6_12_s0:Z O
*I vs_0_6:A I
*CAP
1 pgm_pn6_12_s0:1 2.011874e-02
*RES
1 lt_pn6_12_s0:Z pgm_pn6_12_s0:1 2.283039e+01
2 pgm_pn6_12_s0:1 vs_0_6:A 1.000000e-03
*END

*D_NET pgm_pn6_1_s0 1.645702e-02
*CONN
*I lt_pn6_1_s0:Z O
*I vs_14_6:A I
*CAP
1 pgm_pn6_1_s0:1 1.645702e-02
*RES
1 lt_pn6_1_s0:Z pgm_pn6_1_s0:1 1.867513e+01
2 pgm_pn6_1_s0:1 vs_14_6:A 1.000000e-03
*END

*D_NET pgm_pn6_1_s1 4.405327e-03
*CONN
*I lt_pn6_1_s1:Z O
*I vs_18_6:A I
*I vs_16_6:A I
*CAP
1 pgm_pn6_1_s1:1 4.405327e-03
*RES
1 lt_pn6_1_s1:Z pgm_pn6_1_s1:1 4.999086e+00
2 pgm_pn6_1_s1:1 vs_18_6:A 1.000000e-03
3 pgm_pn6_1_s1:1 vs_16_6:A 1.000000e-03
*END

*D_NET pgm_pn6_1_s2 4.132771e-03
*CONN
*I lt_pn6_1_s2:Z O
*I vs_36_6:A I
*CAP
1 pgm_pn6_1_s2:1 4.132771e-03
*RES
1 lt_pn6_1_s2:Z pgm_pn6_1_s2:1 4.689795e+00
2 pgm_pn6_1_s2:1 vs_36_6:A 1.000000e-03
*END

*D_NET pgm_pn6_2_s1 2.112305e-03
*CONN
*I lt_pn6_2_s1:Z O
*I vs_20_6:A I
*CAP
1 pgm_pn6_2_s1:1 2.112305e-03
*RES
1 lt_pn6_2_s1:Z pgm_pn6_2_s1:1 2.397006e+00
2 pgm_pn6_2_s1:1 vs_20_6:A 1.000000e-03
*END

*D_NET pgm_pn6_2_s2 3.321030e-03
*CONN
*I lt_pn6_2_s2:Z O
*I vs_33_6:A I
*CAP
1 pgm_pn6_2_s2:1 3.321030e-03
*RES
1 lt_pn6_2_s2:Z pgm_pn6_2_s2:1 3.768645e+00
2 pgm_pn6_2_s2:1 vs_33_6:A 1.000000e-03
*END

*D_NET pgm_pn6_2_s3 7.297534e-03
*CONN
*I lt_pn6_2_s3:Z O
*I vs_56_6:A I
*CAP
1 pgm_pn6_2_s3:1 7.297534e-03
*RES
1 lt_pn6_2_s3:Z pgm_pn6_2_s3:1 7.572813e+00
2 pgm_pn6_2_s3:1 vs_56_6:A 1.000000e-03
*END

*D_NET pgm_pn6_3_s0 9.228374e-03
*CONN
*I lt_pn6_3_s0:Z O
*I vs_11_6:A I
*CAP
1 pgm_pn6_3_s0:1 9.228374e-03
*RES
1 lt_pn6_3_s0:Z pgm_pn6_3_s0:1 1.047219e+01
2 pgm_pn6_3_s0:1 vs_11_6:A 1.000000e-03
*END

*D_NET pgm_pn6_4_s1 2.423374e-03
*CONN
*I lt_pn6_4_s1:Z O
*I vs_23_6:A I
*CAP
1 pgm_pn6_4_s1:1 2.423374e-03
*RES
1 lt_pn6_4_s1:Z pgm_pn6_4_s1:1 2.750001e+00
2 pgm_pn6_4_s1:1 vs_23_6:A 1.000000e-03
*END

*D_NET pgm_pn6_4_s2 6.099911e-03
*CONN
*I lt_pn6_4_s2:Z O
*I vs_42_6:A I
*CAP
1 pgm_pn6_4_s2:1 6.099911e-03
*RES
1 lt_pn6_4_s2:Z pgm_pn6_4_s2:1 6.922070e+00
2 pgm_pn6_4_s2:1 vs_42_6:A 1.000000e-03
*END

*D_NET pgm_pn6_5_s1 1.890113e-02
*CONN
*I lt_pn6_5_s1:Z O
*I vs_31_6:A I
*I vs_19_6:A I
*CAP
1 pgm_pn6_5_s1:1 1.890113e-02
*RES
1 lt_pn6_5_s1:Z pgm_pn6_5_s1:1 2.144867e+01
2 pgm_pn6_5_s1:1 vs_31_6:A 1.000000e-03
3 pgm_pn6_5_s1:1 vs_19_6:A 1.000000e-03
*END

*D_NET pgm_pn6_5_s3 1.063559e-02
*CONN
*I lt_pn6_5_s3:Z O
*I vs_62_6:A I
*CAP
1 pgm_pn6_5_s3:1 1.063559e-02
*RES
1 lt_pn6_5_s3:Z pgm_pn6_5_s3:1 1.206908e+01
2 pgm_pn6_5_s3:1 vs_62_6:A 1.000000e-03
*END

*D_NET pgm_pn6_6_s0 2.070829e-03
*CONN
*I lt_pn6_6_s0:Z O
*I vs_9_6:A I
*CAP
1 pgm_pn6_6_s0:1 2.070829e-03
*RES
1 lt_pn6_6_s0:Z pgm_pn6_6_s0:1 2.349940e+00
2 pgm_pn6_6_s0:1 vs_9_6:A 1.000000e-03
*END

*D_NET pgm_pn6_6_s1 7.234572e-03
*CONN
*I lt_pn6_6_s1:Z O
*I vs_28_6:A I
*CAP
1 pgm_pn6_6_s1:1 7.234572e-03
*RES
1 lt_pn6_6_s1:Z pgm_pn6_6_s1:1 8.209662e+00
2 pgm_pn6_6_s1:1 vs_28_6:A 1.000000e-03
*END

*D_NET pgm_pn6_7_s2 5.732554e-03
*CONN
*I lt_pn6_7_s2:Z O
*I vs_43_6:A I
*I vs_39_6:A I
*CAP
1 pgm_pn6_7_s2:1 5.732554e-03
*RES
1 lt_pn6_7_s2:Z pgm_pn6_7_s2:1 6.505199e+00
2 pgm_pn6_7_s2:1 vs_43_6:A 1.000000e-03
3 pgm_pn6_7_s2:1 vs_39_6:A 1.000000e-03
*END

*D_NET pgm_pn6_7_s3 8.478847e-03
*CONN
*I lt_pn6_7_s3:Z O
*I vs_51_6:A I
*CAP
1 pgm_pn6_7_s3:1 8.478847e-03
*RES
1 lt_pn6_7_s3:Z pgm_pn6_7_s3:1 9.621643e+00
2 pgm_pn6_7_s3:1 vs_51_6:A 1.000000e-03
*END

*D_NET pgm_pn6_8_s0 8.976557e-04
*CONN
*I lt_pn6_8_s0:Z O
*I vs_10_6:A I
*CAP
1 pgm_pn6_8_s0:1 8.976557e-04
*RES
1 lt_pn6_8_s0:Z pgm_pn6_8_s0:1 1.018644e+00
2 pgm_pn6_8_s0:1 vs_10_6:A 1.000000e-03
*END

*D_NET pgm_pn6_8_s2 5.516287e-03
*CONN
*I lt_pn6_8_s2:Z O
*I vs_46_6:A I
*I vs_44_6:A I
*CAP
1 pgm_pn6_8_s2:1 5.516287e-03
*RES
1 lt_pn6_8_s2:Z pgm_pn6_8_s2:1 6.259783e+00
2 pgm_pn6_8_s2:1 vs_46_6:A 1.000000e-03
3 pgm_pn6_8_s2:1 vs_44_6:A 1.000000e-03
*END

*D_NET pgm_pn6_8_s3 1.998839e-02
*CONN
*I lt_pn6_8_s3:Z O
*I vs_63_6:A I
*I vs_48_6:A I
*CAP
1 pgm_pn6_8_s3:1 1.998839e-02
*RES
1 lt_pn6_8_s3:Z pgm_pn6_8_s3:1 2.268247e+01
2 pgm_pn6_8_s3:1 vs_63_6:A 1.000000e-03
3 pgm_pn6_8_s3:1 vs_48_6:A 1.000000e-03
*END

*D_NET pgm_pn6_9_s0 1.282492e-02
*CONN
*I lt_pn6_9_s0:Z O
*I vs_2_6:A I
*CAP
1 pgm_pn6_9_s0:1 1.282492e-02
*RES
1 lt_pn6_9_s0:Z pgm_pn6_9_s0:1 1.455349e+01
2 pgm_pn6_9_s0:1 vs_2_6:A 1.000000e-03
*END

*D_NET pgm_pn6_9_s1 9.061891e-03
*CONN
*I lt_pn6_9_s1:Z O
*I vs_21_6:A I
*CAP
1 pgm_pn6_9_s1:1 9.061891e-03
*RES
1 lt_pn6_9_s1:Z pgm_pn6_9_s1:1 9.143036e+00
2 pgm_pn6_9_s1:1 vs_21_6:A 1.000000e-03
*END

*D_NET pgm_pn6_9_s2 8.285631e-03
*CONN
*I lt_pn6_9_s2:Z O
*I vs_38_6:A I
*CAP
1 pgm_pn6_9_s2:1 8.285631e-03
*RES
1 lt_pn6_9_s2:Z pgm_pn6_9_s2:1 7.485914e+00
2 pgm_pn6_9_s2:1 vs_38_6:A 1.000000e-03
*END

*D_NET pgm_pn6_9_s3 1.033606e-02
*CONN
*I lt_pn6_9_s3:Z O
*I vs_52_6:A I
*CAP
1 pgm_pn6_9_s3:1 1.033606e-02
*RES
1 lt_pn6_9_s3:Z pgm_pn6_9_s3:1 1.097080e+01
2 pgm_pn6_9_s3:1 vs_52_6:A 1.000000e-03
*END

*D_NET pgm_pn7_0_s0 1.628121e-02
*CONN
*I lt_pn7_0_s0:Z O
*I vs_12_7:A I
*I vs_9_7:A I
*CAP
1 pgm_pn7_0_s0:1 1.628121e-02
*RES
1 lt_pn7_0_s0:Z pgm_pn7_0_s0:1 1.719141e+01
2 pgm_pn7_0_s0:1 vs_12_7:A 1.000000e-03
3 pgm_pn7_0_s0:1 vs_9_7:A 1.000000e-03
*END

*D_NET pgm_pn7_10_s3 2.384861e-03
*CONN
*I lt_pn7_10_s3:Z O
*I vs_61_7:A I
*I vs_60_7:A I
*CAP
1 pgm_pn7_10_s3:1 2.384861e-03
*RES
1 lt_pn7_10_s3:Z pgm_pn7_10_s3:1 2.706297e+00
2 pgm_pn7_10_s3:1 vs_61_7:A 1.000000e-03
3 pgm_pn7_10_s3:1 vs_60_7:A 1.000000e-03
*END

*D_NET pgm_pn7_11_s0 8.800743e-03
*CONN
*I lt_pn7_11_s0:Z O
*I vs_8_7:A I
*CAP
1 pgm_pn7_11_s0:1 8.800743e-03
*RES
1 lt_pn7_11_s0:Z pgm_pn7_11_s0:1 8.702710e+00
2 pgm_pn7_11_s0:1 vs_8_7:A 1.000000e-03
*END

*D_NET pgm_pn7_12_s0 1.362628e-02
*CONN
*I lt_pn7_12_s0:Z O
*I vs_7_7:A I
*CAP
1 pgm_pn7_12_s0:1 1.362628e-02
*RES
1 lt_pn7_12_s0:Z pgm_pn7_12_s0:1 1.364654e+01
2 pgm_pn7_12_s0:1 vs_7_7:A 1.000000e-03
*END

*D_NET pgm_pn7_12_s3 2.088605e-03
*CONN
*I lt_pn7_12_s3:Z O
*I vs_63_7:A I
*CAP
1 pgm_pn7_12_s3:1 2.088605e-03
*RES
1 lt_pn7_12_s3:Z pgm_pn7_12_s3:1 2.370111e+00
2 pgm_pn7_12_s3:1 vs_63_7:A 1.000000e-03
*END

*D_NET pgm_pn7_1_s0 3.282516e-03
*CONN
*I lt_pn7_1_s0:Z O
*I vs_1_7:A I
*CAP
1 pgm_pn7_1_s0:1 3.282516e-03
*RES
1 lt_pn7_1_s0:Z pgm_pn7_1_s0:1 3.724941e+00
2 pgm_pn7_1_s0:1 vs_1_7:A 1.000000e-03
*END

*D_NET pgm_pn7_1_s1 1.443788e-02
*CONN
*I lt_pn7_1_s1:Z O
*I vs_28_7:A I
*CAP
1 pgm_pn7_1_s1:1 1.443788e-02
*RES
1 lt_pn7_1_s1:Z pgm_pn7_1_s1:1 1.519353e+01
2 pgm_pn7_1_s1:1 vs_28_7:A 1.000000e-03
*END

*D_NET pgm_pn7_1_s2 1.244973e-02
*CONN
*I lt_pn7_1_s2:Z O
*I vs_42_7:A I
*I vs_41_7:A I
*CAP
1 pgm_pn7_1_s2:1 1.244973e-02
*RES
1 lt_pn7_1_s2:Z pgm_pn7_1_s2:1 1.255556e+01
2 pgm_pn7_1_s2:1 vs_42_7:A 1.000000e-03
3 pgm_pn7_1_s2:1 vs_41_7:A 1.000000e-03
*END

*D_NET pgm_pn7_2_s0 1.843018e-03
*CONN
*I lt_pn7_2_s0:Z O
*I vs_2_7:A I
*CAP
1 pgm_pn7_2_s0:1 1.843018e-03
*RES
1 lt_pn7_2_s0:Z pgm_pn7_2_s0:1 1.239147e+00
2 pgm_pn7_2_s0:1 vs_2_7:A 1.000000e-03
*END

*D_NET pgm_pn7_2_s2 1.999591e-03
*CONN
*I lt_pn7_2_s2:Z O
*I vs_35_7:A I
*CAP
1 pgm_pn7_2_s2:1 1.999591e-03
*RES
1 lt_pn7_2_s2:Z pgm_pn7_2_s2:1 1.272844e+00
2 pgm_pn7_2_s2:1 vs_35_7:A 1.000000e-03
*END

*D_NET pgm_pn7_3_s0 1.178210e-02
*CONN
*I lt_pn7_3_s0:Z O
*I vs_13_7:A I
*CAP
1 pgm_pn7_3_s0:1 1.178210e-02
*RES
1 lt_pn7_3_s0:Z pgm_pn7_3_s0:1 1.337012e+01
2 pgm_pn7_3_s0:1 vs_13_7:A 1.000000e-03
*END

*D_NET pgm_pn7_3_s2 1.089630e-02
*CONN
*I lt_pn7_3_s2:Z O
*I vs_44_7:A I
*CAP
1 pgm_pn7_3_s2:1 1.089630e-02
*RES
1 lt_pn7_3_s2:Z pgm_pn7_3_s2:1 1.236492e+01
2 pgm_pn7_3_s2:1 vs_44_7:A 1.000000e-03
*END

*D_NET pgm_pn7_4_s1 8.472922e-03
*CONN
*I lt_pn7_4_s1:Z O
*I vs_24_7:A I
*I vs_18_7:A I
*CAP
1 pgm_pn7_4_s1:1 8.472922e-03
*RES
1 lt_pn7_4_s1:Z pgm_pn7_4_s1:1 9.614920e+00
2 pgm_pn7_4_s1:1 vs_24_7:A 1.000000e-03
3 pgm_pn7_4_s1:1 vs_18_7:A 1.000000e-03
*END

*D_NET pgm_pn7_4_s3 5.335571e-03
*CONN
*I lt_pn7_4_s3:Z O
*I vs_57_7:A I
*CAP
1 pgm_pn7_4_s3:1 5.335571e-03
*RES
1 lt_pn7_4_s3:Z pgm_pn7_4_s3:1 6.054710e+00
2 pgm_pn7_4_s3:1 vs_57_7:A 1.000000e-03
*END

*D_NET pgm_pn7_5_s0 1.199541e-02
*CONN
*I lt_pn7_5_s0:Z O
*I vs_15_7:A I
*I vs_11_7:A I
*CAP
1 pgm_pn7_5_s0:1 1.199541e-02
*RES
1 lt_pn7_5_s0:Z pgm_pn7_5_s0:1 1.361217e+01
2 pgm_pn7_5_s0:1 vs_15_7:A 1.000000e-03
3 pgm_pn7_5_s0:1 vs_11_7:A 1.000000e-03
*END

*D_NET pgm_pn7_5_s1 1.231897e-02
*CONN
*I lt_pn7_5_s1:Z O
*I vs_31_7:A I
*CAP
1 pgm_pn7_5_s1:1 1.231897e-02
*RES
1 lt_pn7_5_s1:Z pgm_pn7_5_s1:1 1.210669e+01
2 pgm_pn7_5_s1:1 vs_31_7:A 1.000000e-03
*END

*D_NET pgm_pn7_5_s2 7.667105e-03
*CONN
*I lt_pn7_5_s2:Z O
*I vs_33_7:A I
*CAP
1 pgm_pn7_5_s2:1 7.667105e-03
*RES
1 lt_pn7_5_s2:Z pgm_pn7_5_s2:1 8.700494e+00
2 pgm_pn7_5_s2:1 vs_33_7:A 1.000000e-03
*END

*D_NET pgm_pn7_5_s3 7.554528e-04
*CONN
*I lt_pn7_5_s3:Z O
*I vs_54_7:A I
*CAP
1 pgm_pn7_5_s3:1 7.554528e-04
*RES
1 lt_pn7_5_s3:Z pgm_pn7_5_s3:1 8.572743e-01
2 pgm_pn7_5_s3:1 vs_54_7:A 1.000000e-03
*END

*D_NET pgm_pn7_6_s2 5.324469e-03
*CONN
*I lt_pn7_6_s2:Z O
*I vs_37_7:A I
*CAP
1 pgm_pn7_6_s2:1 5.324469e-03
*RES
1 lt_pn7_6_s2:Z pgm_pn7_6_s2:1 5.333815e+00
2 pgm_pn7_6_s2:1 vs_37_7:A 1.000000e-03
*END

*D_NET pgm_pn7_7_s2 2.325224e-02
*CONN
*I lt_pn7_7_s2:Z O
*I vs_47_7:A I
*I vs_32_7:A I
*CAP
1 pgm_pn7_7_s2:1 2.325224e-02
*RES
1 lt_pn7_7_s2:Z pgm_pn7_7_s2:1 2.285376e+01
2 pgm_pn7_7_s2:1 vs_47_7:A 1.000000e-03
3 pgm_pn7_7_s2:1 vs_32_7:A 1.000000e-03
*END

*D_NET pgm_pn7_7_s3 7.989070e-03
*CONN
*I lt_pn7_7_s3:Z O
*I vs_56_7:A I
*I vs_51_7:A I
*CAP
1 pgm_pn7_7_s3:1 7.989070e-03
*RES
1 lt_pn7_7_s3:Z pgm_pn7_7_s3:1 8.013257e+00
2 pgm_pn7_7_s3:1 vs_56_7:A 1.000000e-03
3 pgm_pn7_7_s3:1 vs_51_7:A 1.000000e-03
*END

*D_NET pgm_pn7_8_s0 7.991521e-03
*CONN
*I lt_pn7_8_s0:Z O
*I vs_6_7:A I
*CAP
1 pgm_pn7_8_s0:1 7.991521e-03
*RES
1 lt_pn7_8_s0:Z pgm_pn7_8_s0:1 7.640441e+00
2 pgm_pn7_8_s0:1 vs_6_7:A 1.000000e-03
*END

*D_NET pgm_pn7_8_s1 6.822776e-03
*CONN
*I lt_pn7_8_s1:Z O
*I vs_22_7:A I
*CAP
1 pgm_pn7_8_s1:1 6.822776e-03
*RES
1 lt_pn7_8_s1:Z pgm_pn7_8_s1:1 7.742364e+00
2 pgm_pn7_8_s1:1 vs_22_7:A 1.000000e-03
*END

*D_NET pgm_pn7_9_s1 9.154310e-03
*CONN
*I lt_pn7_9_s1:Z O
*I vs_21_7:A I
*CAP
1 pgm_pn7_9_s1:1 9.154310e-03
*RES
1 lt_pn7_9_s1:Z pgm_pn7_9_s1:1 1.038815e+01
2 pgm_pn7_9_s1:1 vs_21_7:A 1.000000e-03
*END

*D_NET pgm_pn7_9_s3 6.493932e-03
*CONN
*I lt_pn7_9_s3:Z O
*I vs_55_7:A I
*CAP
1 pgm_pn7_9_s3:1 6.493932e-03
*RES
1 lt_pn7_9_s3:Z pgm_pn7_9_s3:1 7.369197e+00
2 pgm_pn7_9_s3:1 vs_55_7:A 1.000000e-03
*END

*D_NET pgm_pn8_0_s0 7.821158e-03
*CONN
*I lt_pn8_0_s0:Z O
*I vs_5_8:A I
*CAP
1 pgm_pn8_0_s0:1 7.821158e-03
*RES
1 lt_pn8_0_s0:Z pgm_pn8_0_s0:1 8.875310e+00
2 pgm_pn8_0_s0:1 vs_5_8:A 1.000000e-03
*END

*D_NET pgm_pn8_0_s2 1.617323e-02
*CONN
*I lt_pn8_0_s2:Z O
*I vs_43_8:A I
*I vs_34_8:A I
*CAP
1 pgm_pn8_0_s2:1 1.617323e-02
*RES
1 lt_pn8_0_s2:Z pgm_pn8_0_s2:1 1.663693e+01
2 pgm_pn8_0_s2:1 vs_43_8:A 1.000000e-03
3 pgm_pn8_0_s2:1 vs_34_8:A 1.000000e-03
*END

*D_NET pgm_pn8_10_s0 1.946402e-03
*CONN
*I lt_pn8_10_s0:Z O
*I vs_12_8:A I
*CAP
1 pgm_pn8_10_s0:1 1.946402e-03
*RES
1 lt_pn8_10_s0:Z pgm_pn8_10_s0:1 2.208742e+00
2 pgm_pn8_10_s0:1 vs_12_8:A 1.000000e-03
*END

*D_NET pgm_pn8_11_s2 1.647480e-02
*CONN
*I lt_pn8_11_s2:Z O
*I vs_42_8:A I
*I vs_37_8:A I
*I vs_35_8:A I
*CAP
1 pgm_pn8_11_s2:1 1.647480e-02
*RES
1 lt_pn8_11_s2:Z pgm_pn8_11_s2:1 1.869530e+01
2 pgm_pn8_11_s2:1 vs_42_8:A 1.000000e-03
3 pgm_pn8_11_s2:1 vs_37_8:A 1.000000e-03
4 pgm_pn8_11_s2:1 vs_35_8:A 1.000000e-03
*END

*D_NET pgm_pn8_12_s0 1.584986e-02
*CONN
*I lt_pn8_12_s0:Z O
*I vs_4_8:A I
*CAP
1 pgm_pn8_12_s0:1 1.584986e-02
*RES
1 lt_pn8_12_s0:Z pgm_pn8_12_s0:1 1.612601e+01
2 pgm_pn8_12_s0:1 vs_4_8:A 1.000000e-03
*END

*D_NET pgm_pn8_1_s0 1.734283e-02
*CONN
*I lt_pn8_1_s0:Z O
*I vs_15_8:A I
*CAP
1 pgm_pn8_1_s0:1 1.734283e-02
*RES
1 lt_pn8_1_s0:Z pgm_pn8_1_s0:1 1.968033e+01
2 pgm_pn8_1_s0:1 vs_15_8:A 1.000000e-03
*END

*D_NET pgm_pn8_1_s2 1.796793e-02
*CONN
*I lt_pn8_1_s2:Z O
*I vs_47_8:A I
*I vs_45_8:A I
*CAP
1 pgm_pn8_1_s2:1 1.796793e-02
*RES
1 lt_pn8_1_s2:Z pgm_pn8_1_s2:1 2.038968e+01
2 pgm_pn8_1_s2:1 vs_47_8:A 1.000000e-03
3 pgm_pn8_1_s2:1 vs_45_8:A 1.000000e-03
*END

*D_NET pgm_pn8_2_s1 3.421757e-03
*CONN
*I lt_pn8_2_s1:Z O
*I vs_17_8:A I
*CAP
1 pgm_pn8_2_s1:1 3.421757e-03
*RES
1 lt_pn8_2_s1:Z pgm_pn8_2_s1:1 3.882948e+00
2 pgm_pn8_2_s1:1 vs_17_8:A 1.000000e-03
*END

*D_NET pgm_pn8_2_s2 1.223537e-02
*CONN
*I lt_pn8_2_s2:Z O
*I vs_44_8:A I
*CAP
1 pgm_pn8_2_s2:1 1.223537e-02
*RES
1 lt_pn8_2_s2:Z pgm_pn8_2_s2:1 1.388448e+01
2 pgm_pn8_2_s2:1 vs_44_8:A 1.000000e-03
*END

*D_NET pgm_pn8_2_s3 2.112305e-03
*CONN
*I lt_pn8_2_s3:Z O
*I vs_50_8:A I
*CAP
1 pgm_pn8_2_s3:1 2.112305e-03
*RES
1 lt_pn8_2_s3:Z pgm_pn8_2_s3:1 2.397006e+00
2 pgm_pn8_2_s3:1 vs_50_8:A 1.000000e-03
*END

*D_NET pgm_pn8_3_s0 1.958252e-03
*CONN
*I lt_pn8_3_s0:Z O
*I vs_3_8:A I
*CAP
1 pgm_pn8_3_s0:1 1.958252e-03
*RES
1 lt_pn8_3_s0:Z pgm_pn8_3_s0:1 2.222189e+00
2 pgm_pn8_3_s0:1 vs_3_8:A 1.000000e-03
*END

*D_NET pgm_pn8_4_s3 1.164286e-03
*CONN
*I lt_pn8_4_s3:Z O
*I vs_54_8:A I
*CAP
1 pgm_pn8_4_s3:1 1.164286e-03
*RES
1 lt_pn8_4_s3:Z pgm_pn8_4_s3:1 1.321211e+00
2 pgm_pn8_4_s3:1 vs_54_8:A 1.000000e-03
*END

*D_NET pgm_pn8_5_s0 8.348494e-03
*CONN
*I lt_pn8_5_s0:Z O
*I vs_1_8:A I
*CAP
1 pgm_pn8_5_s0:1 8.348494e-03
*RES
1 lt_pn8_5_s0:Z pgm_pn8_5_s0:1 9.473721e+00
2 pgm_pn8_5_s0:1 vs_1_8:A 1.000000e-03
*END

*D_NET pgm_pn8_5_s1 4.650265e-03
*CONN
*I lt_pn8_5_s1:Z O
*I vs_24_8:A I
*I vs_21_8:A I
*CAP
1 pgm_pn8_5_s1:1 4.650265e-03
*RES
1 lt_pn8_5_s1:Z pgm_pn8_5_s1:1 4.224441e+00
2 pgm_pn8_5_s1:1 vs_24_8:A 1.000000e-03
3 pgm_pn8_5_s1:1 vs_21_8:A 1.000000e-03
*END

*D_NET pgm_pn8_6_s0 1.090222e-02
*CONN
*I lt_pn8_6_s0:Z O
*I vs_0_8:A I
*CAP
1 pgm_pn8_6_s0:1 1.090222e-02
*RES
1 lt_pn8_6_s0:Z pgm_pn8_6_s0:1 1.237164e+01
2 pgm_pn8_6_s0:1 vs_0_8:A 1.000000e-03
*END

*D_NET pgm_pn8_6_s1 7.083481e-03
*CONN
*I lt_pn8_6_s1:Z O
*I vs_20_8:A I
*I vs_19_8:A I
*CAP
1 pgm_pn8_6_s1:1 7.083481e-03
*RES
1 lt_pn8_6_s1:Z pgm_pn8_6_s1:1 8.038207e+00
2 pgm_pn8_6_s1:1 vs_20_8:A 1.000000e-03
3 pgm_pn8_6_s1:1 vs_19_8:A 1.000000e-03
*END

*D_NET pgm_pn8_7_s3 5.747366e-04
*CONN
*I lt_pn8_7_s3:Z O
*I vs_57_8:A I
*CAP
1 pgm_pn8_7_s3:1 5.747366e-04
*RES
1 lt_pn8_7_s3:Z pgm_pn8_7_s3:1 6.522008e-01
2 pgm_pn8_7_s3:1 vs_57_8:A 1.000000e-03
*END

*D_NET pgm_pn8_8_s3 8.268505e-03
*CONN
*I lt_pn8_8_s3:Z O
*I vs_53_8:A I
*CAP
1 pgm_pn8_8_s3:1 8.268505e-03
*RES
1 lt_pn8_8_s3:Z pgm_pn8_8_s3:1 9.382951e+00
2 pgm_pn8_8_s3:1 vs_53_8:A 1.000000e-03
*END

*D_NET pgm_pn8_9_s3 1.748758e-02
*CONN
*I lt_pn8_9_s3:Z O
*I vs_48_8:A I
*CAP
1 pgm_pn8_9_s3:1 1.748758e-02
*RES
1 lt_pn8_9_s3:Z pgm_pn8_9_s3:1 1.684422e+01
2 pgm_pn8_9_s3:1 vs_48_8:A 1.000000e-03
*END

*D_NET pgm_pn9_0_s1 1.264955e-02
*CONN
*I lt_pn9_0_s1:Z O
*I vs_25_9:A I
*CAP
1 pgm_pn9_0_s1:1 1.264955e-02
*RES
1 lt_pn9_0_s1:Z pgm_pn9_0_s1:1 1.321425e+01
2 pgm_pn9_0_s1:1 vs_25_9:A 1.000000e-03
*END

*D_NET pgm_pn9_0_s2 2.321778e-02
*CONN
*I lt_pn9_0_s2:Z O
*I vs_47_9:A I
*CAP
1 pgm_pn9_0_s2:1 2.321778e-02
*RES
1 lt_pn9_0_s2:Z pgm_pn9_0_s2:1 2.161900e+01
2 pgm_pn9_0_s2:1 vs_47_9:A 1.000000e-03
*END

*D_NET pgm_pn9_10_s0 3.104763e-03
*CONN
*I lt_pn9_10_s0:Z O
*I vs_11_9:A I
*CAP
1 pgm_pn9_10_s0:1 3.104763e-03
*RES
1 lt_pn9_10_s0:Z pgm_pn9_10_s0:1 3.523229e+00
2 pgm_pn9_10_s0:1 vs_11_9:A 1.000000e-03
*END

*D_NET pgm_pn9_10_s1 2.244496e-02
*CONN
*I lt_pn9_10_s1:Z O
*I vs_16_9:A I
*CAP
1 pgm_pn9_10_s1:1 2.244496e-02
*RES
1 lt_pn9_10_s1:Z pgm_pn9_10_s1:1 2.049788e+01
2 pgm_pn9_10_s1:1 vs_16_9:A 1.000000e-03
*END

*D_NET pgm_pn9_11_s1 1.208163e-02
*CONN
*I lt_pn9_11_s1:Z O
*I vs_27_9:A I
*I vs_24_9:A I
*CAP
1 pgm_pn9_11_s1:1 1.208163e-02
*RES
1 lt_pn9_11_s1:Z pgm_pn9_11_s1:1 1.285774e+01
2 pgm_pn9_11_s1:1 vs_27_9:A 1.000000e-03
3 pgm_pn9_11_s1:1 vs_24_9:A 1.000000e-03
*END

*D_NET pgm_pn9_12_s0 2.011874e-02
*CONN
*I lt_pn9_12_s0:Z O
*I vs_0_9:A I
*CAP
1 pgm_pn9_12_s0:1 2.011874e-02
*RES
1 lt_pn9_12_s0:Z pgm_pn9_12_s0:1 2.283039e+01
2 pgm_pn9_12_s0:1 vs_0_9:A 1.000000e-03
*END

*D_NET pgm_pn9_1_s0 1.715322e-03
*CONN
*I lt_pn9_1_s0:Z O
*I vs_2_9:A I
*CAP
1 pgm_pn9_1_s0:1 1.715322e-03
*RES
1 lt_pn9_1_s0:Z pgm_pn9_1_s0:1 1.946517e+00
2 pgm_pn9_1_s0:1 vs_2_9:A 1.000000e-03
*END

*D_NET pgm_pn9_2_s0 6.485689e-03
*CONN
*I lt_pn9_2_s0:Z O
*I vs_7_9:A I
*CAP
1 pgm_pn9_2_s0:1 6.485689e-03
*RES
1 lt_pn9_2_s0:Z pgm_pn9_2_s0:1 5.487191e+00
2 pgm_pn9_2_s0:1 vs_7_9:A 1.000000e-03
*END

*D_NET pgm_pn9_2_s1 1.203572e-02
*CONN
*I lt_pn9_2_s1:Z O
*I vs_26_9:A I
*CAP
1 pgm_pn9_2_s1:1 1.203572e-02
*RES
1 lt_pn9_2_s1:Z pgm_pn9_2_s1:1 1.137745e+01
2 pgm_pn9_2_s1:1 vs_26_9:A 1.000000e-03
*END

*D_NET pgm_pn9_3_s2 3.501746e-03
*CONN
*I lt_pn9_3_s2:Z O
*I vs_34_9:A I
*CAP
1 pgm_pn9_3_s2:1 3.501746e-03
*RES
1 lt_pn9_3_s2:Z pgm_pn9_3_s2:1 3.973719e+00
2 pgm_pn9_3_s2:1 vs_34_9:A 1.000000e-03
*END

*D_NET pgm_pn9_3_s3 1.518312e-02
*CONN
*I lt_pn9_3_s3:Z O
*I vs_63_9:A I
*I vs_62_9:A I
*I vs_52_9:A I
*CAP
1 pgm_pn9_3_s3:1 1.518312e-02
*RES
1 lt_pn9_3_s3:Z pgm_pn9_3_s3:1 1.722953e+01
2 pgm_pn9_3_s3:1 vs_63_9:A 1.000000e-03
3 pgm_pn9_3_s3:1 vs_62_9:A 1.000000e-03
4 pgm_pn9_3_s3:1 vs_52_9:A 1.000000e-03
*END

*D_NET pgm_pn9_4_s1 2.695930e-03
*CONN
*I lt_pn9_4_s1:Z O
*I vs_20_9:A I
*CAP
1 pgm_pn9_4_s1:1 2.695930e-03
*RES
1 lt_pn9_4_s1:Z pgm_pn9_4_s1:1 3.059293e+00
2 pgm_pn9_4_s1:1 vs_20_9:A 1.000000e-03
*END

*D_NET pgm_pn9_4_s3 3.854291e-03
*CONN
*I lt_pn9_4_s3:Z O
*I vs_56_9:A I
*CAP
1 pgm_pn9_4_s3:1 3.854291e-03
*RES
1 lt_pn9_4_s3:Z pgm_pn9_4_s3:1 4.373780e+00
2 pgm_pn9_4_s3:1 vs_56_9:A 1.000000e-03
*END

*D_NET pgm_pn9_5_s1 7.803383e-03
*CONN
*I lt_pn9_5_s1:Z O
*I vs_28_9:A I
*CAP
1 pgm_pn9_5_s1:1 7.803383e-03
*RES
1 lt_pn9_5_s1:Z pgm_pn9_5_s1:1 8.855139e+00
2 pgm_pn9_5_s1:1 vs_28_9:A 1.000000e-03
*END

*D_NET pgm_pn9_6_s2 1.178789e-02
*CONN
*I lt_pn9_6_s2:Z O
*I vs_32_9:A I
*CAP
1 pgm_pn9_6_s2:1 1.178789e-02
*RES
1 lt_pn9_6_s2:Z pgm_pn9_6_s2:1 1.238043e+01
2 pgm_pn9_6_s2:1 vs_32_9:A 1.000000e-03
*END

*D_NET pgm_pn9_7_s0 4.479391e-03
*CONN
*I lt_pn9_7_s0:Z O
*I vs_12_9:A I
*CAP
1 pgm_pn9_7_s0:1 4.479391e-03
*RES
1 lt_pn9_7_s0:Z pgm_pn9_7_s0:1 5.083132e+00
2 pgm_pn9_7_s0:1 vs_12_9:A 1.000000e-03
*END

*D_NET pgm_pn9_7_s2 9.860011e-03
*CONN
*I lt_pn9_7_s2:Z O
*I vs_46_9:A I
*CAP
1 pgm_pn9_7_s2:1 9.860011e-03
*RES
1 lt_pn9_7_s2:Z pgm_pn9_7_s2:1 9.472810e+00
2 pgm_pn9_7_s2:1 vs_46_9:A 1.000000e-03
*END

*D_NET pgm_pn9_7_s3 1.161637e-02
*CONN
*I lt_pn9_7_s3:Z O
*I vs_50_9:A I
*CAP
1 pgm_pn9_7_s3:1 1.161637e-02
*RES
1 lt_pn9_7_s3:Z pgm_pn9_7_s3:1 1.132191e+01
2 pgm_pn9_7_s3:1 vs_50_9:A 1.000000e-03
*END

*D_NET pgm_pn9_8_s1 1.441765e-02
*CONN
*I lt_pn9_8_s1:Z O
*I vs_17_9:A I
*CAP
1 pgm_pn9_8_s1:1 1.441765e-02
*RES
1 lt_pn9_8_s1:Z pgm_pn9_8_s1:1 1.391232e+01
2 pgm_pn9_8_s1:1 vs_17_9:A 1.000000e-03
*END

*D_NET pgm_pn9_8_s2 9.732010e-03
*CONN
*I lt_pn9_8_s2:Z O
*I vs_35_9:A I
*CAP
1 pgm_pn9_8_s2:1 9.732010e-03
*RES
1 lt_pn9_8_s2:Z pgm_pn9_8_s2:1 1.104371e+01
2 pgm_pn9_8_s2:1 vs_35_9:A 1.000000e-03
*END

*D_NET pgm_pn9_9_s0 1.003419e-02
*CONN
*I lt_pn9_9_s0:Z O
*I vs_4_9:A I
*CAP
1 pgm_pn9_9_s0:1 1.003419e-02
*RES
1 lt_pn9_9_s0:Z pgm_pn9_9_s0:1 1.138662e+01
2 pgm_pn9_9_s0:1 vs_4_9:A 1.000000e-03
*END

*D_NET pgm_pn9_9_s3 1.573119e-03
*CONN
*I lt_pn9_9_s3:Z O
*I vs_59_9:A I
*CAP
1 pgm_pn9_9_s3:1 1.573119e-03
*RES
1 lt_pn9_9_s3:Z pgm_pn9_9_s3:1 1.785148e+00
2 pgm_pn9_9_s3:1 vs_59_9:A 1.000000e-03
*END

*D_NET pgm_pp0_0_s0 1.065337e-02
*CONN
*I lt_pp0_0_s0:Z O
*I vs_6_0:A I
*I vs_0_0:A I
*CAP
1 pgm_pp0_0_s0:1 1.065337e-02
*RES
1 lt_pp0_0_s0:Z pgm_pp0_0_s0:1 1.208925e+01
2 pgm_pp0_0_s0:1 vs_6_0:A 1.000000e-03
3 pgm_pp0_0_s0:1 vs_0_0:A 1.000000e-03
*END

*D_NET pgm_pp0_0_s1 1.814851e-02
*CONN
*I lt_pp0_0_s1:Z O
*I vs_27_0:A I
*I vs_23_0:A I
*I vs_17_0:A I
*CAP
1 pgm_pp0_0_s1:1 1.814851e-02
*RES
1 lt_pp0_0_s1:Z pgm_pp0_0_s1:1 1.959834e+01
2 pgm_pp0_0_s1:1 vs_27_0:A 1.000000e-03
3 pgm_pp0_0_s1:1 vs_23_0:A 1.000000e-03
4 pgm_pp0_0_s1:1 vs_17_0:A 1.000000e-03
*END

*D_NET pgm_pp0_11_s3 8.781028e-03
*CONN
*I lt_pp0_11_s3:Z O
*I vs_55_0:A I
*CAP
1 pgm_pp0_11_s3:1 8.781028e-03
*RES
1 lt_pp0_11_s3:Z pgm_pp0_11_s3:1 9.964553e+00
2 pgm_pp0_11_s3:1 vs_55_0:A 1.000000e-03
*END

*D_NET pgm_pp0_1_s1 2.571502e-03
*CONN
*I lt_pp0_1_s1:Z O
*I vs_18_0:A I
*CAP
1 pgm_pp0_1_s1:1 2.571502e-03
*RES
1 lt_pp0_1_s1:Z pgm_pp0_1_s1:1 2.918094e+00
2 pgm_pp0_1_s1:1 vs_18_0:A 1.000000e-03
*END

*D_NET pgm_pp0_2_s0 1.707620e-02
*CONN
*I lt_pp0_2_s0:Z O
*I vs_15_0:A I
*CAP
1 pgm_pp0_2_s0:1 1.707620e-02
*RES
1 lt_pp0_2_s0:Z pgm_pp0_2_s0:1 1.937776e+01
2 pgm_pp0_2_s0:1 vs_15_0:A 1.000000e-03
*END

*D_NET pgm_pp0_2_s1 1.465875e-02
*CONN
*I lt_pp0_2_s1:Z O
*I vs_29_0:A I
*CAP
1 pgm_pp0_2_s1:1 1.465875e-02
*RES
1 lt_pp0_2_s1:Z pgm_pp0_2_s1:1 1.663448e+01
2 pgm_pp0_2_s1:1 vs_29_0:A 1.000000e-03
*END

*D_NET pgm_pp0_2_s3 3.719475e-03
*CONN
*I lt_pp0_2_s3:Z O
*I vs_52_0:A I
*CAP
1 pgm_pp0_2_s3:1 3.719475e-03
*RES
1 lt_pp0_2_s3:Z pgm_pp0_2_s3:1 2.404481e+00
2 pgm_pp0_2_s3:1 vs_52_0:A 1.000000e-03
*END

*D_NET pgm_pp0_3_s1 1.183839e-02
*CONN
*I lt_pp0_3_s1:Z O
*I vs_28_0:A I
*CAP
1 pgm_pp0_3_s1:1 1.183839e-02
*RES
1 lt_pp0_3_s1:Z pgm_pp0_3_s1:1 1.343399e+01
2 pgm_pp0_3_s1:1 vs_28_0:A 1.000000e-03
*END

*D_NET pgm_pp0_3_s3 4.907939e-03
*CONN
*I lt_pp0_3_s3:Z O
*I vs_54_0:A I
*CAP
1 pgm_pp0_3_s3:1 4.907939e-03
*RES
1 lt_pp0_3_s3:Z pgm_pp0_3_s3:1 4.285226e+00
2 pgm_pp0_3_s3:1 vs_54_0:A 1.000000e-03
*END

*D_NET pgm_pp0_4_s0 8.081864e-03
*CONN
*I lt_pp0_4_s0:Z O
*I vs_10_0:A I
*CAP
1 pgm_pp0_4_s0:1 8.081864e-03
*RES
1 lt_pp0_4_s0:Z pgm_pp0_4_s0:1 9.171154e+00
2 pgm_pp0_4_s0:1 vs_10_0:A 1.000000e-03
*END

*D_NET pgm_pp0_4_s2 2.120897e-02
*CONN
*I lt_pp0_4_s2:Z O
*I vs_47_0:A I
*I vs_32_0:A I
*CAP
1 pgm_pp0_4_s2:1 2.120897e-02
*RES
1 lt_pp0_4_s2:Z pgm_pp0_4_s2:1 2.406756e+01
2 pgm_pp0_4_s2:1 vs_47_0:A 1.000000e-03
3 pgm_pp0_4_s2:1 vs_32_0:A 1.000000e-03
*END

*D_NET pgm_pp0_5_s0 5.039315e-03
*CONN
*I lt_pp0_5_s0:Z O
*I vs_9_0:A I
*CAP
1 pgm_pp0_5_s0:1 5.039315e-03
*RES
1 lt_pp0_5_s0:Z pgm_pp0_5_s0:1 5.718524e+00
2 pgm_pp0_5_s0:1 vs_9_0:A 1.000000e-03
*END

*D_NET pgm_pp0_5_s1 3.048474e-03
*CONN
*I lt_pp0_5_s1:Z O
*I vs_20_0:A I
*CAP
1 pgm_pp0_5_s1:1 3.048474e-03
*RES
1 lt_pp0_5_s1:Z pgm_pp0_5_s1:1 3.459354e+00
2 pgm_pp0_5_s1:1 vs_20_0:A 1.000000e-03
*END

*D_NET pgm_pp0_5_s2 1.430916e-03
*CONN
*I lt_pp0_5_s2:Z O
*I vs_37_0:A I
*CAP
1 pgm_pp0_5_s2:1 1.430916e-03
*RES
1 lt_pp0_5_s2:Z pgm_pp0_5_s2:1 1.623778e+00
2 pgm_pp0_5_s2:1 vs_37_0:A 1.000000e-03
*END

*D_NET pgm_pp0_5_s3 1.816642e-02
*CONN
*I lt_pp0_5_s3:Z O
*I vs_62_0:A I
*I vs_50_0:A I
*CAP
1 pgm_pp0_5_s3:1 1.816642e-02
*RES
1 lt_pp0_5_s3:Z pgm_pp0_5_s3:1 2.061493e+01
2 pgm_pp0_5_s3:1 vs_62_0:A 1.000000e-03
3 pgm_pp0_5_s3:1 vs_50_0:A 1.000000e-03
*END

*D_NET pgm_pp0_6_s0 1.345002e-03
*CONN
*I lt_pp0_6_s0:Z O
*I vs_8_0:A I
*CAP
1 pgm_pp0_6_s0:1 1.345002e-03
*RES
1 lt_pp0_6_s0:Z pgm_pp0_6_s0:1 1.526284e+00
2 pgm_pp0_6_s0:1 vs_8_0:A 1.000000e-03
*END

*D_NET pgm_pp0_6_s2 1.210015e-02
*CONN
*I lt_pp0_6_s2:Z O
*I vs_33_0:A I
*CAP
1 pgm_pp0_6_s2:1 1.210015e-02
*RES
1 lt_pp0_6_s2:Z pgm_pp0_6_s2:1 1.215886e+01
2 pgm_pp0_6_s2:1 vs_33_0:A 1.000000e-03
*END

*D_NET pgm_pp0_7_s3 9.779411e-03
*CONN
*I lt_pp0_7_s3:Z O
*I vs_63_0:A I
*CAP
1 pgm_pp0_7_s3:1 9.779411e-03
*RES
1 lt_pp0_7_s3:Z pgm_pp0_7_s3:1 1.109750e+01
2 pgm_pp0_7_s3:1 vs_63_0:A 1.000000e-03
*END

*D_NET pgm_pp0_8_s0 1.170211e-02
*CONN
*I lt_pp0_8_s0:Z O
*I vs_1_0:A I
*CAP
1 pgm_pp0_8_s0:1 1.170211e-02
*RES
1 lt_pp0_8_s0:Z pgm_pp0_8_s0:1 1.327935e+01
2 pgm_pp0_8_s0:1 vs_1_0:A 1.000000e-03
*END

*D_NET pgm_pp0_8_s1 1.265013e-03
*CONN
*I lt_pp0_8_s1:Z O
*I vs_25_0:A I
*CAP
1 pgm_pp0_8_s1:1 1.265013e-03
*RES
1 lt_pp0_8_s1:Z pgm_pp0_8_s1:1 1.435514e+00
2 pgm_pp0_8_s1:1 vs_25_0:A 1.000000e-03
*END

*D_NET pgm_pp0_8_s3 1.985613e-02
*CONN
*I lt_pp0_8_s3:Z O
*I vs_61_0:A I
*I vs_58_0:A I
*I vs_48_0:A I
*CAP
1 pgm_pp0_8_s3:1 1.985613e-02
*RES
1 lt_pp0_8_s3:Z pgm_pp0_8_s3:1 2.096021e+01
2 pgm_pp0_8_s3:1 vs_61_0:A 1.000000e-03
3 pgm_pp0_8_s3:1 vs_58_0:A 1.000000e-03
4 pgm_pp0_8_s3:1 vs_48_0:A 1.000000e-03
*END

*D_NET pgm_pp0_9_s0 1.839750e-03
*CONN
*I lt_pp0_9_s0:Z O
*I vs_12_0:A I
*CAP
1 pgm_pp0_9_s0:1 1.839750e-03
*RES
1 lt_pp0_9_s0:Z pgm_pp0_9_s0:1 2.087715e+00
2 pgm_pp0_9_s0:1 vs_12_0:A 1.000000e-03
*END

*D_NET pgm_pp0_9_s1 7.917014e-03
*CONN
*I lt_pp0_9_s1:Z O
*I vs_22_0:A I
*CAP
1 pgm_pp0_9_s1:1 7.917014e-03
*RES
1 lt_pp0_9_s1:Z pgm_pp0_9_s1:1 7.411912e+00
2 pgm_pp0_9_s1:1 vs_22_0:A 1.000000e-03
*END

*D_NET pgm_pp0_9_s2 2.293021e-03
*CONN
*I lt_pp0_9_s2:Z O
*I vs_44_0:A I
*CAP
1 pgm_pp0_9_s2:1 2.293021e-03
*RES
1 lt_pp0_9_s2:Z pgm_pp0_9_s2:1 2.602080e+00
2 pgm_pp0_9_s2:1 vs_44_0:A 1.000000e-03
*END

*D_NET pgm_pp0_9_s3 1.625036e-02
*CONN
*I lt_pp0_9_s3:Z O
*I vs_59_0:A I
*I vs_56_0:A I
*I vs_49_0:A I
*CAP
1 pgm_pp0_9_s3:1 1.625036e-02
*RES
1 lt_pp0_9_s3:Z pgm_pp0_9_s3:1 1.734420e+01
2 pgm_pp0_9_s3:1 vs_59_0:A 1.000000e-03
3 pgm_pp0_9_s3:1 vs_56_0:A 1.000000e-03
4 pgm_pp0_9_s3:1 vs_49_0:A 1.000000e-03
*END

*D_NET pgm_pp10_0_s1 8.425689e-03
*CONN
*I lt_pp10_0_s1:Z O
*I vs_21_10:A I
*CAP
1 pgm_pp10_0_s1:1 8.425689e-03
*RES
1 lt_pp10_0_s1:Z pgm_pp10_0_s1:1 7.701188e+00
2 pgm_pp10_0_s1:1 vs_21_10:A 1.000000e-03
*END

*D_NET pgm_pp10_0_s3 5.800692e-03
*CONN
*I lt_pp10_0_s3:Z O
*I vs_51_10:A I
*CAP
1 pgm_pp10_0_s3:1 5.800692e-03
*RES
1 lt_pp10_0_s3:Z pgm_pp10_0_s3:1 6.582522e+00
2 pgm_pp10_0_s3:1 vs_51_10:A 1.000000e-03
*END

*D_NET pgm_pp10_11_s0 1.775166e-02
*CONN
*I lt_pp10_11_s0:Z O
*I vs_0_10:A I
*CAP
1 pgm_pp10_11_s0:1 1.775166e-02
*RES
1 lt_pp10_11_s0:Z pgm_pp10_11_s0:1 2.014427e+01
2 pgm_pp10_11_s0:1 vs_0_10:A 1.000000e-03
*END

*D_NET pgm_pp10_11_s1 1.774573e-02
*CONN
*I lt_pp10_11_s1:Z O
*I vs_16_10:A I
*CAP
1 pgm_pp10_11_s1:1 1.774573e-02
*RES
1 lt_pp10_11_s1:Z pgm_pp10_11_s1:1 2.013754e+01
2 pgm_pp10_11_s1:1 vs_16_10:A 1.000000e-03
*END

*D_NET pgm_pp10_12_s2 4.579980e-03
*CONN
*I lt_pp10_12_s2:Z O
*I vs_44_10:A I
*CAP
1 pgm_pp10_12_s2:1 4.579980e-03
*RES
1 lt_pp10_12_s2:Z pgm_pp10_12_s2:1 4.201024e+00
2 pgm_pp10_12_s2:1 vs_44_10:A 1.000000e-03
*END

*D_NET pgm_pp10_1_s1 1.419362e-02
*CONN
*I lt_pp10_1_s1:Z O
*I vs_26_10:A I
*I vs_18_10:A I
*I vs_17_10:A I
*CAP
1 pgm_pp10_1_s1:1 1.419362e-02
*RES
1 lt_pp10_1_s1:Z pgm_pp10_1_s1:1 1.610667e+01
2 pgm_pp10_1_s1:1 vs_26_10:A 1.000000e-03
3 pgm_pp10_1_s1:1 vs_18_10:A 1.000000e-03
4 pgm_pp10_1_s1:1 vs_17_10:A 1.000000e-03
*END

*D_NET pgm_pp10_1_s2 1.544059e-02
*CONN
*I lt_pp10_1_s2:Z O
*I vs_42_10:A I
*I vs_36_10:A I
*CAP
1 pgm_pp10_1_s2:1 1.544059e-02
*RES
1 lt_pp10_1_s2:Z pgm_pp10_1_s2:1 1.551759e+01
2 pgm_pp10_1_s2:1 vs_42_10:A 1.000000e-03
3 pgm_pp10_1_s2:1 vs_36_10:A 1.000000e-03
*END

*D_NET pgm_pp10_1_s3 1.823456e-02
*CONN
*I lt_pp10_1_s3:Z O
*I vs_63_10:A I
*CAP
1 pgm_pp10_1_s3:1 1.823456e-02
*RES
1 lt_pp10_1_s3:Z pgm_pp10_1_s3:1 2.069225e+01
2 pgm_pp10_1_s3:1 vs_63_10:A 1.000000e-03
*END

*D_NET pgm_pp10_2_s0 1.887287e-02
*CONN
*I lt_pp10_2_s0:Z O
*I vs_14_10:A I
*I vs_6_10:A I
*CAP
1 pgm_pp10_2_s0:1 1.887287e-02
*RES
1 lt_pp10_2_s0:Z pgm_pp10_2_s0:1 1.899214e+01
2 pgm_pp10_2_s0:1 vs_14_10:A 1.000000e-03
3 pgm_pp10_2_s0:1 vs_6_10:A 1.000000e-03
*END

*D_NET pgm_pp10_2_s1 1.467652e-02
*CONN
*I lt_pp10_2_s1:Z O
*I vs_28_10:A I
*I vs_24_10:A I
*I vs_20_10:A I
*CAP
1 pgm_pp10_2_s1:1 1.467652e-02
*RES
1 lt_pp10_2_s1:Z pgm_pp10_2_s1:1 1.665465e+01
2 pgm_pp10_2_s1:1 vs_28_10:A 1.000000e-03
3 pgm_pp10_2_s1:1 vs_24_10:A 1.000000e-03
4 pgm_pp10_2_s1:1 vs_20_10:A 1.000000e-03
*END

*D_NET pgm_pp10_2_s2 1.889533e-03
*CONN
*I lt_pp10_2_s2:Z O
*I vs_35_10:A I
*CAP
1 pgm_pp10_2_s2:1 1.889533e-03
*RES
1 lt_pp10_2_s2:Z pgm_pp10_2_s2:1 1.003973e+00
2 pgm_pp10_2_s2:1 vs_35_10:A 1.000000e-03
*END

*D_NET pgm_pp10_3_s0 1.206593e-02
*CONN
*I lt_pp10_3_s0:Z O
*I vs_8_10:A I
*CAP
1 pgm_pp10_3_s0:1 1.206593e-02
*RES
1 lt_pp10_3_s0:Z pgm_pp10_3_s0:1 1.255196e+01
2 pgm_pp10_3_s0:1 vs_8_10:A 1.000000e-03
*END

*D_NET pgm_pp10_3_s1 1.263828e-02
*CONN
*I lt_pp10_3_s1:Z O
*I vs_29_10:A I
*CAP
1 pgm_pp10_3_s1:1 1.263828e-02
*RES
1 lt_pp10_3_s1:Z pgm_pp10_3_s1:1 1.434169e+01
2 pgm_pp10_3_s1:1 vs_29_10:A 1.000000e-03
*END

*D_NET pgm_pp10_4_s3 1.010825e-02
*CONN
*I lt_pp10_4_s3:Z O
*I vs_59_10:A I
*CAP
1 pgm_pp10_4_s3:1 1.010825e-02
*RES
1 lt_pp10_4_s3:Z pgm_pp10_4_s3:1 1.147067e+01
2 pgm_pp10_4_s3:1 vs_59_10:A 1.000000e-03
*END

*D_NET pgm_pp10_5_s0 6.861289e-03
*CONN
*I lt_pp10_5_s0:Z O
*I vs_11_10:A I
*CAP
1 pgm_pp10_5_s0:1 6.861289e-03
*RES
1 lt_pp10_5_s0:Z pgm_pp10_5_s0:1 7.786068e+00
2 pgm_pp10_5_s0:1 vs_11_10:A 1.000000e-03
*END

*D_NET pgm_pp10_5_s2 9.459454e-03
*CONN
*I lt_pp10_5_s2:Z O
*I vs_45_10:A I
*CAP
1 pgm_pp10_5_s2:1 9.459454e-03
*RES
1 lt_pp10_5_s2:Z pgm_pp10_5_s2:1 1.073442e+01
2 pgm_pp10_5_s2:1 vs_45_10:A 1.000000e-03
*END

*D_NET pgm_pp10_5_s3 6.781300e-03
*CONN
*I lt_pp10_5_s3:Z O
*I vs_58_10:A I
*CAP
1 pgm_pp10_5_s3:1 6.781300e-03
*RES
1 lt_pp10_5_s3:Z pgm_pp10_5_s3:1 7.695298e+00
2 pgm_pp10_5_s3:1 vs_58_10:A 1.000000e-03
*END

*D_NET pgm_pp10_6_s1 1.703472e-03
*CONN
*I lt_pp10_6_s1:Z O
*I vs_22_10:A I
*CAP
1 pgm_pp10_6_s1:1 1.703472e-03
*RES
1 lt_pp10_6_s1:Z pgm_pp10_6_s1:1 1.933069e+00
2 pgm_pp10_6_s1:1 vs_22_10:A 1.000000e-03
*END

*D_NET pgm_pp10_6_s2 7.536753e-03
*CONN
*I lt_pp10_6_s2:Z O
*I vs_38_10:A I
*I vs_34_10:A I
*CAP
1 pgm_pp10_6_s2:1 7.536753e-03
*RES
1 lt_pp10_6_s2:Z pgm_pp10_6_s2:1 8.552572e+00
2 pgm_pp10_6_s2:1 vs_38_10:A 1.000000e-03
3 pgm_pp10_6_s2:1 vs_34_10:A 1.000000e-03
*END

*D_NET pgm_pp10_7_s2 4.790460e-03
*CONN
*I lt_pp10_7_s2:Z O
*I vs_37_10:A I
*CAP
1 pgm_pp10_7_s2:1 4.790460e-03
*RES
1 lt_pp10_7_s2:Z pgm_pp10_7_s2:1 5.436128e+00
2 pgm_pp10_7_s2:1 vs_37_10:A 1.000000e-03
*END

*D_NET pgm_pp10_7_s3 7.513052e-03
*CONN
*I lt_pp10_7_s3:Z O
*I vs_61_10:A I
*CAP
1 pgm_pp10_7_s3:1 7.513052e-03
*RES
1 lt_pp10_7_s3:Z pgm_pp10_7_s3:1 8.525677e+00
2 pgm_pp10_7_s3:1 vs_61_10:A 1.000000e-03
*END

*D_NET pgm_pp10_8_s0 1.170790e-02
*CONN
*I lt_pp10_8_s0:Z O
*I vs_12_10:A I
*I vs_5_10:A I
*CAP
1 pgm_pp10_8_s0:1 1.170790e-02
*RES
1 lt_pp10_8_s0:Z pgm_pp10_8_s0:1 1.228966e+01
2 pgm_pp10_8_s0:1 vs_12_10:A 1.000000e-03
3 pgm_pp10_8_s0:1 vs_5_10:A 1.000000e-03
*END

*D_NET pgm_pp10_8_s3 3.406944e-03
*CONN
*I lt_pp10_8_s3:Z O
*I vs_56_10:A I
*CAP
1 pgm_pp10_8_s3:1 3.406944e-03
*RES
1 lt_pp10_8_s3:Z pgm_pp10_8_s3:1 3.866139e+00
2 pgm_pp10_8_s3:1 vs_56_10:A 1.000000e-03
*END

*D_NET pgm_pp10_9_s0 1.432629e-02
*CONN
*I lt_pp10_9_s0:Z O
*I vs_2_10:A I
*CAP
1 pgm_pp10_9_s0:1 1.432629e-02
*RES
1 lt_pp10_9_s0:Z pgm_pp10_9_s0:1 1.434075e+01
2 pgm_pp10_9_s0:1 vs_2_10:A 1.000000e-03
*END

*D_NET pgm_pp10_9_s2 3.371393e-03
*CONN
*I lt_pp10_9_s2:Z O
*I vs_41_10:A I
*CAP
1 pgm_pp10_9_s2:1 3.371393e-03
*RES
1 lt_pp10_9_s2:Z pgm_pp10_9_s2:1 3.825797e+00
2 pgm_pp10_9_s2:1 vs_41_10:A 1.000000e-03
*END

*D_NET pgm_pp11_0_s1 2.168467e-02
*CONN
*I lt_pp11_0_s1:Z O
*I vs_28_11:A I
*CAP
1 pgm_pp11_0_s1:1 2.168467e-02
*RES
1 lt_pp11_0_s1:Z pgm_pp11_0_s1:1 1.843946e+01
2 pgm_pp11_0_s1:1 vs_28_11:A 1.000000e-03
*END

*D_NET pgm_pp11_0_s3 1.878382e-02
*CONN
*I lt_pp11_0_s3:Z O
*I vs_60_11:A I
*CAP
1 pgm_pp11_0_s3:1 1.878382e-02
*RES
1 lt_pp11_0_s3:Z pgm_pp11_0_s3:1 1.749512e+01
2 pgm_pp11_0_s3:1 vs_60_11:A 1.000000e-03
*END

*D_NET pgm_pp11_10_s3 4.482353e-03
*CONN
*I lt_pp11_10_s3:Z O
*I vs_58_11:A I
*CAP
1 pgm_pp11_10_s3:1 4.482353e-03
*RES
1 lt_pp11_10_s3:Z pgm_pp11_10_s3:1 5.086494e+00
2 pgm_pp11_10_s3:1 vs_58_11:A 1.000000e-03
*END

*D_NET pgm_pp11_11_s1 6.514669e-03
*CONN
*I lt_pp11_11_s1:Z O
*I vs_25_11:A I
*CAP
1 pgm_pp11_11_s1:1 6.514669e-03
*RES
1 lt_pp11_11_s1:Z pgm_pp11_11_s1:1 7.392730e+00
2 pgm_pp11_11_s1:1 vs_25_11:A 1.000000e-03
*END

*D_NET pgm_pp11_12_s1 1.832493e-02
*CONN
*I lt_pp11_12_s1:Z O
*I vs_24_11:A I
*I vs_19_11:A I
*CAP
1 pgm_pp11_12_s1:1 1.832493e-02
*RES
1 lt_pp11_12_s1:Z pgm_pp11_12_s1:1 1.936661e+01
2 pgm_pp11_12_s1:1 vs_24_11:A 1.000000e-03
3 pgm_pp11_12_s1:1 vs_19_11:A 1.000000e-03
*END

*D_NET pgm_pp11_12_s2 1.698436e-02
*CONN
*I lt_pp11_12_s2:Z O
*I vs_44_11:A I
*I vs_39_11:A I
*I vs_36_11:A I
*CAP
1 pgm_pp11_12_s2:1 1.698436e-02
*RES
1 lt_pp11_12_s2:Z pgm_pp11_12_s2:1 1.927354e+01
2 pgm_pp11_12_s2:1 vs_44_11:A 1.000000e-03
3 pgm_pp11_12_s2:1 vs_39_11:A 1.000000e-03
4 pgm_pp11_12_s2:1 vs_36_11:A 1.000000e-03
*END

*D_NET pgm_pp11_12_s3 1.010892e-02
*CONN
*I lt_pp11_12_s3:Z O
*I vs_56_11:A I
*CAP
1 pgm_pp11_12_s3:1 1.010892e-02
*RES
1 lt_pp11_12_s3:Z pgm_pp11_12_s3:1 9.520515e+00
2 pgm_pp11_12_s3:1 vs_56_11:A 1.000000e-03
*END

*D_NET pgm_pp11_1_s1 2.620843e-03
*CONN
*I lt_pp11_1_s1:Z O
*I vs_18_11:A I
*CAP
1 pgm_pp11_1_s1:1 2.620843e-03
*RES
1 lt_pp11_1_s1:Z pgm_pp11_1_s1:1 1.689870e+00
2 pgm_pp11_1_s1:1 vs_18_11:A 1.000000e-03
*END

*D_NET pgm_pp11_2_s0 1.093082e-02
*CONN
*I lt_pp11_2_s0:Z O
*I vs_9_11:A I
*CAP
1 pgm_pp11_2_s0:1 1.093082e-02
*RES
1 lt_pp11_2_s0:Z pgm_pp11_2_s0:1 1.111989e+01
2 pgm_pp11_2_s0:1 vs_9_11:A 1.000000e-03
*END

*D_NET pgm_pp11_2_s2 5.580848e-03
*CONN
*I lt_pp11_2_s2:Z O
*I vs_38_11:A I
*CAP
1 pgm_pp11_2_s2:1 5.580848e-03
*RES
1 lt_pp11_2_s2:Z pgm_pp11_2_s2:1 4.804693e+00
2 pgm_pp11_2_s2:1 vs_38_11:A 1.000000e-03
*END

*D_NET pgm_pp11_2_s3 5.707830e-03
*CONN
*I lt_pp11_2_s3:Z O
*I vs_54_11:A I
*CAP
1 pgm_pp11_2_s3:1 5.707830e-03
*RES
1 lt_pp11_2_s3:Z pgm_pp11_2_s3:1 5.192929e+00
2 pgm_pp11_2_s3:1 vs_54_11:A 1.000000e-03
*END

*D_NET pgm_pp11_3_s1 3.284899e-03
*CONN
*I lt_pp11_3_s1:Z O
*I vs_21_11:A I
*CAP
1 pgm_pp11_3_s1:1 3.284899e-03
*RES
1 lt_pp11_3_s1:Z pgm_pp11_3_s1:1 2.587409e+00
2 pgm_pp11_3_s1:1 vs_21_11:A 1.000000e-03
*END

*D_NET pgm_pp11_3_s2 1.255237e-02
*CONN
*I lt_pp11_3_s2:Z O
*I vs_45_11:A I
*CAP
1 pgm_pp11_3_s2:1 1.255237e-02
*RES
1 lt_pp11_3_s2:Z pgm_pp11_3_s2:1 1.424420e+01
2 pgm_pp11_3_s2:1 vs_45_11:A 1.000000e-03
*END

*D_NET pgm_pp11_3_s3 2.328572e-03
*CONN
*I lt_pp11_3_s3:Z O
*I vs_50_11:A I
*CAP
1 pgm_pp11_3_s3:1 2.328572e-03
*RES
1 lt_pp11_3_s3:Z pgm_pp11_3_s3:1 2.642422e+00
2 pgm_pp11_3_s3:1 vs_50_11:A 1.000000e-03
*END

*D_NET pgm_pp11_4_s0 1.513572e-02
*CONN
*I lt_pp11_4_s0:Z O
*I vs_13_11:A I
*I vs_8_11:A I
*I vs_4_11:A I
*CAP
1 pgm_pp11_4_s0:1 1.513572e-02
*RES
1 lt_pp11_4_s0:Z pgm_pp11_4_s0:1 1.717574e+01
2 pgm_pp11_4_s0:1 vs_13_11:A 1.000000e-03
3 pgm_pp11_4_s0:1 vs_8_11:A 1.000000e-03
4 pgm_pp11_4_s0:1 vs_4_11:A 1.000000e-03
*END

*D_NET pgm_pp11_4_s2 2.082700e-02
*CONN
*I lt_pp11_4_s2:Z O
*I vs_47_11:A I
*I vs_32_11:A I
*CAP
1 pgm_pp11_4_s2:1 2.082700e-02
*RES
1 lt_pp11_4_s2:Z pgm_pp11_4_s2:1 2.161747e+01
2 pgm_pp11_4_s2:1 vs_47_11:A 1.000000e-03
3 pgm_pp11_4_s2:1 vs_32_11:A 1.000000e-03
*END

*D_NET pgm_pp11_4_s3 8.863980e-03
*CONN
*I lt_pp11_4_s3:Z O
*I vs_59_11:A I
*CAP
1 pgm_pp11_4_s3:1 8.863980e-03
*RES
1 lt_pp11_4_s3:Z pgm_pp11_4_s3:1 1.005869e+01
2 pgm_pp11_4_s3:1 vs_59_11:A 1.000000e-03
*END

*D_NET pgm_pp11_5_s0 1.451123e-02
*CONN
*I lt_pp11_5_s0:Z O
*I vs_15_11:A I
*CAP
1 pgm_pp11_5_s0:1 1.451123e-02
*RES
1 lt_pp11_5_s0:Z pgm_pp11_5_s0:1 1.475093e+01
2 pgm_pp11_5_s0:1 vs_15_11:A 1.000000e-03
*END

*D_NET pgm_pp11_5_s1 7.587116e-03
*CONN
*I lt_pp11_5_s1:Z O
*I vs_27_11:A I
*CAP
1 pgm_pp11_5_s1:1 7.587116e-03
*RES
1 lt_pp11_5_s1:Z pgm_pp11_5_s1:1 8.609723e+00
2 pgm_pp11_5_s1:1 vs_27_11:A 1.000000e-03
*END

*D_NET pgm_pp11_6_s0 7.219759e-03
*CONN
*I lt_pp11_6_s0:Z O
*I vs_12_11:A I
*CAP
1 pgm_pp11_6_s0:1 7.219759e-03
*RES
1 lt_pp11_6_s0:Z pgm_pp11_6_s0:1 8.192853e+00
2 pgm_pp11_6_s0:1 vs_12_11:A 1.000000e-03
*END

*D_NET pgm_pp11_6_s2 5.969558e-03
*CONN
*I lt_pp11_6_s2:Z O
*I vs_35_11:A I
*CAP
1 pgm_pp11_6_s2:1 5.969558e-03
*RES
1 lt_pp11_6_s2:Z pgm_pp11_6_s2:1 6.774148e+00
2 pgm_pp11_6_s2:1 vs_35_11:A 1.000000e-03
*END

*D_NET pgm_pp11_7_s0 4.846748e-03
*CONN
*I lt_pp11_7_s0:Z O
*I vs_5_11:A I
*CAP
1 pgm_pp11_7_s0:1 4.846748e-03
*RES
1 lt_pp11_7_s0:Z pgm_pp11_7_s0:1 5.500003e+00
2 pgm_pp11_7_s0:1 vs_5_11:A 1.000000e-03
*END

*D_NET pgm_pp11_8_s0 9.515743e-03
*CONN
*I lt_pp11_8_s0:Z O
*I vs_3_11:A I
*CAP
1 pgm_pp11_8_s0:1 9.515743e-03
*RES
1 lt_pp11_8_s0:Z pgm_pp11_8_s0:1 1.079829e+01
2 pgm_pp11_8_s0:1 vs_3_11:A 1.000000e-03
*END

*D_NET pgm_pp11_8_s2 9.625357e-03
*CONN
*I lt_pp11_8_s2:Z O
*I vs_34_11:A I
*CAP
1 pgm_pp11_8_s2:1 9.625357e-03
*RES
1 lt_pp11_8_s2:Z pgm_pp11_8_s2:1 1.092268e+01
2 pgm_pp11_8_s2:1 vs_34_11:A 1.000000e-03
*END

*D_NET pgm_pp11_8_s3 1.241609e-02
*CONN
*I lt_pp11_8_s3:Z O
*I vs_53_11:A I
*I vs_48_11:A I
*CAP
1 pgm_pp11_8_s3:1 1.241609e-02
*RES
1 lt_pp11_8_s3:Z pgm_pp11_8_s3:1 1.408956e+01
2 pgm_pp11_8_s3:1 vs_53_11:A 1.000000e-03
3 pgm_pp11_8_s3:1 vs_48_11:A 1.000000e-03
*END

*D_NET pgm_pp11_9_s0 1.188283e-02
*CONN
*I lt_pp11_9_s0:Z O
*I vs_2_11:A I
*CAP
1 pgm_pp11_9_s0:1 1.188283e-02
*RES
1 lt_pp11_9_s0:Z pgm_pp11_9_s0:1 1.348442e+01
2 pgm_pp11_9_s0:1 vs_2_11:A 1.000000e-03
*END

*D_NET pgm_pp12_0_s0 1.218814e-02
*CONN
*I lt_pp12_0_s0:Z O
*I vs_8_12:A I
*CAP
1 pgm_pp12_0_s0:1 1.218814e-02
*RES
1 lt_pp12_0_s0:Z pgm_pp12_0_s0:1 1.197075e+01
2 pgm_pp12_0_s0:1 vs_8_12:A 1.000000e-03
*END

*D_NET pgm_pp12_0_s2 2.084457e-02
*CONN
*I lt_pp12_0_s2:Z O
*I vs_47_12:A I
*CAP
1 pgm_pp12_0_s2:1 2.084457e-02
*RES
1 lt_pp12_0_s2:Z pgm_pp12_0_s2:1 2.365405e+01
2 pgm_pp12_0_s2:1 vs_47_12:A 1.000000e-03
*END

*D_NET pgm_pp12_0_s3 2.124156e-03
*CONN
*I lt_pp12_0_s3:Z O
*I vs_48_12:A I
*CAP
1 pgm_pp12_0_s3:1 2.124156e-03
*RES
1 lt_pp12_0_s3:Z pgm_pp12_0_s3:1 2.410454e+00
2 pgm_pp12_0_s3:1 vs_48_12:A 1.000000e-03
*END

*D_NET pgm_pp12_10_s0 1.219093e-02
*CONN
*I lt_pp12_10_s0:Z O
*I vs_3_12:A I
*CAP
1 pgm_pp12_10_s0:1 1.219093e-02
*RES
1 lt_pp12_10_s0:Z pgm_pp12_10_s0:1 1.383405e+01
2 pgm_pp12_10_s0:1 vs_3_12:A 1.000000e-03
*END

*D_NET pgm_pp12_10_s1 1.412549e-02
*CONN
*I lt_pp12_10_s1:Z O
*I vs_20_12:A I
*I vs_18_12:A I
*CAP
1 pgm_pp12_10_s1:1 1.412549e-02
*RES
1 lt_pp12_10_s1:Z pgm_pp12_10_s1:1 1.602935e+01
2 pgm_pp12_10_s1:1 vs_20_12:A 1.000000e-03
3 pgm_pp12_10_s1:1 vs_18_12:A 1.000000e-03
*END

*D_NET pgm_pp12_11_s0 1.245756e-02
*CONN
*I lt_pp12_11_s0:Z O
*I vs_4_12:A I
*CAP
1 pgm_pp12_11_s0:1 1.245756e-02
*RES
1 lt_pp12_11_s0:Z pgm_pp12_11_s0:1 1.413662e+01
2 pgm_pp12_11_s0:1 vs_4_12:A 1.000000e-03
*END

*D_NET pgm_pp12_11_s1 1.031267e-02
*CONN
*I lt_pp12_11_s1:Z O
*I vs_22_12:A I
*CAP
1 pgm_pp12_11_s1:1 1.031267e-02
*RES
1 lt_pp12_11_s1:Z pgm_pp12_11_s1:1 1.170263e+01
2 pgm_pp12_11_s1:1 vs_22_12:A 1.000000e-03
*END

*D_NET pgm_pp12_1_s0 2.707780e-03
*CONN
*I lt_pp12_1_s0:Z O
*I vs_1_12:A I
*I vs_0_12:A I
*CAP
1 pgm_pp12_1_s0:1 2.707780e-03
*RES
1 lt_pp12_1_s0:Z pgm_pp12_1_s0:1 3.072740e+00
2 pgm_pp12_1_s0:1 vs_1_12:A 1.000000e-03
3 pgm_pp12_1_s0:1 vs_0_12:A 1.000000e-03
*END

*D_NET pgm_pp12_1_s1 7.009417e-03
*CONN
*I lt_pp12_1_s1:Z O
*I vs_21_12:A I
*CAP
1 pgm_pp12_1_s1:1 7.009417e-03
*RES
1 lt_pp12_1_s1:Z pgm_pp12_1_s1:1 7.954161e+00
2 pgm_pp12_1_s1:1 vs_21_12:A 1.000000e-03
*END

*D_NET pgm_pp12_1_s2 1.809235e-02
*CONN
*I lt_pp12_1_s2:Z O
*I vs_45_12:A I
*I vs_39_12:A I
*I vs_36_12:A I
*CAP
1 pgm_pp12_1_s2:1 1.809235e-02
*RES
1 lt_pp12_1_s2:Z pgm_pp12_1_s2:1 2.053088e+01
2 pgm_pp12_1_s2:1 vs_45_12:A 1.000000e-03
3 pgm_pp12_1_s2:1 vs_39_12:A 1.000000e-03
4 pgm_pp12_1_s2:1 vs_36_12:A 1.000000e-03
*END

*D_NET pgm_pp12_1_s3 1.627630e-02
*CONN
*I lt_pp12_1_s3:Z O
*I vs_61_12:A I
*CAP
1 pgm_pp12_1_s3:1 1.627630e-02
*RES
1 lt_pp12_1_s3:Z pgm_pp12_1_s3:1 1.847006e+01
2 pgm_pp12_1_s3:1 vs_61_12:A 1.000000e-03
*END

*D_NET pgm_pp12_2_s1 1.378578e-02
*CONN
*I lt_pp12_2_s1:Z O
*I vs_24_12:A I
*I vs_16_12:A I
*CAP
1 pgm_pp12_2_s1:1 1.378578e-02
*RES
1 lt_pp12_2_s1:Z pgm_pp12_2_s1:1 1.330124e+01
2 pgm_pp12_2_s1:1 vs_24_12:A 1.000000e-03
3 pgm_pp12_2_s1:1 vs_16_12:A 1.000000e-03
*END

*D_NET pgm_pp12_2_s2 7.933156e-03
*CONN
*I lt_pp12_2_s2:Z O
*I vs_40_12:A I
*CAP
1 pgm_pp12_2_s2:1 7.933156e-03
*RES
1 lt_pp12_2_s2:Z pgm_pp12_2_s2:1 7.862167e+00
2 pgm_pp12_2_s2:1 vs_40_12:A 1.000000e-03
*END

*D_NET pgm_pp12_5_s2 9.249281e-03
*CONN
*I lt_pp12_5_s2:Z O
*I vs_33_12:A I
*CAP
1 pgm_pp12_5_s2:1 9.249281e-03
*RES
1 lt_pp12_5_s2:Z pgm_pp12_5_s2:1 8.635785e+00
2 pgm_pp12_5_s2:1 vs_33_12:A 1.000000e-03
*END

*D_NET pgm_pp12_5_s3 8.938044e-03
*CONN
*I lt_pp12_5_s3:Z O
*I vs_60_12:A I
*CAP
1 pgm_pp12_5_s3:1 8.938044e-03
*RES
1 lt_pp12_5_s3:Z pgm_pp12_5_s3:1 1.014273e+01
2 pgm_pp12_5_s3:1 vs_60_12:A 1.000000e-03
*END

*D_NET pgm_pp12_6_s0 3.966593e-03
*CONN
*I lt_pp12_6_s0:Z O
*I vs_5_12:A I
*CAP
1 pgm_pp12_6_s0:1 3.966593e-03
*RES
1 lt_pp12_6_s0:Z pgm_pp12_6_s0:1 1.952489e+00
2 pgm_pp12_6_s0:1 vs_5_12:A 1.000000e-03
*END

*D_NET pgm_pp12_6_s1 1.272995e-02
*CONN
*I lt_pp12_6_s1:Z O
*I vs_27_12:A I
*I vs_19_12:A I
*CAP
1 pgm_pp12_6_s1:1 1.272995e-02
*RES
1 lt_pp12_6_s1:Z pgm_pp12_6_s1:1 1.306134e+01
2 pgm_pp12_6_s1:1 vs_27_12:A 1.000000e-03
3 pgm_pp12_6_s1:1 vs_19_12:A 1.000000e-03
*END

*D_NET pgm_pp12_6_s2 9.551293e-03
*CONN
*I lt_pp12_6_s2:Z O
*I vs_46_12:A I
*CAP
1 pgm_pp12_6_s2:1 9.551293e-03
*RES
1 lt_pp12_6_s2:Z pgm_pp12_6_s2:1 1.083864e+01
2 pgm_pp12_6_s2:1 vs_46_12:A 1.000000e-03
*END

*D_NET pgm_pp12_6_s3 2.559652e-03
*CONN
*I lt_pp12_6_s3:Z O
*I vs_57_12:A I
*CAP
1 pgm_pp12_6_s3:1 2.559652e-03
*RES
1 lt_pp12_6_s3:Z pgm_pp12_6_s3:1 2.904647e+00
2 pgm_pp12_6_s3:1 vs_57_12:A 1.000000e-03
*END

*D_NET pgm_pp12_8_s1 8.117414e-04
*CONN
*I lt_pp12_8_s1:Z O
*I vs_26_12:A I
*CAP
1 pgm_pp12_8_s1:1 8.117414e-04
*RES
1 lt_pp12_8_s1:Z pgm_pp12_8_s1:1 9.211496e-01
2 pgm_pp12_8_s1:1 vs_26_12:A 1.000000e-03
*END

*D_NET pgm_pp12_8_s2 1.531940e-02
*CONN
*I lt_pp12_8_s2:Z O
*I vs_32_12:A I
*CAP
1 pgm_pp12_8_s2:1 1.531940e-02
*RES
1 lt_pp12_8_s2:Z pgm_pp12_8_s2:1 1.738418e+01
2 pgm_pp12_8_s2:1 vs_32_12:A 1.000000e-03
*END

*D_NET pgm_pp12_8_s3 1.426769e-02
*CONN
*I lt_pp12_8_s3:Z O
*I vs_54_12:A I
*I vs_49_12:A I
*CAP
1 pgm_pp12_8_s3:1 1.426769e-02
*RES
1 lt_pp12_8_s3:Z pgm_pp12_8_s3:1 1.619072e+01
2 pgm_pp12_8_s3:1 vs_54_12:A 1.000000e-03
3 pgm_pp12_8_s3:1 vs_49_12:A 1.000000e-03
*END

*D_NET pgm_pp12_9_s3 1.512979e-02
*CONN
*I lt_pp12_9_s3:Z O
*I vs_63_12:A I
*I vs_55_12:A I
*I vs_53_12:A I
*CAP
1 pgm_pp12_9_s3:1 1.512979e-02
*RES
1 lt_pp12_9_s3:Z pgm_pp12_9_s3:1 1.716902e+01
2 pgm_pp12_9_s3:1 vs_63_12:A 1.000000e-03
3 pgm_pp12_9_s3:1 vs_55_12:A 1.000000e-03
4 pgm_pp12_9_s3:1 vs_53_12:A 1.000000e-03
*END

*D_NET pgm_pp13_0_s1 9.673812e-03
*CONN
*I lt_pp13_0_s1:Z O
*I vs_22_13:A I
*CAP
1 pgm_pp13_0_s1:1 9.673812e-03
*RES
1 lt_pp13_0_s1:Z pgm_pp13_0_s1:1 9.405495e+00
2 pgm_pp13_0_s1:1 vs_22_13:A 1.000000e-03
*END

*D_NET pgm_pp13_0_s2 5.219313e-03
*CONN
*I lt_pp13_0_s2:Z O
*I vs_34_13:A I
*CAP
1 pgm_pp13_0_s2:1 5.219313e-03
*RES
1 lt_pp13_0_s2:Z pgm_pp13_0_s2:1 3.774692e+00
2 pgm_pp13_0_s2:1 vs_34_13:A 1.000000e-03
*END

*D_NET pgm_pp13_0_s3 2.093495e-02
*CONN
*I lt_pp13_0_s3:Z O
*I vs_63_13:A I
*I vs_61_13:A I
*CAP
1 pgm_pp13_0_s3:1 2.093495e-02
*RES
1 lt_pp13_0_s3:Z pgm_pp13_0_s3:1 2.232841e+01
2 pgm_pp13_0_s3:1 vs_63_13:A 1.000000e-03
3 pgm_pp13_0_s3:1 vs_61_13:A 1.000000e-03
*END

*D_NET pgm_pp13_10_s2 1.004012e-02
*CONN
*I lt_pp13_10_s2:Z O
*I vs_38_13:A I
*I vs_37_13:A I
*CAP
1 pgm_pp13_10_s2:1 1.004012e-02
*RES
1 lt_pp13_10_s2:Z pgm_pp13_10_s2:1 1.139334e+01
2 pgm_pp13_10_s2:1 vs_38_13:A 1.000000e-03
3 pgm_pp13_10_s2:1 vs_37_13:A 1.000000e-03
*END

*D_NET pgm_pp13_11_s0 2.888496e-03
*CONN
*I lt_pp13_11_s0:Z O
*I vs_12_13:A I
*CAP
1 pgm_pp13_11_s0:1 2.888496e-03
*RES
1 lt_pp13_11_s0:Z pgm_pp13_11_s0:1 3.277813e+00
2 pgm_pp13_11_s0:1 vs_12_13:A 1.000000e-03
*END

*D_NET pgm_pp13_11_s1 7.729607e-03
*CONN
*I lt_pp13_11_s1:Z O
*I vs_30_13:A I
*I vs_25_13:A I
*CAP
1 pgm_pp13_11_s1:1 7.729607e-03
*RES
1 lt_pp13_11_s1:Z pgm_pp13_11_s1:1 7.452775e+00
2 pgm_pp13_11_s1:1 vs_30_13:A 1.000000e-03
3 pgm_pp13_11_s1:1 vs_25_13:A 1.000000e-03
*END

*D_NET pgm_pp13_11_s3 1.250905e-02
*CONN
*I lt_pp13_11_s3:Z O
*I vs_52_13:A I
*CAP
1 pgm_pp13_11_s3:1 1.250905e-02
*RES
1 lt_pp13_11_s3:Z pgm_pp13_11_s3:1 1.285449e+01
2 pgm_pp13_11_s3:1 vs_52_13:A 1.000000e-03
*END

*D_NET pgm_pp13_1_s0 1.240662e-02
*CONN
*I lt_pp13_1_s0:Z O
*I vs_9_13:A I
*CAP
1 pgm_pp13_1_s0:1 1.240662e-02
*RES
1 lt_pp13_1_s0:Z pgm_pp13_1_s0:1 1.293858e+01
2 pgm_pp13_1_s0:1 vs_9_13:A 1.000000e-03
*END

*D_NET pgm_pp13_1_s1 2.051426e-02
*CONN
*I lt_pp13_1_s1:Z O
*I vs_31_13:A I
*I vs_24_13:A I
*CAP
1 pgm_pp13_1_s1:1 2.051426e-02
*RES
1 lt_pp13_1_s1:Z pgm_pp13_1_s1:1 2.185102e+01
2 pgm_pp13_1_s1:1 vs_31_13:A 1.000000e-03
3 pgm_pp13_1_s1:1 vs_24_13:A 1.000000e-03
*END

*D_NET pgm_pp13_1_s2 1.802422e-02
*CONN
*I lt_pp13_1_s2:Z O
*I vs_46_13:A I
*CAP
1 pgm_pp13_1_s2:1 1.802422e-02
*RES
1 lt_pp13_1_s2:Z pgm_pp13_1_s2:1 2.045356e+01
2 pgm_pp13_1_s2:1 vs_46_13:A 1.000000e-03
*END

*D_NET pgm_pp13_2_s0 1.239535e-02
*CONN
*I lt_pp13_2_s0:Z O
*I vs_10_13:A I
*I vs_3_13:A I
*CAP
1 pgm_pp13_2_s0:1 1.239535e-02
*RES
1 lt_pp13_2_s0:Z pgm_pp13_2_s0:1 1.406602e+01
2 pgm_pp13_2_s0:1 vs_10_13:A 1.000000e-03
3 pgm_pp13_2_s0:1 vs_3_13:A 1.000000e-03
*END

*D_NET pgm_pp13_2_s1 1.737838e-02
*CONN
*I lt_pp13_2_s1:Z O
*I vs_29_13:A I
*I vs_21_13:A I
*I vs_18_13:A I
*CAP
1 pgm_pp13_2_s1:1 1.737838e-02
*RES
1 lt_pp13_2_s1:Z pgm_pp13_2_s1:1 1.972067e+01
2 pgm_pp13_2_s1:1 vs_29_13:A 1.000000e-03
3 pgm_pp13_2_s1:1 vs_21_13:A 1.000000e-03
4 pgm_pp13_2_s1:1 vs_18_13:A 1.000000e-03
*END

*D_NET pgm_pp13_2_s3 9.400371e-03
*CONN
*I lt_pp13_2_s3:Z O
*I vs_55_13:A I
*I vs_53_13:A I
*CAP
1 pgm_pp13_2_s3:1 9.400371e-03
*RES
1 lt_pp13_2_s3:Z pgm_pp13_2_s3:1 8.807240e+00
2 pgm_pp13_2_s3:1 vs_55_13:A 1.000000e-03
3 pgm_pp13_2_s3:1 vs_53_13:A 1.000000e-03
*END

*D_NET pgm_pp13_3_s0 1.772486e-02
*CONN
*I lt_pp13_3_s0:Z O
*I vs_15_13:A I
*CAP
1 pgm_pp13_3_s0:1 1.772486e-02
*RES
1 lt_pp13_3_s0:Z pgm_pp13_3_s0:1 1.911760e+01
2 pgm_pp13_3_s0:1 vs_15_13:A 1.000000e-03
*END

*D_NET pgm_pp13_3_s2 2.479663e-03
*CONN
*I lt_pp13_3_s2:Z O
*I vs_35_13:A I
*CAP
1 pgm_pp13_3_s2:1 2.479663e-03
*RES
1 lt_pp13_3_s2:Z pgm_pp13_3_s2:1 2.813877e+00
2 pgm_pp13_3_s2:1 vs_35_13:A 1.000000e-03
*END

*D_NET pgm_pp13_3_s3 4.846748e-03
*CONN
*I lt_pp13_3_s3:Z O
*I vs_48_13:A I
*CAP
1 pgm_pp13_3_s3:1 4.846748e-03
*RES
1 lt_pp13_3_s3:Z pgm_pp13_3_s3:1 5.500003e+00
2 pgm_pp13_3_s3:1 vs_48_13:A 1.000000e-03
*END

*D_NET pgm_pp13_4_s3 4.977101e-03
*CONN
*I lt_pp13_4_s3:Z O
*I vs_49_13:A I
*CAP
1 pgm_pp13_4_s3:1 4.977101e-03
*RES
1 lt_pp13_4_s3:Z pgm_pp13_4_s3:1 5.647925e+00
2 pgm_pp13_4_s3:1 vs_49_13:A 1.000000e-03
*END

*D_NET pgm_pp13_5_s0 2.725555e-04
*CONN
*I lt_pp13_5_s0:Z O
*I vs_6_13:A I
*CAP
1 pgm_pp13_5_s0:1 2.725555e-04
*RES
1 lt_pp13_5_s0:Z pgm_pp13_5_s0:1 3.092911e-01
2 pgm_pp13_5_s0:1 vs_6_13:A 1.000000e-03
*END

*D_NET pgm_pp13_5_s1 9.708137e-03
*CONN
*I lt_pp13_5_s1:Z O
*I vs_16_13:A I
*CAP
1 pgm_pp13_5_s1:1 9.708137e-03
*RES
1 lt_pp13_5_s1:Z pgm_pp13_5_s1:1 9.632246e+00
2 pgm_pp13_5_s1:1 vs_16_13:A 1.000000e-03
*END

*D_NET pgm_pp13_5_s2 1.332559e-02
*CONN
*I lt_pp13_5_s2:Z O
*I vs_47_13:A I
*CAP
1 pgm_pp13_5_s2:1 1.332559e-02
*RES
1 lt_pp13_5_s2:Z pgm_pp13_5_s2:1 1.512165e+01
2 pgm_pp13_5_s2:1 vs_47_13:A 1.000000e-03
*END

*D_NET pgm_pp13_5_s3 1.145792e-02
*CONN
*I lt_pp13_5_s3:Z O
*I vs_62_13:A I
*I vs_60_13:A I
*CAP
1 pgm_pp13_5_s3:1 1.145792e-02
*RES
1 lt_pp13_5_s3:Z pgm_pp13_5_s3:1 9.001196e+00
2 pgm_pp13_5_s3:1 vs_62_13:A 1.000000e-03
3 pgm_pp13_5_s3:1 vs_60_13:A 1.000000e-03
*END

*D_NET pgm_pp13_6_s0 7.133844e-03
*CONN
*I lt_pp13_6_s0:Z O
*I vs_2_13:A I
*CAP
1 pgm_pp13_6_s0:1 7.133844e-03
*RES
1 lt_pp13_6_s0:Z pgm_pp13_6_s0:1 8.095359e+00
2 pgm_pp13_6_s0:1 vs_2_13:A 1.000000e-03
*END

*D_NET pgm_pp13_6_s3 9.791261e-03
*CONN
*I lt_pp13_6_s3:Z O
*I vs_50_13:A I
*CAP
1 pgm_pp13_6_s3:1 9.791261e-03
*RES
1 lt_pp13_6_s3:Z pgm_pp13_6_s3:1 1.111095e+01
2 pgm_pp13_6_s3:1 vs_50_13:A 1.000000e-03
*END

*D_NET pgm_pp13_7_s1 1.027120e-02
*CONN
*I lt_pp13_7_s1:Z O
*I vs_17_13:A I
*CAP
1 pgm_pp13_7_s1:1 1.027120e-02
*RES
1 lt_pp13_7_s1:Z pgm_pp13_7_s1:1 1.165557e+01
2 pgm_pp13_7_s1:1 vs_17_13:A 1.000000e-03
*END

*D_NET pgm_pp13_7_s2 5.391859e-04
*CONN
*I lt_pp13_7_s2:Z O
*I vs_41_13:A I
*CAP
1 pgm_pp13_7_s2:1 5.391859e-04
*RES
1 lt_pp13_7_s2:Z pgm_pp13_7_s2:1 6.118585e-01
2 pgm_pp13_7_s2:1 vs_41_13:A 1.000000e-03
*END

*D_NET pgm_pp13_8_s1 1.018232e-02
*CONN
*I lt_pp13_8_s1:Z O
*I vs_23_13:A I
*I vs_19_13:A I
*CAP
1 pgm_pp13_8_s1:1 1.018232e-02
*RES
1 lt_pp13_8_s1:Z pgm_pp13_8_s1:1 1.155471e+01
2 pgm_pp13_8_s1:1 vs_23_13:A 1.000000e-03
3 pgm_pp13_8_s1:1 vs_19_13:A 1.000000e-03
*END

*D_NET pgm_pp13_8_s2 4.891187e-03
*CONN
*I lt_pp13_8_s2:Z O
*I vs_45_13:A I
*CAP
1 pgm_pp13_8_s2:1 4.891187e-03
*RES
1 lt_pp13_8_s2:Z pgm_pp13_8_s2:1 5.550431e+00
2 pgm_pp13_8_s2:1 vs_45_13:A 1.000000e-03
*END

*D_NET pgm_pp13_9_s0 5.901420e-03
*CONN
*I lt_pp13_9_s0:Z O
*I vs_8_13:A I
*CAP
1 pgm_pp13_9_s0:1 5.901420e-03
*RES
1 lt_pp13_9_s0:Z pgm_pp13_9_s0:1 6.696825e+00
2 pgm_pp13_9_s0:1 vs_8_13:A 1.000000e-03
*END

*D_NET pgm_pp13_9_s2 5.516287e-03
*CONN
*I lt_pp13_9_s2:Z O
*I vs_39_13:A I
*CAP
1 pgm_pp13_9_s2:1 5.516287e-03
*RES
1 lt_pp13_9_s2:Z pgm_pp13_9_s2:1 6.259783e+00
2 pgm_pp13_9_s2:1 vs_39_13:A 1.000000e-03
*END

*D_NET pgm_pp14_0_s0 1.283354e-02
*CONN
*I lt_pp14_0_s0:Z O
*I vs_8_14:A I
*CAP
1 pgm_pp14_0_s0:1 1.283354e-02
*RES
1 lt_pp14_0_s0:Z pgm_pp14_0_s0:1 1.255915e+01
2 pgm_pp14_0_s0:1 vs_8_14:A 1.000000e-03
*END

*D_NET pgm_pp14_0_s3 4.506054e-03
*CONN
*I lt_pp14_0_s3:Z O
*I vs_50_14:A I
*CAP
1 pgm_pp14_0_s3:1 4.506054e-03
*RES
1 lt_pp14_0_s3:Z pgm_pp14_0_s3:1 5.113389e+00
2 pgm_pp14_0_s3:1 vs_50_14:A 1.000000e-03
*END

*D_NET pgm_pp14_10_s3 1.175738e-02
*CONN
*I lt_pp14_10_s3:Z O
*I vs_52_14:A I
*CAP
1 pgm_pp14_10_s3:1 1.175738e-02
*RES
1 lt_pp14_10_s3:Z pgm_pp14_10_s3:1 1.205785e+01
2 pgm_pp14_10_s3:1 vs_52_14:A 1.000000e-03
*END

*D_NET pgm_pp14_11_s1 1.672365e-02
*CONN
*I lt_pp14_11_s1:Z O
*I vs_17_14:A I
*CAP
1 pgm_pp14_11_s1:1 1.672365e-02
*RES
1 lt_pp14_11_s1:Z pgm_pp14_11_s1:1 1.897770e+01
2 pgm_pp14_11_s1:1 vs_17_14:A 1.000000e-03
*END

*D_NET pgm_pp14_1_s0 1.668514e-02
*CONN
*I lt_pp14_1_s0:Z O
*I vs_13_14:A I
*CAP
1 pgm_pp14_1_s0:1 1.668514e-02
*RES
1 lt_pp14_1_s0:Z pgm_pp14_1_s0:1 1.893400e+01
2 pgm_pp14_1_s0:1 vs_13_14:A 1.000000e-03
*END

*D_NET pgm_pp14_1_s1 1.395263e-02
*CONN
*I lt_pp14_1_s1:Z O
*I vs_27_14:A I
*CAP
1 pgm_pp14_1_s1:1 1.395263e-02
*RES
1 lt_pp14_1_s1:Z pgm_pp14_1_s1:1 1.454898e+01
2 pgm_pp14_1_s1:1 vs_27_14:A 1.000000e-03
*END

*D_NET pgm_pp14_1_s2 1.593963e-02
*CONN
*I lt_pp14_1_s2:Z O
*I vs_44_14:A I
*CAP
1 pgm_pp14_1_s2:1 1.593963e-02
*RES
1 lt_pp14_1_s2:Z pgm_pp14_1_s2:1 1.651583e+01
2 pgm_pp14_1_s2:1 vs_44_14:A 1.000000e-03
*END

*D_NET pgm_pp14_2_s0 1.680841e-02
*CONN
*I lt_pp14_2_s0:Z O
*I vs_10_14:A I
*I vs_0_14:A I
*CAP
1 pgm_pp14_2_s0:1 1.680841e-02
*RES
1 lt_pp14_2_s0:Z pgm_pp14_2_s0:1 1.678181e+01
2 pgm_pp14_2_s0:1 vs_10_14:A 1.000000e-03
3 pgm_pp14_2_s0:1 vs_0_14:A 1.000000e-03
*END

*D_NET pgm_pp14_2_s1 9.571451e-03
*CONN
*I lt_pp14_2_s1:Z O
*I vs_24_14:A I
*I vs_22_14:A I
*CAP
1 pgm_pp14_2_s1:1 9.571451e-03
*RES
1 lt_pp14_2_s1:Z pgm_pp14_2_s1:1 9.721276e+00
2 pgm_pp14_2_s1:1 vs_24_14:A 1.000000e-03
3 pgm_pp14_2_s1:1 vs_22_14:A 1.000000e-03
*END

*D_NET pgm_pp14_2_s2 1.916422e-02
*CONN
*I lt_pp14_2_s2:Z O
*I vs_47_14:A I
*I vs_43_14:A I
*I vs_41_14:A I
*I vs_35_14:A I
*CAP
1 pgm_pp14_2_s2:1 1.916422e-02
*RES
1 lt_pp14_2_s2:Z pgm_pp14_2_s2:1 2.060698e+01
2 pgm_pp14_2_s2:1 vs_47_14:A 1.000000e-03
3 pgm_pp14_2_s2:1 vs_43_14:A 1.000000e-03
4 pgm_pp14_2_s2:1 vs_41_14:A 1.000000e-03
5 pgm_pp14_2_s2:1 vs_35_14:A 1.000000e-03
*END

*D_NET pgm_pp14_2_s3 1.896038e-03
*CONN
*I lt_pp14_2_s3:Z O
*I vs_51_14:A I
*CAP
1 pgm_pp14_2_s3:1 1.896038e-03
*RES
1 lt_pp14_2_s3:Z pgm_pp14_2_s3:1 2.151590e+00
2 pgm_pp14_2_s3:1 vs_51_14:A 1.000000e-03
*END

*D_NET pgm_pp14_3_s0 1.809544e-03
*CONN
*I lt_pp14_3_s0:Z O
*I vs_3_14:A I
*CAP
1 pgm_pp14_3_s0:1 1.809544e-03
*RES
1 lt_pp14_3_s0:Z pgm_pp14_3_s0:1 9.132028e-01
2 pgm_pp14_3_s0:1 vs_3_14:A 1.000000e-03
*END

*D_NET pgm_pp14_3_s1 1.579920e-02
*CONN
*I lt_pp14_3_s1:Z O
*I vs_29_14:A I
*I vs_20_14:A I
*CAP
1 pgm_pp14_3_s1:1 1.579920e-02
*RES
1 lt_pp14_3_s1:Z pgm_pp14_3_s1:1 1.693239e+01
2 pgm_pp14_3_s1:1 vs_29_14:A 1.000000e-03
3 pgm_pp14_3_s1:1 vs_20_14:A 1.000000e-03
*END

*D_NET pgm_pp14_3_s2 4.846748e-03
*CONN
*I lt_pp14_3_s2:Z O
*I vs_39_14:A I
*CAP
1 pgm_pp14_3_s2:1 4.846748e-03
*RES
1 lt_pp14_3_s2:Z pgm_pp14_3_s2:1 5.500003e+00
2 pgm_pp14_3_s2:1 vs_39_14:A 1.000000e-03
*END

*D_NET pgm_pp14_4_s1 7.678956e-03
*CONN
*I lt_pp14_4_s1:Z O
*I vs_16_14:A I
*CAP
1 pgm_pp14_4_s1:1 7.678956e-03
*RES
1 lt_pp14_4_s1:Z pgm_pp14_4_s1:1 8.713941e+00
2 pgm_pp14_4_s1:1 vs_16_14:A 1.000000e-03
*END

*D_NET pgm_pp14_4_s2 3.718013e-03
*CONN
*I lt_pp14_4_s2:Z O
*I vs_34_14:A I
*CAP
1 pgm_pp14_4_s2:1 3.718013e-03
*RES
1 lt_pp14_4_s2:Z pgm_pp14_4_s2:1 4.219134e+00
2 pgm_pp14_4_s2:1 vs_34_14:A 1.000000e-03
*END

*D_NET pgm_pp14_5_s0 1.535791e-02
*CONN
*I lt_pp14_5_s0:Z O
*I vs_12_14:A I
*I vs_2_14:A I
*CAP
1 pgm_pp14_5_s0:1 1.535791e-02
*RES
1 lt_pp14_5_s0:Z pgm_pp14_5_s0:1 1.742788e+01
2 pgm_pp14_5_s0:1 vs_12_14:A 1.000000e-03
3 pgm_pp14_5_s0:1 vs_2_14:A 1.000000e-03
*END

*D_NET pgm_pp14_5_s1 5.738479e-03
*CONN
*I lt_pp14_5_s1:Z O
*I vs_18_14:A I
*CAP
1 pgm_pp14_5_s1:1 5.738479e-03
*RES
1 lt_pp14_5_s1:Z pgm_pp14_5_s1:1 6.511923e+00
2 pgm_pp14_5_s1:1 vs_18_14:A 1.000000e-03
*END

*D_NET pgm_pp14_6_s1 9.092097e-03
*CONN
*I lt_pp14_6_s1:Z O
*I vs_30_14:A I
*CAP
1 pgm_pp14_6_s1:1 9.092097e-03
*RES
1 lt_pp14_6_s1:Z pgm_pp14_6_s1:1 1.031755e+01
2 pgm_pp14_6_s1:1 vs_30_14:A 1.000000e-03
*END

*D_NET pgm_pp14_6_s2 1.109969e-02
*CONN
*I lt_pp14_6_s2:Z O
*I vs_46_14:A I
*CAP
1 pgm_pp14_6_s2:1 1.109969e-02
*RES
1 lt_pp14_6_s2:Z pgm_pp14_6_s2:1 1.131151e+01
2 pgm_pp14_6_s2:1 vs_46_14:A 1.000000e-03
*END

*D_NET pgm_pp14_7_s0 6.686498e-03
*CONN
*I lt_pp14_7_s0:Z O
*I vs_4_14:A I
*CAP
1 pgm_pp14_7_s0:1 6.686498e-03
*RES
1 lt_pp14_7_s0:Z pgm_pp14_7_s0:1 7.587718e+00
2 pgm_pp14_7_s0:1 vs_4_14:A 1.000000e-03
*END

*D_NET pgm_pp14_7_s1 2.150819e-03
*CONN
*I lt_pp14_7_s1:Z O
*I vs_26_14:A I
*CAP
1 pgm_pp14_7_s1:1 2.150819e-03
*RES
1 lt_pp14_7_s1:Z pgm_pp14_7_s1:1 2.440710e+00
2 pgm_pp14_7_s1:1 vs_26_14:A 1.000000e-03
*END

*D_NET pgm_pp14_7_s3 1.514461e-02
*CONN
*I lt_pp14_7_s3:Z O
*I vs_62_14:A I
*I vs_60_14:A I
*I vs_55_14:A I
*CAP
1 pgm_pp14_7_s3:1 1.514461e-02
*RES
1 lt_pp14_7_s3:Z pgm_pp14_7_s3:1 1.718583e+01
2 pgm_pp14_7_s3:1 vs_62_14:A 1.000000e-03
3 pgm_pp14_7_s3:1 vs_60_14:A 1.000000e-03
4 pgm_pp14_7_s3:1 vs_55_14:A 1.000000e-03
*END

*D_NET pgm_pp14_8_s0 5.984199e-03
*CONN
*I lt_pp14_8_s0:Z O
*I vs_6_14:A I
*CAP
1 pgm_pp14_8_s0:1 5.984199e-03
*RES
1 lt_pp14_8_s0:Z pgm_pp14_8_s0:1 5.406388e+00
2 pgm_pp14_8_s0:1 vs_6_14:A 1.000000e-03
*END

*D_NET pgm_pp15_0_s0 1.033225e-02
*CONN
*I lt_pp15_0_s0:Z O
*I vs_6_15:A I
*CAP
1 pgm_pp15_0_s0:1 1.033225e-02
*RES
1 lt_pp15_0_s0:Z pgm_pp15_0_s0:1 9.432780e+00
2 pgm_pp15_0_s0:1 vs_6_15:A 1.000000e-03
*END

*D_NET pgm_pp15_0_s1 6.409957e-03
*CONN
*I lt_pp15_0_s1:Z O
*I vs_19_15:A I
*I vs_17_15:A I
*CAP
1 pgm_pp15_0_s1:1 6.409957e-03
*RES
1 lt_pp15_0_s1:Z pgm_pp15_0_s1:1 5.989689e+00
2 pgm_pp15_0_s1:1 vs_19_15:A 1.000000e-03
3 pgm_pp15_0_s1:1 vs_17_15:A 1.000000e-03
*END

*D_NET pgm_pp15_11_s0 1.426963e-02
*CONN
*I lt_pp15_11_s0:Z O
*I vs_3_15:A I
*CAP
1 pgm_pp15_11_s0:1 1.426963e-02
*RES
1 lt_pp15_11_s0:Z pgm_pp15_11_s0:1 1.490870e+01
2 pgm_pp15_11_s0:1 vs_3_15:A 1.000000e-03
*END

*D_NET pgm_pp15_12_s1 8.398858e-03
*CONN
*I lt_pp15_12_s1:Z O
*I vs_25_15:A I
*CAP
1 pgm_pp15_12_s1:1 8.398858e-03
*RES
1 lt_pp15_12_s1:Z pgm_pp15_12_s1:1 9.530873e+00
2 pgm_pp15_12_s1:1 vs_25_15:A 1.000000e-03
*END

*D_NET pgm_pp15_1_s0 1.465772e-02
*CONN
*I lt_pp15_1_s0:Z O
*I vs_12_15:A I
*CAP
1 pgm_pp15_1_s0:1 1.465772e-02
*RES
1 lt_pp15_1_s0:Z pgm_pp15_1_s0:1 1.534911e+01
2 pgm_pp15_1_s0:1 vs_12_15:A 1.000000e-03
*END

*D_NET pgm_pp15_2_s0 1.150348e-02
*CONN
*I lt_pp15_2_s0:Z O
*I vs_10_15:A I
*CAP
1 pgm_pp15_2_s0:1 1.150348e-02
*RES
1 lt_pp15_2_s0:Z pgm_pp15_2_s0:1 1.205769e+01
2 pgm_pp15_2_s0:1 vs_10_15:A 1.000000e-03
*END

*D_NET pgm_pp15_2_s2 3.860216e-03
*CONN
*I lt_pp15_2_s2:Z O
*I vs_32_15:A I
*CAP
1 pgm_pp15_2_s2:1 3.860216e-03
*RES
1 lt_pp15_2_s2:Z pgm_pp15_2_s2:1 4.380504e+00
2 pgm_pp15_2_s2:1 vs_32_15:A 1.000000e-03
*END

*D_NET pgm_pp15_3_s0 6.342841e-03
*CONN
*I lt_pp15_3_s0:Z O
*I vs_7_15:A I
*CAP
1 pgm_pp15_3_s0:1 6.342841e-03
*RES
1 lt_pp15_3_s0:Z pgm_pp15_3_s0:1 7.197742e+00
2 pgm_pp15_3_s0:1 vs_7_15:A 1.000000e-03
*END

*D_NET pgm_pp15_3_s1 4.091295e-03
*CONN
*I lt_pp15_3_s1:Z O
*I vs_22_15:A I
*CAP
1 pgm_pp15_3_s1:1 4.091295e-03
*RES
1 lt_pp15_3_s1:Z pgm_pp15_3_s1:1 4.642729e+00
2 pgm_pp15_3_s1:1 vs_22_15:A 1.000000e-03
*END

*D_NET pgm_pp15_4_s3 1.324033e-02
*CONN
*I lt_pp15_4_s3:Z O
*I vs_62_15:A I
*I vs_60_15:A I
*I vs_54_15:A I
*CAP
1 pgm_pp15_4_s3:1 1.324033e-02
*RES
1 lt_pp15_4_s3:Z pgm_pp15_4_s3:1 1.315223e+01
2 pgm_pp15_4_s3:1 vs_62_15:A 1.000000e-03
3 pgm_pp15_4_s3:1 vs_60_15:A 1.000000e-03
4 pgm_pp15_4_s3:1 vs_54_15:A 1.000000e-03
*END

*D_NET pgm_pp15_5_s3 1.190949e-02
*CONN
*I lt_pp15_5_s3:Z O
*I vs_58_15:A I
*I vs_57_15:A I
*I vs_50_15:A I
*CAP
1 pgm_pp15_5_s3:1 1.190949e-02
*RES
1 lt_pp15_5_s3:Z pgm_pp15_5_s3:1 1.351468e+01
2 pgm_pp15_5_s3:1 vs_58_15:A 1.000000e-03
3 pgm_pp15_5_s3:1 vs_57_15:A 1.000000e-03
4 pgm_pp15_5_s3:1 vs_50_15:A 1.000000e-03
*END

*D_NET pgm_pp15_6_s2 3.955018e-03
*CONN
*I lt_pp15_6_s2:Z O
*I vs_42_15:A I
*CAP
1 pgm_pp15_6_s2:1 3.955018e-03
*RES
1 lt_pp15_6_s2:Z pgm_pp15_6_s2:1 4.488083e+00
2 pgm_pp15_6_s2:1 vs_42_15:A 1.000000e-03
*END

*D_NET pgm_pp15_8_s1 5.255581e-03
*CONN
*I lt_pp15_8_s1:Z O
*I vs_29_15:A I
*CAP
1 pgm_pp15_8_s1:1 5.255581e-03
*RES
1 lt_pp15_8_s1:Z pgm_pp15_8_s1:1 5.963940e+00
2 pgm_pp15_8_s1:1 vs_29_15:A 1.000000e-03
*END

*D_NET pgm_pp15_8_s3 7.622667e-03
*CONN
*I lt_pp15_8_s3:Z O
*I vs_63_15:A I
*CAP
1 pgm_pp15_8_s3:1 7.622667e-03
*RES
1 lt_pp15_8_s3:Z pgm_pp15_8_s3:1 8.650066e+00
2 pgm_pp15_8_s3:1 vs_63_15:A 1.000000e-03
*END

*D_NET pgm_pp15_9_s2 1.304119e-02
*CONN
*I lt_pp15_9_s2:Z O
*I vs_33_15:A I
*CAP
1 pgm_pp15_9_s2:1 1.304119e-02
*RES
1 lt_pp15_9_s2:Z pgm_pp15_9_s2:1 1.479891e+01
2 pgm_pp15_9_s2:1 vs_33_15:A 1.000000e-03
*END

*D_NET pgm_pp16_0_s0 1.955586e-02
*CONN
*I lt_pp16_0_s0:Z O
*I vs_14_16:A I
*CAP
1 pgm_pp16_0_s0:1 1.955586e-02
*RES
1 lt_pp16_0_s0:Z pgm_pp16_0_s0:1 2.219164e+01
2 pgm_pp16_0_s0:1 vs_14_16:A 1.000000e-03
*END

*D_NET pgm_pp16_0_s3 2.262806e-02
*CONN
*I lt_pp16_0_s3:Z O
*I vs_62_16:A I
*I vs_52_16:A I
*CAP
1 pgm_pp16_0_s3:1 2.262806e-02
*RES
1 lt_pp16_0_s3:Z pgm_pp16_0_s3:1 2.280993e+01
2 pgm_pp16_0_s3:1 vs_62_16:A 1.000000e-03
3 pgm_pp16_0_s3:1 vs_52_16:A 1.000000e-03
*END

*D_NET pgm_pp16_10_s1 3.321030e-03
*CONN
*I lt_pp16_10_s1:Z O
*I vs_30_16:A I
*CAP
1 pgm_pp16_10_s1:1 3.321030e-03
*RES
1 lt_pp16_10_s1:Z pgm_pp16_10_s1:1 3.768645e+00
2 pgm_pp16_10_s1:1 vs_30_16:A 1.000000e-03
*END

*D_NET pgm_pp16_10_s3 1.550369e-02
*CONN
*I lt_pp16_10_s3:Z O
*I vs_50_16:A I
*CAP
1 pgm_pp16_10_s3:1 1.550369e-02
*RES
1 lt_pp16_10_s3:Z pgm_pp16_10_s3:1 1.587715e+01
2 pgm_pp16_10_s3:1 vs_50_16:A 1.000000e-03
*END

*D_NET pgm_pp16_11_s2 1.444248e-02
*CONN
*I lt_pp16_11_s2:Z O
*I vs_35_16:A I
*CAP
1 pgm_pp16_11_s2:1 1.444248e-02
*RES
1 lt_pp16_11_s2:Z pgm_pp16_11_s2:1 1.638907e+01
2 pgm_pp16_11_s2:1 vs_35_16:A 1.000000e-03
*END

*D_NET pgm_pp16_1_s0 2.657416e-03
*CONN
*I lt_pp16_1_s0:Z O
*I vs_2_16:A I
*CAP
1 pgm_pp16_1_s0:1 2.657416e-03
*RES
1 lt_pp16_1_s0:Z pgm_pp16_1_s0:1 3.015588e+00
2 pgm_pp16_1_s0:1 vs_2_16:A 1.000000e-03
*END

*D_NET pgm_pp16_1_s1 1.790571e-02
*CONN
*I lt_pp16_1_s1:Z O
*I vs_29_16:A I
*I vs_19_16:A I
*CAP
1 pgm_pp16_1_s1:1 1.790571e-02
*RES
1 lt_pp16_1_s1:Z pgm_pp16_1_s1:1 2.031908e+01
2 pgm_pp16_1_s1:1 vs_29_16:A 1.000000e-03
3 pgm_pp16_1_s1:1 vs_19_16:A 1.000000e-03
*END

*D_NET pgm_pp16_1_s2 8.811707e-03
*CONN
*I lt_pp16_1_s2:Z O
*I vs_39_16:A I
*CAP
1 pgm_pp16_1_s2:1 8.811707e-03
*RES
1 lt_pp16_1_s2:Z pgm_pp16_1_s2:1 8.427194e+00
2 pgm_pp16_1_s2:1 vs_39_16:A 1.000000e-03
*END

*D_NET pgm_pp16_1_s3 1.100356e-02
*CONN
*I lt_pp16_1_s3:Z O
*I vs_56_16:A I
*CAP
1 pgm_pp16_1_s3:1 1.100356e-02
*RES
1 lt_pp16_1_s3:Z pgm_pp16_1_s3:1 1.077049e+01
2 pgm_pp16_1_s3:1 vs_56_16:A 1.000000e-03
*END

*D_NET pgm_pp16_2_s2 2.947610e-03
*CONN
*I lt_pp16_2_s2:Z O
*I vs_34_16:A I
*CAP
1 pgm_pp16_2_s2:1 2.947610e-03
*RES
1 lt_pp16_2_s2:Z pgm_pp16_2_s2:1 2.348639e+00
2 pgm_pp16_2_s2:1 vs_34_16:A 1.000000e-03
*END

*D_NET pgm_pp16_3_s0 1.049339e-02
*CONN
*I lt_pp16_3_s0:Z O
*I vs_11_16:A I
*CAP
1 pgm_pp16_3_s0:1 1.049339e-02
*RES
1 lt_pp16_3_s0:Z pgm_pp16_3_s0:1 1.190771e+01
2 pgm_pp16_3_s0:1 vs_11_16:A 1.000000e-03
*END

*D_NET pgm_pp16_3_s2 5.335571e-03
*CONN
*I lt_pp16_3_s2:Z O
*I vs_32_16:A I
*CAP
1 pgm_pp16_3_s2:1 5.335571e-03
*RES
1 lt_pp16_3_s2:Z pgm_pp16_3_s2:1 6.054710e+00
2 pgm_pp16_3_s2:1 vs_32_16:A 1.000000e-03
*END

*D_NET pgm_pp16_4_s0 1.385293e-02
*CONN
*I lt_pp16_4_s0:Z O
*I vs_15_16:A I
*I vs_12_16:A I
*CAP
1 pgm_pp16_4_s0:1 1.385293e-02
*RES
1 lt_pp16_4_s0:Z pgm_pp16_4_s0:1 1.572006e+01
2 pgm_pp16_4_s0:1 vs_15_16:A 1.000000e-03
3 pgm_pp16_4_s0:1 vs_12_16:A 1.000000e-03
*END

*D_NET pgm_pp16_4_s3 1.102665e-02
*CONN
*I lt_pp16_4_s3:Z O
*I vs_61_16:A I
*CAP
1 pgm_pp16_4_s3:1 1.102665e-02
*RES
1 lt_pp16_4_s3:Z pgm_pp16_4_s3:1 1.251284e+01
2 pgm_pp16_4_s3:1 vs_61_16:A 1.000000e-03
*END

*D_NET pgm_pp16_5_s0 5.243731e-03
*CONN
*I lt_pp16_5_s0:Z O
*I vs_10_16:A I
*CAP
1 pgm_pp16_5_s0:1 5.243731e-03
*RES
1 lt_pp16_5_s0:Z pgm_pp16_5_s0:1 5.950492e+00
2 pgm_pp16_5_s0:1 vs_10_16:A 1.000000e-03
*END

*D_NET pgm_pp16_5_s2 1.071558e-02
*CONN
*I lt_pp16_5_s2:Z O
*I vs_45_16:A I
*CAP
1 pgm_pp16_5_s2:1 1.071558e-02
*RES
1 lt_pp16_5_s2:Z pgm_pp16_5_s2:1 1.215985e+01
2 pgm_pp16_5_s2:1 vs_45_16:A 1.000000e-03
*END

*D_NET pgm_pp16_6_s0 5.193368e-03
*CONN
*I lt_pp16_6_s0:Z O
*I vs_3_16:A I
*CAP
1 pgm_pp16_6_s0:1 5.193368e-03
*RES
1 lt_pp16_6_s0:Z pgm_pp16_6_s0:1 5.893341e+00
2 pgm_pp16_6_s0:1 vs_3_16:A 1.000000e-03
*END

*D_NET pgm_pp16_7_s0 5.868831e-03
*CONN
*I lt_pp16_7_s0:Z O
*I vs_4_16:A I
*CAP
1 pgm_pp16_7_s0:1 5.868831e-03
*RES
1 lt_pp16_7_s0:Z pgm_pp16_7_s0:1 6.659845e+00
2 pgm_pp16_7_s0:1 vs_4_16:A 1.000000e-03
*END

*D_NET pgm_pp16_7_s1 1.219982e-02
*CONN
*I lt_pp16_7_s1:Z O
*I vs_31_16:A I
*CAP
1 pgm_pp16_7_s1:1 1.219982e-02
*RES
1 lt_pp16_7_s1:Z pgm_pp16_7_s1:1 1.384414e+01
2 pgm_pp16_7_s1:1 vs_31_16:A 1.000000e-03
*END

*D_NET pgm_pp16_8_s3 6.645022e-03
*CONN
*I lt_pp16_8_s3:Z O
*I vs_53_16:A I
*CAP
1 pgm_pp16_8_s3:1 6.645022e-03
*RES
1 lt_pp16_8_s3:Z pgm_pp16_8_s3:1 7.540652e+00
2 pgm_pp16_8_s3:1 vs_53_16:A 1.000000e-03
*END

*D_NET pgm_pp16_9_s1 6.959053e-03
*CONN
*I lt_pp16_9_s1:Z O
*I vs_27_16:A I
*I vs_24_16:A I
*CAP
1 pgm_pp16_9_s1:1 6.959053e-03
*RES
1 lt_pp16_9_s1:Z pgm_pp16_9_s1:1 7.897009e+00
2 pgm_pp16_9_s1:1 vs_27_16:A 1.000000e-03
3 pgm_pp16_9_s1:1 vs_24_16:A 1.000000e-03
*END

*D_NET pgm_pp16_9_s2 1.477132e-02
*CONN
*I lt_pp16_9_s2:Z O
*I vs_47_16:A I
*I vs_38_16:A I
*CAP
1 pgm_pp16_9_s2:1 1.477132e-02
*RES
1 lt_pp16_9_s2:Z pgm_pp16_9_s2:1 1.676223e+01
2 pgm_pp16_9_s2:1 vs_47_16:A 1.000000e-03
3 pgm_pp16_9_s2:1 vs_38_16:A 1.000000e-03
*END

*D_NET pgm_pp17_0_s1 1.390258e-02
*CONN
*I lt_pp17_0_s1:Z O
*I vs_25_17:A I
*I vs_23_17:A I
*CAP
1 pgm_pp17_0_s1:1 1.390258e-02
*RES
1 lt_pp17_0_s1:Z pgm_pp17_0_s1:1 1.362830e+01
2 pgm_pp17_0_s1:1 vs_25_17:A 1.000000e-03
3 pgm_pp17_0_s1:1 vs_23_17:A 1.000000e-03
*END

*D_NET pgm_pp17_0_s2 1.912629e-02
*CONN
*I lt_pp17_0_s2:Z O
*I vs_44_17:A I
*I vs_33_17:A I
*CAP
1 pgm_pp17_0_s2:1 1.912629e-02
*RES
1 lt_pp17_0_s2:Z pgm_pp17_0_s2:1 2.170417e+01
2 pgm_pp17_0_s2:1 vs_44_17:A 1.000000e-03
3 pgm_pp17_0_s2:1 vs_33_17:A 1.000000e-03
*END

*D_NET pgm_pp17_0_s3 1.987878e-03
*CONN
*I lt_pp17_0_s3:Z O
*I vs_48_17:A I
*CAP
1 pgm_pp17_0_s3:1 1.987878e-03
*RES
1 lt_pp17_0_s3:Z pgm_pp17_0_s3:1 2.255808e+00
2 pgm_pp17_0_s3:1 vs_48_17:A 1.000000e-03
*END

*D_NET pgm_pp17_10_s0 8.466859e-03
*CONN
*I lt_pp17_10_s0:Z O
*I vs_6_17:A I
*CAP
1 pgm_pp17_10_s0:1 8.466859e-03
*RES
1 lt_pp17_10_s0:Z pgm_pp17_10_s0:1 8.611784e+00
2 pgm_pp17_10_s0:1 vs_6_17:A 1.000000e-03
*END

*D_NET pgm_pp17_10_s1 1.046376e-02
*CONN
*I lt_pp17_10_s1:Z O
*I vs_21_17:A I
*CAP
1 pgm_pp17_10_s1:1 1.046376e-02
*RES
1 lt_pp17_10_s1:Z pgm_pp17_10_s1:1 1.187409e+01
2 pgm_pp17_10_s1:1 vs_21_17:A 1.000000e-03
*END

*D_NET pgm_pp17_10_s3 1.306489e-03
*CONN
*I lt_pp17_10_s3:Z O
*I vs_60_17:A I
*CAP
1 pgm_pp17_10_s3:1 1.306489e-03
*RES
1 lt_pp17_10_s3:Z pgm_pp17_10_s3:1 1.482580e+00
2 pgm_pp17_10_s3:1 vs_60_17:A 1.000000e-03
*END

*D_NET pgm_pp17_11_s2 1.769537e-02
*CONN
*I lt_pp17_11_s2:Z O
*I vs_32_17:A I
*CAP
1 pgm_pp17_11_s2:1 1.769537e-02
*RES
1 lt_pp17_11_s2:Z pgm_pp17_11_s2:1 2.008039e+01
2 pgm_pp17_11_s2:1 vs_32_17:A 1.000000e-03
*END

*D_NET pgm_pp17_12_s2 1.198461e-02
*CONN
*I lt_pp17_12_s2:Z O
*I vs_38_17:A I
*CAP
1 pgm_pp17_12_s2:1 1.198461e-02
*RES
1 lt_pp17_12_s2:Z pgm_pp17_12_s2:1 1.202775e+01
2 pgm_pp17_12_s2:1 vs_38_17:A 1.000000e-03
*END

*D_NET pgm_pp17_12_s3 7.659271e-03
*CONN
*I lt_pp17_12_s3:Z O
*I vs_58_17:A I
*CAP
1 pgm_pp17_12_s3:1 7.659271e-03
*RES
1 lt_pp17_12_s3:Z pgm_pp17_12_s3:1 7.119430e+00
2 pgm_pp17_12_s3:1 vs_58_17:A 1.000000e-03
*END

*D_NET pgm_pp17_2_s0 1.427763e-02
*CONN
*I lt_pp17_2_s0:Z O
*I vs_12_17:A I
*CAP
1 pgm_pp17_2_s0:1 1.427763e-02
*RES
1 lt_pp17_2_s0:Z pgm_pp17_2_s0:1 1.462983e+01
2 pgm_pp17_2_s0:1 vs_12_17:A 1.000000e-03
*END

*D_NET pgm_pp17_2_s1 1.079839e-02
*CONN
*I lt_pp17_2_s1:Z O
*I vs_26_17:A I
*CAP
1 pgm_pp17_2_s1:1 1.079839e-02
*RES
1 lt_pp17_2_s1:Z pgm_pp17_2_s1:1 1.125757e+01
2 pgm_pp17_2_s1:1 vs_26_17:A 1.000000e-03
*END

*D_NET pgm_pp17_2_s2 1.707620e-02
*CONN
*I lt_pp17_2_s2:Z O
*I vs_47_17:A I
*CAP
1 pgm_pp17_2_s2:1 1.707620e-02
*RES
1 lt_pp17_2_s2:Z pgm_pp17_2_s2:1 1.937776e+01
2 pgm_pp17_2_s2:1 vs_47_17:A 1.000000e-03
*END

*D_NET pgm_pp17_2_s3 5.261507e-03
*CONN
*I lt_pp17_2_s3:Z O
*I vs_52_17:A I
*I vs_49_17:A I
*CAP
1 pgm_pp17_2_s3:1 5.261507e-03
*RES
1 lt_pp17_2_s3:Z pgm_pp17_2_s3:1 5.970663e+00
2 pgm_pp17_2_s3:1 vs_52_17:A 1.000000e-03
3 pgm_pp17_2_s3:1 vs_49_17:A 1.000000e-03
*END

*D_NET pgm_pp17_3_s2 2.832207e-03
*CONN
*I lt_pp17_3_s2:Z O
*I vs_35_17:A I
*I vs_34_17:A I
*CAP
1 pgm_pp17_3_s2:1 2.832207e-03
*RES
1 lt_pp17_3_s2:Z pgm_pp17_3_s2:1 3.213938e+00
2 pgm_pp17_3_s2:1 vs_35_17:A 1.000000e-03
3 pgm_pp17_3_s2:1 vs_34_17:A 1.000000e-03
*END

*D_NET pgm_pp17_4_s2 1.107109e-02
*CONN
*I lt_pp17_4_s2:Z O
*I vs_45_17:A I
*CAP
1 pgm_pp17_4_s2:1 1.107109e-02
*RES
1 lt_pp17_4_s2:Z pgm_pp17_4_s2:1 1.256327e+01
2 pgm_pp17_4_s2:1 vs_45_17:A 1.000000e-03
*END

*D_NET pgm_pp17_4_s3 2.968485e-03
*CONN
*I lt_pp17_4_s3:Z O
*I vs_51_17:A I
*CAP
1 pgm_pp17_4_s3:1 2.968485e-03
*RES
1 lt_pp17_4_s3:Z pgm_pp17_4_s3:1 3.368584e+00
2 pgm_pp17_4_s3:1 vs_51_17:A 1.000000e-03
*END

*D_NET pgm_pp17_5_s3 2.725555e-04
*CONN
*I lt_pp17_5_s3:Z O
*I vs_54_17:A I
*CAP
1 pgm_pp17_5_s3:1 2.725555e-04
*RES
1 lt_pp17_5_s3:Z pgm_pp17_5_s3:1 3.092911e-01
2 pgm_pp17_5_s3:1 vs_54_17:A 1.000000e-03
*END

*D_NET pgm_pp17_6_s0 2.427467e-02
*CONN
*I lt_pp17_6_s0:Z O
*I vs_15_17:A I
*I vs_2_17:A I
*CAP
1 pgm_pp17_6_s0:1 2.427467e-02
*RES
1 lt_pp17_6_s0:Z pgm_pp17_6_s0:1 2.353823e+01
2 pgm_pp17_6_s0:1 vs_15_17:A 1.000000e-03
3 pgm_pp17_6_s0:1 vs_2_17:A 1.000000e-03
*END

*D_NET pgm_pp17_6_s1 5.294095e-03
*CONN
*I lt_pp17_6_s1:Z O
*I vs_27_17:A I
*CAP
1 pgm_pp17_6_s1:1 5.294095e-03
*RES
1 lt_pp17_6_s1:Z pgm_pp17_6_s1:1 6.007644e+00
2 pgm_pp17_6_s1:1 vs_27_17:A 1.000000e-03
*END

*D_NET pgm_pp17_6_s2 3.315105e-03
*CONN
*I lt_pp17_6_s2:Z O
*I vs_39_17:A I
*I vs_37_17:A I
*CAP
1 pgm_pp17_6_s2:1 3.315105e-03
*RES
1 lt_pp17_6_s2:Z pgm_pp17_6_s2:1 3.761921e+00
2 pgm_pp17_6_s2:1 vs_39_17:A 1.000000e-03
3 pgm_pp17_6_s2:1 vs_37_17:A 1.000000e-03
*END

*D_NET pgm_pp17_7_s0 5.800692e-03
*CONN
*I lt_pp17_7_s0:Z O
*I vs_5_17:A I
*CAP
1 pgm_pp17_7_s0:1 5.800692e-03
*RES
1 lt_pp17_7_s0:Z pgm_pp17_7_s0:1 6.582522e+00
2 pgm_pp17_7_s0:1 vs_5_17:A 1.000000e-03
*END

*D_NET pgm_pp17_7_s1 5.391859e-04
*CONN
*I lt_pp17_7_s1:Z O
*I vs_24_17:A I
*CAP
1 pgm_pp17_7_s1:1 5.391859e-04
*RES
1 lt_pp17_7_s1:Z pgm_pp17_7_s1:1 6.118585e-01
2 pgm_pp17_7_s1:1 vs_24_17:A 1.000000e-03
*END

*D_NET pgm_pp17_7_s3 5.033389e-03
*CONN
*I lt_pp17_7_s3:Z O
*I vs_53_17:A I
*CAP
1 pgm_pp17_7_s3:1 5.033389e-03
*RES
1 lt_pp17_7_s3:Z pgm_pp17_7_s3:1 5.711800e+00
2 pgm_pp17_7_s3:1 vs_53_17:A 1.000000e-03
*END

*D_NET pgm_pp17_8_s0 2.020466e-03
*CONN
*I lt_pp17_8_s0:Z O
*I vs_11_17:A I
*CAP
1 pgm_pp17_8_s0:1 2.020466e-03
*RES
1 lt_pp17_8_s0:Z pgm_pp17_8_s0:1 2.292789e+00
2 pgm_pp17_8_s0:1 vs_11_17:A 1.000000e-03
*END

*D_NET pgm_pp17_8_s2 8.070013e-03
*CONN
*I lt_pp17_8_s2:Z O
*I vs_42_17:A I
*I vs_36_17:A I
*CAP
1 pgm_pp17_8_s2:1 8.070013e-03
*RES
1 lt_pp17_8_s2:Z pgm_pp17_8_s2:1 9.157707e+00
2 pgm_pp17_8_s2:1 vs_42_17:A 1.000000e-03
3 pgm_pp17_8_s2:1 vs_36_17:A 1.000000e-03
*END

*D_NET pgm_pp17_9_s1 3.501746e-03
*CONN
*I lt_pp17_9_s1:Z O
*I vs_29_17:A I
*CAP
1 pgm_pp17_9_s1:1 3.501746e-03
*RES
1 lt_pp17_9_s1:Z pgm_pp17_9_s1:1 3.973719e+00
2 pgm_pp17_9_s1:1 vs_29_17:A 1.000000e-03
*END

*D_NET pgm_pp18_0_s0 1.201379e-02
*CONN
*I lt_pp18_0_s0:Z O
*I vs_7_18:A I
*I vs_3_18:A I
*CAP
1 pgm_pp18_0_s0:1 1.201379e-02
*RES
1 lt_pp18_0_s0:Z pgm_pp18_0_s0:1 1.191688e+01
2 pgm_pp18_0_s0:1 vs_7_18:A 1.000000e-03
3 pgm_pp18_0_s0:1 vs_3_18:A 1.000000e-03
*END

*D_NET pgm_pp18_0_s2 1.936329e-02
*CONN
*I lt_pp18_0_s2:Z O
*I vs_46_18:A I
*CAP
1 pgm_pp18_0_s2:1 1.936329e-02
*RES
1 lt_pp18_0_s2:Z pgm_pp18_0_s2:1 2.197312e+01
2 pgm_pp18_0_s2:1 vs_46_18:A 1.000000e-03
*END

*D_NET pgm_pp18_11_s0 7.983962e-03
*CONN
*I lt_pp18_11_s0:Z O
*I vs_8_18:A I
*CAP
1 pgm_pp18_11_s0:1 7.983962e-03
*RES
1 lt_pp18_11_s0:Z pgm_pp18_11_s0:1 8.063801e+00
2 pgm_pp18_11_s0:1 vs_8_18:A 1.000000e-03
*END

*D_NET pgm_pp18_11_s1 1.427361e-02
*CONN
*I lt_pp18_11_s1:Z O
*I vs_20_18:A I
*CAP
1 pgm_pp18_11_s1:1 1.427361e-02
*RES
1 lt_pp18_11_s1:Z pgm_pp18_11_s1:1 1.619744e+01
2 pgm_pp18_11_s1:1 vs_20_18:A 1.000000e-03
*END

*D_NET pgm_pp18_11_s3 3.326955e-03
*CONN
*I lt_pp18_11_s3:Z O
*I vs_63_18:A I
*CAP
1 pgm_pp18_11_s3:1 3.326955e-03
*RES
1 lt_pp18_11_s3:Z pgm_pp18_11_s3:1 3.775369e+00
2 pgm_pp18_11_s3:1 vs_63_18:A 1.000000e-03
*END

*D_NET pgm_pp18_12_s0 5.991350e-03
*CONN
*I lt_pp18_12_s0:Z O
*I vs_11_18:A I
*CAP
1 pgm_pp18_12_s0:1 5.991350e-03
*RES
1 lt_pp18_12_s0:Z pgm_pp18_12_s0:1 5.226703e+00
2 pgm_pp18_12_s0:1 vs_11_18:A 1.000000e-03
*END

*D_NET pgm_pp18_12_s2 1.275975e-02
*CONN
*I lt_pp18_12_s2:Z O
*I vs_39_18:A I
*CAP
1 pgm_pp18_12_s2:1 1.275975e-02
*RES
1 lt_pp18_12_s2:Z pgm_pp18_12_s2:1 1.447953e+01
2 pgm_pp18_12_s2:1 vs_39_18:A 1.000000e-03
*END

*D_NET pgm_pp18_1_s1 1.868783e-02
*CONN
*I lt_pp18_1_s1:Z O
*I vs_31_18:A I
*CAP
1 pgm_pp18_1_s1:1 1.868783e-02
*RES
1 lt_pp18_1_s1:Z pgm_pp18_1_s1:1 2.120661e+01
2 pgm_pp18_1_s1:1 vs_31_18:A 1.000000e-03
*END

*D_NET pgm_pp18_1_s2 3.926446e-03
*CONN
*I lt_pp18_1_s2:Z O
*I vs_35_18:A I
*CAP
1 pgm_pp18_1_s2:1 3.926446e-03
*RES
1 lt_pp18_1_s2:Z pgm_pp18_1_s2:1 2.883487e+00
2 pgm_pp18_1_s2:1 vs_35_18:A 1.000000e-03
*END

*D_NET pgm_pp18_2_s0 1.680364e-02
*CONN
*I lt_pp18_2_s0:Z O
*I vs_15_18:A I
*CAP
1 pgm_pp18_2_s0:1 1.680364e-02
*RES
1 lt_pp18_2_s0:Z pgm_pp18_2_s0:1 1.906847e+01
2 pgm_pp18_2_s0:1 vs_15_18:A 1.000000e-03
*END

*D_NET pgm_pp18_2_s1 1.622594e-02
*CONN
*I lt_pp18_2_s1:Z O
*I vs_30_18:A I
*I vs_27_18:A I
*CAP
1 pgm_pp18_2_s1:1 1.622594e-02
*RES
1 lt_pp18_2_s1:Z pgm_pp18_2_s1:1 1.841291e+01
2 pgm_pp18_2_s1:1 vs_30_18:A 1.000000e-03
3 pgm_pp18_2_s1:1 vs_27_18:A 1.000000e-03
*END

*D_NET pgm_pp18_3_s2 9.920148e-03
*CONN
*I lt_pp18_3_s2:Z O
*I vs_41_18:A I
*CAP
1 pgm_pp18_3_s2:1 9.920148e-03
*RES
1 lt_pp18_3_s2:Z pgm_pp18_3_s2:1 9.840612e+00
2 pgm_pp18_3_s2:1 vs_41_18:A 1.000000e-03
*END

*D_NET pgm_pp18_3_s3 4.897112e-03
*CONN
*I lt_pp18_3_s3:Z O
*I vs_48_18:A I
*CAP
1 pgm_pp18_3_s3:1 4.897112e-03
*RES
1 lt_pp18_3_s3:Z pgm_pp18_3_s3:1 5.557155e+00
2 pgm_pp18_3_s3:1 vs_48_18:A 1.000000e-03
*END

*D_NET pgm_pp18_4_s0 7.107452e-03
*CONN
*I lt_pp18_4_s0:Z O
*I vs_9_18:A I
*CAP
1 pgm_pp18_4_s0:1 7.107452e-03
*RES
1 lt_pp18_4_s0:Z pgm_pp18_4_s0:1 6.825015e+00
2 pgm_pp18_4_s0:1 vs_9_18:A 1.000000e-03
*END

*D_NET pgm_pp18_4_s1 4.846748e-03
*CONN
*I lt_pp18_4_s1:Z O
*I vs_24_18:A I
*CAP
1 pgm_pp18_4_s1:1 4.846748e-03
*RES
1 lt_pp18_4_s1:Z pgm_pp18_4_s1:1 5.500003e+00
2 pgm_pp18_4_s1:1 vs_24_18:A 1.000000e-03
*END

*D_NET pgm_pp18_5_s3 9.569374e-03
*CONN
*I lt_pp18_5_s3:Z O
*I vs_60_18:A I
*CAP
1 pgm_pp18_5_s3:1 9.569374e-03
*RES
1 lt_pp18_5_s3:Z pgm_pp18_5_s3:1 1.000688e+01
2 pgm_pp18_5_s3:1 vs_60_18:A 1.000000e-03
*END

*D_NET pgm_pp18_6_s0 1.741985e-02
*CONN
*I lt_pp18_6_s0:Z O
*I vs_14_18:A I
*I vs_4_18:A I
*CAP
1 pgm_pp18_6_s0:1 1.741985e-02
*RES
1 lt_pp18_6_s0:Z pgm_pp18_6_s0:1 1.976774e+01
2 pgm_pp18_6_s0:1 vs_14_18:A 1.000000e-03
3 pgm_pp18_6_s0:1 vs_4_18:A 1.000000e-03
*END

*D_NET pgm_pp18_6_s3 1.360690e-02
*CONN
*I lt_pp18_6_s3:Z O
*I vs_58_18:A I
*I vs_56_18:A I
*I vs_49_18:A I
*CAP
1 pgm_pp18_6_s3:1 1.360690e-02
*RES
1 lt_pp18_6_s3:Z pgm_pp18_6_s3:1 1.444461e+01
2 pgm_pp18_6_s3:1 vs_58_18:A 1.000000e-03
3 pgm_pp18_6_s3:1 vs_56_18:A 1.000000e-03
4 pgm_pp18_6_s3:1 vs_49_18:A 1.000000e-03
*END

*D_NET pgm_pp18_7_s2 3.440585e-03
*CONN
*I lt_pp18_7_s2:Z O
*I vs_38_18:A I
*CAP
1 pgm_pp18_7_s2:1 3.440585e-03
*RES
1 lt_pp18_7_s2:Z pgm_pp18_7_s2:1 1.787523e+00
2 pgm_pp18_7_s2:1 vs_38_18:A 1.000000e-03
*END

*D_NET pgm_pp18_8_s1 1.265013e-03
*CONN
*I lt_pp18_8_s1:Z O
*I vs_25_18:A I
*CAP
1 pgm_pp18_8_s1:1 1.265013e-03
*RES
1 lt_pp18_8_s1:Z pgm_pp18_8_s1:1 1.435514e+00
2 pgm_pp18_8_s1:1 vs_25_18:A 1.000000e-03
*END

*D_NET pgm_pp18_8_s2 2.959597e-03
*CONN
*I lt_pp18_8_s2:Z O
*I vs_40_18:A I
*CAP
1 pgm_pp18_8_s2:1 2.959597e-03
*RES
1 lt_pp18_8_s2:Z pgm_pp18_8_s2:1 3.358498e+00
2 pgm_pp18_8_s2:1 vs_40_18:A 1.000000e-03
*END

*D_NET pgm_pp18_8_s3 1.026231e-02
*CONN
*I lt_pp18_8_s3:Z O
*I vs_51_18:A I
*CAP
1 pgm_pp18_8_s3:1 1.026231e-02
*RES
1 lt_pp18_8_s3:Z pgm_pp18_8_s3:1 1.164548e+01
2 pgm_pp18_8_s3:1 vs_51_18:A 1.000000e-03
*END

*D_NET pgm_pp18_9_s2 8.207413e-03
*CONN
*I lt_pp18_9_s2:Z O
*I vs_37_18:A I
*CAP
1 pgm_pp18_9_s2:1 8.207413e-03
*RES
1 lt_pp18_9_s2:Z pgm_pp18_9_s2:1 7.973071e+00
2 pgm_pp18_9_s2:1 vs_37_18:A 1.000000e-03
*END

*D_NET pgm_pp19_0_s0 1.775166e-02
*CONN
*I lt_pp19_0_s0:Z O
*I vs_13_19:A I
*CAP
1 pgm_pp19_0_s0:1 1.775166e-02
*RES
1 lt_pp19_0_s0:Z pgm_pp19_0_s0:1 2.014427e+01
2 pgm_pp19_0_s0:1 vs_13_19:A 1.000000e-03
*END

*D_NET pgm_pp19_0_s2 1.719149e-02
*CONN
*I lt_pp19_0_s2:Z O
*I vs_41_19:A I
*CAP
1 pgm_pp19_0_s2:1 1.719149e-02
*RES
1 lt_pp19_0_s2:Z pgm_pp19_0_s2:1 1.463650e+01
2 pgm_pp19_0_s2:1 vs_41_19:A 1.000000e-03
*END

*D_NET pgm_pp19_0_s3 1.540000e-02
*CONN
*I lt_pp19_0_s3:Z O
*I vs_59_19:A I
*CAP
1 pgm_pp19_0_s3:1 1.540000e-02
*RES
1 lt_pp19_0_s3:Z pgm_pp19_0_s3:1 1.575949e+01
2 pgm_pp19_0_s3:1 vs_59_19:A 1.000000e-03
*END

*D_NET pgm_pp19_11_s0 1.249594e-02
*CONN
*I lt_pp19_11_s0:Z O
*I vs_4_19:A I
*CAP
1 pgm_pp19_11_s0:1 1.249594e-02
*RES
1 lt_pp19_11_s0:Z pgm_pp19_11_s0:1 1.318391e+01
2 pgm_pp19_11_s0:1 vs_4_19:A 1.000000e-03
*END

*D_NET pgm_pp19_12_s3 9.384673e-03
*CONN
*I lt_pp19_12_s3:Z O
*I vs_57_19:A I
*CAP
1 pgm_pp19_12_s3:1 9.384673e-03
*RES
1 lt_pp19_12_s3:Z pgm_pp19_12_s3:1 8.501467e+00
2 pgm_pp19_12_s3:1 vs_57_19:A 1.000000e-03
*END

*D_NET pgm_pp19_1_s2 6.953128e-03
*CONN
*I lt_pp19_1_s2:Z O
*I vs_37_19:A I
*CAP
1 pgm_pp19_1_s2:1 6.953128e-03
*RES
1 lt_pp19_1_s2:Z pgm_pp19_1_s2:1 7.890285e+00
2 pgm_pp19_1_s2:1 vs_37_19:A 1.000000e-03
*END

*D_NET pgm_pp19_1_s3 7.722814e-03
*CONN
*I lt_pp19_1_s3:Z O
*I vs_54_19:A I
*CAP
1 pgm_pp19_1_s3:1 7.722814e-03
*RES
1 lt_pp19_1_s3:Z pgm_pp19_1_s3:1 7.623475e+00
2 pgm_pp19_1_s3:1 vs_54_19:A 1.000000e-03
*END

*D_NET pgm_pp19_2_s3 1.597518e-02
*CONN
*I lt_pp19_2_s3:Z O
*I vs_61_19:A I
*CAP
1 pgm_pp19_2_s3:1 1.597518e-02
*RES
1 lt_pp19_2_s3:Z pgm_pp19_2_s3:1 1.655617e+01
2 pgm_pp19_2_s3:1 vs_61_19:A 1.000000e-03
*END

*D_NET pgm_pp19_3_s0 1.124292e-02
*CONN
*I lt_pp19_3_s0:Z O
*I vs_12_19:A I
*CAP
1 pgm_pp19_3_s0:1 1.124292e-02
*RES
1 lt_pp19_3_s0:Z pgm_pp19_3_s0:1 1.275826e+01
2 pgm_pp19_3_s0:1 vs_12_19:A 1.000000e-03
*END

*D_NET pgm_pp19_3_s2 1.309748e-02
*CONN
*I lt_pp19_3_s2:Z O
*I vs_45_19:A I
*CAP
1 pgm_pp19_3_s2:1 1.309748e-02
*RES
1 lt_pp19_3_s2:Z pgm_pp19_3_s2:1 1.486278e+01
2 pgm_pp19_3_s2:1 vs_45_19:A 1.000000e-03
*END

*D_NET pgm_pp19_4_s1 5.732554e-03
*CONN
*I lt_pp19_4_s1:Z O
*I vs_25_19:A I
*CAP
1 pgm_pp19_4_s1:1 5.732554e-03
*RES
1 lt_pp19_4_s1:Z pgm_pp19_4_s1:1 6.505199e+00
2 pgm_pp19_4_s1:1 vs_25_19:A 1.000000e-03
*END

*D_NET pgm_pp19_4_s2 7.042005e-03
*CONN
*I lt_pp19_4_s2:Z O
*I vs_42_19:A I
*CAP
1 pgm_pp19_4_s2:1 7.042005e-03
*RES
1 lt_pp19_4_s2:Z pgm_pp19_4_s2:1 7.991141e+00
2 pgm_pp19_4_s2:1 vs_42_19:A 1.000000e-03
*END

*D_NET pgm_pp19_4_s3 4.983026e-03
*CONN
*I lt_pp19_4_s3:Z O
*I vs_56_19:A I
*CAP
1 pgm_pp19_4_s3:1 4.983026e-03
*RES
1 lt_pp19_4_s3:Z pgm_pp19_4_s3:1 5.654649e+00
2 pgm_pp19_4_s3:1 vs_56_19:A 1.000000e-03
*END

*D_NET pgm_pp19_5_s2 8.564761e-03
*CONN
*I lt_pp19_5_s2:Z O
*I vs_32_19:A I
*CAP
1 pgm_pp19_5_s2:1 8.564761e-03
*RES
1 lt_pp19_5_s2:Z pgm_pp19_5_s2:1 9.719137e+00
2 pgm_pp19_5_s2:1 vs_32_19:A 1.000000e-03
*END

*D_NET pgm_pp19_5_s3 1.531644e-03
*CONN
*I lt_pp19_5_s3:Z O
*I vs_53_19:A I
*CAP
1 pgm_pp19_5_s3:1 1.531644e-03
*RES
1 lt_pp19_5_s3:Z pgm_pp19_5_s3:1 1.738082e+00
2 pgm_pp19_5_s3:1 vs_53_19:A 1.000000e-03
*END

*D_NET pgm_pp19_6_s1 1.635333e-02
*CONN
*I lt_pp19_6_s1:Z O
*I vs_27_19:A I
*I vs_26_19:A I
*I vs_16_19:A I
*CAP
1 pgm_pp19_6_s1:1 1.635333e-02
*RES
1 lt_pp19_6_s1:Z pgm_pp19_6_s1:1 1.855747e+01
2 pgm_pp19_6_s1:1 vs_27_19:A 1.000000e-03
3 pgm_pp19_6_s1:1 vs_26_19:A 1.000000e-03
4 pgm_pp19_6_s1:1 vs_16_19:A 1.000000e-03
*END

*D_NET pgm_pp19_6_s2 1.340368e-02
*CONN
*I lt_pp19_6_s2:Z O
*I vs_46_19:A I
*I vs_38_19:A I
*CAP
1 pgm_pp19_6_s2:1 1.340368e-02
*RES
1 lt_pp19_6_s2:Z pgm_pp19_6_s2:1 1.363808e+01
2 pgm_pp19_6_s2:1 vs_46_19:A 1.000000e-03
3 pgm_pp19_6_s2:1 vs_38_19:A 1.000000e-03
*END

*D_NET pgm_pp19_7_s2 3.854291e-03
*CONN
*I lt_pp19_7_s2:Z O
*I vs_43_19:A I
*CAP
1 pgm_pp19_7_s2:1 3.854291e-03
*RES
1 lt_pp19_7_s2:Z pgm_pp19_7_s2:1 4.373780e+00
2 pgm_pp19_7_s2:1 vs_43_19:A 1.000000e-03
*END

*D_NET pgm_pp19_8_s3 7.077556e-03
*CONN
*I lt_pp19_8_s3:Z O
*I vs_63_19:A I
*I vs_62_19:A I
*I vs_60_19:A I
*CAP
1 pgm_pp19_8_s3:1 7.077556e-03
*RES
1 lt_pp19_8_s3:Z pgm_pp19_8_s3:1 8.031484e+00
2 pgm_pp19_8_s3:1 vs_63_19:A 1.000000e-03
3 pgm_pp19_8_s3:1 vs_62_19:A 1.000000e-03
4 pgm_pp19_8_s3:1 vs_60_19:A 1.000000e-03
*END

*D_NET pgm_pp19_9_s1 7.355456e-03
*CONN
*I lt_pp19_9_s1:Z O
*I vs_22_19:A I
*CAP
1 pgm_pp19_9_s1:1 7.355456e-03
*RES
1 lt_pp19_9_s1:Z pgm_pp19_9_s1:1 7.206605e+00
2 pgm_pp19_9_s1:1 vs_22_19:A 1.000000e-03
*END

*D_NET pgm_pp19_9_s2 5.420462e-03
*CONN
*I lt_pp19_9_s2:Z O
*I vs_40_19:A I
*CAP
1 pgm_pp19_9_s2:1 5.420462e-03
*RES
1 lt_pp19_9_s2:Z pgm_pp19_9_s2:1 4.866828e+00
2 pgm_pp19_9_s2:1 vs_40_19:A 1.000000e-03
*END

*D_NET pgm_pp1_0_s0 1.781196e-02
*CONN
*I lt_pp1_0_s0:Z O
*I vs_13_1:A I
*CAP
1 pgm_pp1_0_s0:1 1.781196e-02
*RES
1 lt_pp1_0_s0:Z pgm_pp1_0_s0:1 1.864052e+01
2 pgm_pp1_0_s0:1 vs_13_1:A 1.000000e-03
*END

*D_NET pgm_pp1_0_s2 1.684825e-02
*CONN
*I lt_pp1_0_s2:Z O
*I vs_43_1:A I
*I vs_39_1:A I
*CAP
1 pgm_pp1_0_s2:1 1.684825e-02
*RES
1 lt_pp1_0_s2:Z pgm_pp1_0_s2:1 1.725896e+01
2 pgm_pp1_0_s2:1 vs_43_1:A 1.000000e-03
3 pgm_pp1_0_s2:1 vs_39_1:A 1.000000e-03
*END

*D_NET pgm_pp1_0_s3 1.896038e-02
*CONN
*I lt_pp1_0_s3:Z O
*I vs_62_1:A I
*CAP
1 pgm_pp1_0_s3:1 1.896038e-02
*RES
1 lt_pp1_0_s3:Z pgm_pp1_0_s3:1 2.151590e+01
2 pgm_pp1_0_s3:1 vs_62_1:A 1.000000e-03
*END

*D_NET pgm_pp1_10_s0 1.545271e-02
*CONN
*I lt_pp1_10_s0:Z O
*I vs_7_1:A I
*I vs_2_1:A I
*CAP
1 pgm_pp1_10_s0:1 1.545271e-02
*RES
1 lt_pp1_10_s0:Z pgm_pp1_10_s0:1 1.753546e+01
2 pgm_pp1_10_s0:1 vs_7_1:A 1.000000e-03
3 pgm_pp1_10_s0:1 vs_2_1:A 1.000000e-03
*END

*D_NET pgm_pp1_10_s2 6.994604e-03
*CONN
*I lt_pp1_10_s2:Z O
*I vs_44_1:A I
*I vs_40_1:A I
*CAP
1 pgm_pp1_10_s2:1 6.994604e-03
*RES
1 lt_pp1_10_s2:Z pgm_pp1_10_s2:1 7.937351e+00
2 pgm_pp1_10_s2:1 vs_44_1:A 1.000000e-03
3 pgm_pp1_10_s2:1 vs_40_1:A 1.000000e-03
*END

*D_NET pgm_pp1_11_s2 7.078575e-03
*CONN
*I lt_pp1_11_s2:Z O
*I vs_41_1:A I
*CAP
1 pgm_pp1_11_s2:1 7.078575e-03
*RES
1 lt_pp1_11_s2:Z pgm_pp1_11_s2:1 6.072348e+00
2 pgm_pp1_11_s2:1 vs_41_1:A 1.000000e-03
*END

*D_NET pgm_pp1_11_s3 1.624317e-02
*CONN
*I lt_pp1_11_s3:Z O
*I vs_63_1:A I
*I vs_55_1:A I
*I vs_52_1:A I
*CAP
1 pgm_pp1_11_s3:1 1.624317e-02
*RES
1 lt_pp1_11_s3:Z pgm_pp1_11_s3:1 1.713572e+01
2 pgm_pp1_11_s3:1 vs_63_1:A 1.000000e-03
3 pgm_pp1_11_s3:1 vs_55_1:A 1.000000e-03
4 pgm_pp1_11_s3:1 vs_52_1:A 1.000000e-03
*END

*D_NET pgm_pp1_1_s0 5.039315e-03
*CONN
*I lt_pp1_1_s0:Z O
*I vs_4_1:A I
*CAP
1 pgm_pp1_1_s0:1 5.039315e-03
*RES
1 lt_pp1_1_s0:Z pgm_pp1_1_s0:1 5.718524e+00
2 pgm_pp1_1_s0:1 vs_4_1:A 1.000000e-03
*END

*D_NET pgm_pp1_1_s1 1.741542e-02
*CONN
*I lt_pp1_1_s1:Z O
*I vs_29_1:A I
*CAP
1 pgm_pp1_1_s1:1 1.741542e-02
*RES
1 lt_pp1_1_s1:Z pgm_pp1_1_s1:1 1.833452e+01
2 pgm_pp1_1_s1:1 vs_29_1:A 1.000000e-03
*END

*D_NET pgm_pp1_1_s3 1.397559e-02
*CONN
*I lt_pp1_1_s3:Z O
*I vs_59_1:A I
*CAP
1 pgm_pp1_1_s3:1 1.397559e-02
*RES
1 lt_pp1_1_s3:Z pgm_pp1_1_s3:1 1.529493e+01
2 pgm_pp1_1_s3:1 vs_59_1:A 1.000000e-03
*END

*D_NET pgm_pp1_2_s1 3.910579e-03
*CONN
*I lt_pp1_2_s1:Z O
*I vs_16_1:A I
*CAP
1 pgm_pp1_2_s1:1 3.910579e-03
*RES
1 lt_pp1_2_s1:Z pgm_pp1_2_s1:1 4.437655e+00
2 pgm_pp1_2_s1:1 vs_16_1:A 1.000000e-03
*END

*D_NET pgm_pp1_2_s3 7.939661e-03
*CONN
*I lt_pp1_2_s3:Z O
*I vs_56_1:A I
*CAP
1 pgm_pp1_2_s3:1 7.939661e-03
*RES
1 lt_pp1_2_s3:Z pgm_pp1_2_s3:1 9.009785e+00
2 pgm_pp1_2_s3:1 vs_56_1:A 1.000000e-03
*END

*D_NET pgm_pp1_4_s1 1.040747e-02
*CONN
*I lt_pp1_4_s1:Z O
*I vs_27_1:A I
*CAP
1 pgm_pp1_4_s1:1 1.040747e-02
*RES
1 lt_pp1_4_s1:Z pgm_pp1_4_s1:1 1.181021e+01
2 pgm_pp1_4_s1:1 vs_27_1:A 1.000000e-03
*END

*D_NET pgm_pp1_5_s0 7.133844e-03
*CONN
*I lt_pp1_5_s0:Z O
*I vs_1_1:A I
*CAP
1 pgm_pp1_5_s0:1 7.133844e-03
*RES
1 lt_pp1_5_s0:Z pgm_pp1_5_s0:1 8.095359e+00
2 pgm_pp1_5_s0:1 vs_1_1:A 1.000000e-03
*END

*D_NET pgm_pp1_5_s1 8.336644e-03
*CONN
*I lt_pp1_5_s1:Z O
*I vs_28_1:A I
*CAP
1 pgm_pp1_5_s1:1 8.336644e-03
*RES
1 lt_pp1_5_s1:Z pgm_pp1_5_s1:1 9.460274e+00
2 pgm_pp1_5_s1:1 vs_28_1:A 1.000000e-03
*END

*D_NET pgm_pp1_6_s1 1.294639e-03
*CONN
*I lt_pp1_6_s1:Z O
*I vs_22_1:A I
*CAP
1 pgm_pp1_6_s1:1 1.294639e-03
*RES
1 lt_pp1_6_s1:Z pgm_pp1_6_s1:1 1.469133e+00
2 pgm_pp1_6_s1:1 vs_22_1:A 1.000000e-03
*END

*D_NET pgm_pp1_6_s2 2.020466e-03
*CONN
*I lt_pp1_6_s2:Z O
*I vs_38_1:A I
*CAP
1 pgm_pp1_6_s2:1 2.020466e-03
*RES
1 lt_pp1_6_s2:Z pgm_pp1_6_s2:1 2.292789e+00
2 pgm_pp1_6_s2:1 vs_38_1:A 1.000000e-03
*END

*D_NET pgm_pp1_7_s1 2.796657e-03
*CONN
*I lt_pp1_7_s1:Z O
*I vs_23_1:A I
*CAP
1 pgm_pp1_7_s1:1 2.796657e-03
*RES
1 lt_pp1_7_s1:Z pgm_pp1_7_s1:1 3.173596e+00
2 pgm_pp1_7_s1:1 vs_23_1:A 1.000000e-03
*END

*D_NET pgm_pp1_8_s1 1.215538e-02
*CONN
*I lt_pp1_8_s1:Z O
*I vs_17_1:A I
*CAP
1 pgm_pp1_8_s1:1 1.215538e-02
*RES
1 lt_pp1_8_s1:Z pgm_pp1_8_s1:1 1.379371e+01
2 pgm_pp1_8_s1:1 vs_17_1:A 1.000000e-03
*END

*D_NET pgm_pp1_8_s3 4.535679e-03
*CONN
*I lt_pp1_8_s3:Z O
*I vs_60_1:A I
*CAP
1 pgm_pp1_8_s3:1 4.535679e-03
*RES
1 lt_pp1_8_s3:Z pgm_pp1_8_s3:1 5.147008e+00
2 pgm_pp1_8_s3:1 vs_60_1:A 1.000000e-03
*END

*D_NET pgm_pp1_9_s0 7.735550e-03
*CONN
*I lt_pp1_9_s0:Z O
*I vs_6_1:A I
*CAP
1 pgm_pp1_9_s0:1 7.735550e-03
*RES
1 lt_pp1_9_s0:Z pgm_pp1_9_s0:1 7.925887e+00
2 pgm_pp1_9_s0:1 vs_6_1:A 1.000000e-03
*END

*D_NET pgm_pp1_9_s1 2.695930e-03
*CONN
*I lt_pp1_9_s1:Z O
*I vs_25_1:A I
*CAP
1 pgm_pp1_9_s1:1 2.695930e-03
*RES
1 lt_pp1_9_s1:Z pgm_pp1_9_s1:1 3.059293e+00
2 pgm_pp1_9_s1:1 vs_25_1:A 1.000000e-03
*END

*D_NET pgm_pp1_9_s3 1.205466e-02
*CONN
*I lt_pp1_9_s3:Z O
*I vs_50_1:A I
*CAP
1 pgm_pp1_9_s3:1 1.205466e-02
*RES
1 lt_pp1_9_s3:Z pgm_pp1_9_s3:1 1.367941e+01
2 pgm_pp1_9_s3:1 vs_50_1:A 1.000000e-03
*END

*D_NET pgm_pp20_0_s3 3.246966e-03
*CONN
*I lt_pp20_0_s3:Z O
*I vs_49_20:A I
*CAP
1 pgm_pp20_0_s3:1 3.246966e-03
*RES
1 lt_pp20_0_s3:Z pgm_pp20_0_s3:1 3.684599e+00
2 pgm_pp20_0_s3:1 vs_49_20:A 1.000000e-03
*END

*D_NET pgm_pp20_10_s1 1.256125e-03
*CONN
*I lt_pp20_10_s1:Z O
*I vs_28_20:A I
*CAP
1 pgm_pp20_10_s1:1 1.256125e-03
*RES
1 lt_pp20_10_s1:Z pgm_pp20_10_s1:1 1.425429e+00
2 pgm_pp20_10_s1:1 vs_28_20:A 1.000000e-03
*END

*D_NET pgm_pp20_12_s2 2.221920e-02
*CONN
*I lt_pp20_12_s2:Z O
*I vs_42_20:A I
*I vs_32_20:A I
*CAP
1 pgm_pp20_12_s2:1 2.221920e-02
*RES
1 lt_pp20_12_s2:Z pgm_pp20_12_s2:1 2.521395e+01
2 pgm_pp20_12_s2:1 vs_42_20:A 1.000000e-03
3 pgm_pp20_12_s2:1 vs_32_20:A 1.000000e-03
*END

*D_NET pgm_pp20_1_s2 1.401883e-02
*CONN
*I lt_pp20_1_s2:Z O
*I vs_41_20:A I
*I vs_40_20:A I
*I vs_38_20:A I
*CAP
1 pgm_pp20_1_s2:1 1.401883e-02
*RES
1 lt_pp20_1_s2:Z pgm_pp20_1_s2:1 1.590832e+01
2 pgm_pp20_1_s2:1 vs_41_20:A 1.000000e-03
3 pgm_pp20_1_s2:1 vs_40_20:A 1.000000e-03
4 pgm_pp20_1_s2:1 vs_38_20:A 1.000000e-03
*END

*D_NET pgm_pp20_2_s0 1.210798e-02
*CONN
*I lt_pp20_2_s0:Z O
*I vs_9_20:A I
*I vs_6_20:A I
*CAP
1 pgm_pp20_2_s0:1 1.210798e-02
*RES
1 lt_pp20_2_s0:Z pgm_pp20_2_s0:1 1.373992e+01
2 pgm_pp20_2_s0:1 vs_9_20:A 1.000000e-03
3 pgm_pp20_2_s0:1 vs_6_20:A 1.000000e-03
*END

*D_NET pgm_pp20_2_s1 2.410058e-03
*CONN
*I lt_pp20_2_s1:Z O
*I vs_19_20:A I
*CAP
1 pgm_pp20_2_s1:1 2.410058e-03
*RES
1 lt_pp20_2_s1:Z pgm_pp20_2_s1:1 1.306696e+00
2 pgm_pp20_2_s1:1 vs_19_20:A 1.000000e-03
*END

*D_NET pgm_pp20_3_s1 4.091295e-03
*CONN
*I lt_pp20_3_s1:Z O
*I vs_17_20:A I
*CAP
1 pgm_pp20_3_s1:1 4.091295e-03
*RES
1 lt_pp20_3_s1:Z pgm_pp20_3_s1:1 4.642729e+00
2 pgm_pp20_3_s1:1 vs_17_20:A 1.000000e-03
*END

*D_NET pgm_pp20_3_s3 1.484797e-02
*CONN
*I lt_pp20_3_s3:Z O
*I vs_58_20:A I
*I vs_54_20:A I
*CAP
1 pgm_pp20_3_s3:1 1.484797e-02
*RES
1 lt_pp20_3_s3:Z pgm_pp20_3_s3:1 1.097505e+01
2 pgm_pp20_3_s3:1 vs_58_20:A 1.000000e-03
3 pgm_pp20_3_s3:1 vs_54_20:A 1.000000e-03
*END

*D_NET pgm_pp20_4_s0 6.185825e-03
*CONN
*I lt_pp20_4_s0:Z O
*I vs_0_20:A I
*CAP
1 pgm_pp20_4_s0:1 6.185825e-03
*RES
1 lt_pp20_4_s0:Z pgm_pp20_4_s0:1 7.019564e+00
2 pgm_pp20_4_s0:1 vs_0_20:A 1.000000e-03
*END

*D_NET pgm_pp20_4_s2 8.825466e-03
*CONN
*I lt_pp20_4_s2:Z O
*I vs_43_20:A I
*CAP
1 pgm_pp20_4_s2:1 8.825466e-03
*RES
1 lt_pp20_4_s2:Z pgm_pp20_4_s2:1 1.001498e+01
2 pgm_pp20_4_s2:1 vs_43_20:A 1.000000e-03
*END

*D_NET pgm_pp20_4_s3 1.266198e-02
*CONN
*I lt_pp20_4_s3:Z O
*I vs_61_20:A I
*I vs_55_20:A I
*CAP
1 pgm_pp20_4_s3:1 1.266198e-02
*RES
1 lt_pp20_4_s3:Z pgm_pp20_4_s3:1 1.436859e+01
2 pgm_pp20_4_s3:1 vs_61_20:A 1.000000e-03
3 pgm_pp20_4_s3:1 vs_55_20:A 1.000000e-03
*END

*D_NET pgm_pp20_5_s3 9.227351e-03
*CONN
*I lt_pp20_5_s3:Z O
*I vs_57_20:A I
*I vs_52_20:A I
*CAP
1 pgm_pp20_5_s3:1 9.227351e-03
*RES
1 lt_pp20_5_s3:Z pgm_pp20_5_s3:1 9.186818e+00
2 pgm_pp20_5_s3:1 vs_57_20:A 1.000000e-03
3 pgm_pp20_5_s3:1 vs_52_20:A 1.000000e-03
*END

*D_NET pgm_pp20_6_s0 1.367751e-02
*CONN
*I lt_pp20_6_s0:Z O
*I vs_15_20:A I
*CAP
1 pgm_pp20_6_s0:1 1.367751e-02
*RES
1 lt_pp20_6_s0:Z pgm_pp20_6_s0:1 1.407089e+01
2 pgm_pp20_6_s0:1 vs_15_20:A 1.000000e-03
*END

*D_NET pgm_pp20_7_s0 9.340952e-03
*CONN
*I lt_pp20_7_s0:Z O
*I vs_2_20:A I
*CAP
1 pgm_pp20_7_s0:1 9.340952e-03
*RES
1 lt_pp20_7_s0:Z pgm_pp20_7_s0:1 1.059994e+01
2 pgm_pp20_7_s0:1 vs_2_20:A 1.000000e-03
*END

*D_NET pgm_pp20_7_s2 6.594659e-03
*CONN
*I lt_pp20_7_s2:Z O
*I vs_36_20:A I
*CAP
1 pgm_pp20_7_s2:1 6.594659e-03
*RES
1 lt_pp20_7_s2:Z pgm_pp20_7_s2:1 7.483500e+00
2 pgm_pp20_7_s2:1 vs_36_20:A 1.000000e-03
*END

*D_NET pgm_pp20_7_s3 4.891187e-03
*CONN
*I lt_pp20_7_s3:Z O
*I vs_60_20:A I
*CAP
1 pgm_pp20_7_s3:1 4.891187e-03
*RES
1 lt_pp20_7_s3:Z pgm_pp20_7_s3:1 5.550431e+00
2 pgm_pp20_7_s3:1 vs_60_20:A 1.000000e-03
*END

*D_NET pgm_pp20_8_s3 1.189764e-02
*CONN
*I lt_pp20_8_s3:Z O
*I vs_51_20:A I
*CAP
1 pgm_pp20_8_s3:1 1.189764e-02
*RES
1 lt_pp20_8_s3:Z pgm_pp20_8_s3:1 1.350123e+01
2 pgm_pp20_8_s3:1 vs_51_20:A 1.000000e-03
*END

*D_NET pgm_pp20_9_s0 7.936286e-03
*CONN
*I lt_pp20_9_s0:Z O
*I vs_7_20:A I
*CAP
1 pgm_pp20_9_s0:1 7.936286e-03
*RES
1 lt_pp20_9_s0:Z pgm_pp20_9_s0:1 5.449369e+00
2 pgm_pp20_9_s0:1 vs_7_20:A 1.000000e-03
*END

*D_NET pgm_pp20_9_s1 9.092097e-03
*CONN
*I lt_pp20_9_s1:Z O
*I vs_20_20:A I
*CAP
1 pgm_pp20_9_s1:1 9.092097e-03
*RES
1 lt_pp20_9_s1:Z pgm_pp20_9_s1:1 1.031755e+01
2 pgm_pp20_9_s1:1 vs_20_20:A 1.000000e-03
*END

*D_NET pgm_pp21_0_s0 1.637703e-02
*CONN
*I lt_pp21_0_s0:Z O
*I vs_14_21:A I
*I vs_12_21:A I
*I vs_10_21:A I
*I vs_6_21:A I
*I vs_2_21:A I
*CAP
1 pgm_pp21_0_s0:1 1.637703e-02
*RES
1 lt_pp21_0_s0:Z pgm_pp21_0_s0:1 1.858436e+01
2 pgm_pp21_0_s0:1 vs_14_21:A 1.000000e-03
3 pgm_pp21_0_s0:1 vs_12_21:A 1.000000e-03
4 pgm_pp21_0_s0:1 vs_10_21:A 1.000000e-03
5 pgm_pp21_0_s0:1 vs_6_21:A 1.000000e-03
6 pgm_pp21_0_s0:1 vs_2_21:A 1.000000e-03
*END

*D_NET pgm_pp21_0_s1 1.695177e-02
*CONN
*I lt_pp21_0_s1:Z O
*I vs_28_21:A I
*I vs_24_21:A I
*I vs_21_21:A I
*I vs_19_21:A I
*I vs_18_21:A I
*I vs_16_21:A I
*CAP
1 pgm_pp21_0_s1:1 1.695177e-02
*RES
1 lt_pp21_0_s1:Z pgm_pp21_0_s1:1 1.923656e+01
2 pgm_pp21_0_s1:1 vs_28_21:A 1.000000e-03
3 pgm_pp21_0_s1:1 vs_24_21:A 1.000000e-03
4 pgm_pp21_0_s1:1 vs_21_21:A 1.000000e-03
5 pgm_pp21_0_s1:1 vs_19_21:A 1.000000e-03
6 pgm_pp21_0_s1:1 vs_18_21:A 1.000000e-03
7 pgm_pp21_0_s1:1 vs_16_21:A 1.000000e-03
*END

*D_NET pgm_pp21_0_s2 2.016615e-02
*CONN
*I lt_pp21_0_s2:Z O
*I vs_47_21:A I
*I vs_44_21:A I
*I vs_38_21:A I
*I vs_36_21:A I
*I vs_32_21:A I
*CAP
1 pgm_pp21_0_s2:1 2.016615e-02
*RES
1 lt_pp21_0_s2:Z pgm_pp21_0_s2:1 2.288418e+01
2 pgm_pp21_0_s2:1 vs_47_21:A 1.000000e-03
3 pgm_pp21_0_s2:1 vs_44_21:A 1.000000e-03
4 pgm_pp21_0_s2:1 vs_38_21:A 1.000000e-03
5 pgm_pp21_0_s2:1 vs_36_21:A 1.000000e-03
6 pgm_pp21_0_s2:1 vs_32_21:A 1.000000e-03
*END

*D_NET pgm_pp21_0_s3 1.998247e-02
*CONN
*I lt_pp21_0_s3:Z O
*I vs_63_21:A I
*I vs_59_21:A I
*I vs_58_21:A I
*I vs_51_21:A I
*I vs_50_21:A I
*I vs_48_21:A I
*CAP
1 pgm_pp21_0_s3:1 1.998247e-02
*RES
1 lt_pp21_0_s3:Z pgm_pp21_0_s3:1 2.267575e+01
2 pgm_pp21_0_s3:1 vs_63_21:A 1.000000e-03
3 pgm_pp21_0_s3:1 vs_59_21:A 1.000000e-03
4 pgm_pp21_0_s3:1 vs_58_21:A 1.000000e-03
5 pgm_pp21_0_s3:1 vs_51_21:A 1.000000e-03
6 pgm_pp21_0_s3:1 vs_50_21:A 1.000000e-03
7 pgm_pp21_0_s3:1 vs_48_21:A 1.000000e-03
*END

*D_NET pgm_pp2_10_s0 3.866141e-03
*CONN
*I lt_pp2_10_s0:Z O
*I vs_10_2:A I
*CAP
1 pgm_pp2_10_s0:1 3.866141e-03
*RES
1 lt_pp2_10_s0:Z pgm_pp2_10_s0:1 4.387227e+00
2 pgm_pp2_10_s0:1 vs_10_2:A 1.000000e-03
*END

*D_NET pgm_pp2_10_s1 1.793830e-02
*CONN
*I lt_pp2_10_s1:Z O
*I vs_20_2:A I
*I vs_16_2:A I
*CAP
1 pgm_pp2_10_s1:1 1.793830e-02
*RES
1 lt_pp2_10_s1:Z pgm_pp2_10_s1:1 2.035606e+01
2 pgm_pp2_10_s1:1 vs_20_2:A 1.000000e-03
3 pgm_pp2_10_s1:1 vs_16_2:A 1.000000e-03
*END

*D_NET pgm_pp2_10_s2 8.487597e-03
*CONN
*I lt_pp2_10_s2:Z O
*I vs_39_2:A I
*CAP
1 pgm_pp2_10_s2:1 8.487597e-03
*RES
1 lt_pp2_10_s2:Z pgm_pp2_10_s2:1 8.635317e+00
2 pgm_pp2_10_s2:1 vs_39_2:A 1.000000e-03
*END

*D_NET pgm_pp2_10_s3 1.196179e-02
*CONN
*I lt_pp2_10_s3:Z O
*I vs_55_2:A I
*I vs_53_2:A I
*CAP
1 pgm_pp2_10_s3:1 1.196179e-02
*RES
1 lt_pp2_10_s3:Z pgm_pp2_10_s3:1 1.228982e+01
2 pgm_pp2_10_s3:1 vs_55_2:A 1.000000e-03
3 pgm_pp2_10_s3:1 vs_53_2:A 1.000000e-03
*END

*D_NET pgm_pp2_12_s0 5.181517e-03
*CONN
*I lt_pp2_12_s0:Z O
*I vs_12_2:A I
*CAP
1 pgm_pp2_12_s0:1 5.181517e-03
*RES
1 lt_pp2_12_s0:Z pgm_pp2_12_s0:1 5.879893e+00
2 pgm_pp2_12_s0:1 vs_12_2:A 1.000000e-03
*END

*D_NET pgm_pp2_12_s1 3.573901e-03
*CONN
*I lt_pp2_12_s1:Z O
*I vs_29_2:A I
*CAP
1 pgm_pp2_12_s1:1 3.573901e-03
*RES
1 lt_pp2_12_s1:Z pgm_pp2_12_s1:1 2.483425e+00
2 pgm_pp2_12_s1:1 vs_29_2:A 1.000000e-03
*END

*D_NET pgm_pp2_1_s0 1.760118e-02
*CONN
*I lt_pp2_1_s0:Z O
*I vs_14_2:A I
*CAP
1 pgm_pp2_1_s0:1 1.760118e-02
*RES
1 lt_pp2_1_s0:Z pgm_pp2_1_s0:1 1.825735e+01
2 pgm_pp2_1_s0:1 vs_14_2:A 1.000000e-03
*END

*D_NET pgm_pp2_1_s2 1.528446e-02
*CONN
*I lt_pp2_1_s2:Z O
*I vs_43_2:A I
*CAP
1 pgm_pp2_1_s2:1 1.528446e-02
*RES
1 lt_pp2_1_s2:Z pgm_pp2_1_s2:1 1.562838e+01
2 pgm_pp2_1_s2:1 vs_43_2:A 1.000000e-03
*END

*D_NET pgm_pp2_1_s3 1.136543e-02
*CONN
*I lt_pp2_1_s3:Z O
*I vs_57_2:A I
*CAP
1 pgm_pp2_1_s3:1 1.136543e-02
*RES
1 lt_pp2_1_s3:Z pgm_pp2_1_s3:1 1.132512e+01
2 pgm_pp2_1_s3:1 vs_57_2:A 1.000000e-03
*END

*D_NET pgm_pp2_2_s0 9.601657e-03
*CONN
*I lt_pp2_2_s0:Z O
*I vs_9_2:A I
*CAP
1 pgm_pp2_2_s0:1 9.601657e-03
*RES
1 lt_pp2_2_s0:Z pgm_pp2_2_s0:1 1.089579e+01
2 pgm_pp2_2_s0:1 vs_9_2:A 1.000000e-03
*END

*D_NET pgm_pp2_2_s1 1.004604e-02
*CONN
*I lt_pp2_2_s1:Z O
*I vs_25_2:A I
*CAP
1 pgm_pp2_2_s1:1 1.004604e-02
*RES
1 lt_pp2_2_s1:Z pgm_pp2_2_s1:1 1.140007e+01
2 pgm_pp2_2_s1:1 vs_25_2:A 1.000000e-03
*END

*D_NET pgm_pp2_2_s2 3.110688e-03
*CONN
*I lt_pp2_2_s2:Z O
*I vs_33_2:A I
*CAP
1 pgm_pp2_2_s2:1 3.110688e-03
*RES
1 lt_pp2_2_s2:Z pgm_pp2_2_s2:1 3.529953e+00
2 pgm_pp2_2_s2:1 vs_33_2:A 1.000000e-03
*END

*D_NET pgm_pp2_2_s3 1.793534e-02
*CONN
*I lt_pp2_2_s3:Z O
*I vs_62_2:A I
*I vs_49_2:A I
*CAP
1 pgm_pp2_2_s3:1 1.793534e-02
*RES
1 lt_pp2_2_s3:Z pgm_pp2_2_s3:1 2.035270e+01
2 pgm_pp2_2_s3:1 vs_62_2:A 1.000000e-03
3 pgm_pp2_2_s3:1 vs_49_2:A 1.000000e-03
*END

*D_NET pgm_pp2_3_s3 5.664415e-03
*CONN
*I lt_pp2_3_s3:Z O
*I vs_48_2:A I
*CAP
1 pgm_pp2_3_s3:1 5.664415e-03
*RES
1 lt_pp2_3_s3:Z pgm_pp2_3_s3:1 6.427876e+00
2 pgm_pp2_3_s3:1 vs_48_2:A 1.000000e-03
*END

*D_NET pgm_pp2_4_s1 3.501746e-03
*CONN
*I lt_pp2_4_s1:Z O
*I vs_23_2:A I
*CAP
1 pgm_pp2_4_s1:1 3.501746e-03
*RES
1 lt_pp2_4_s1:Z pgm_pp2_4_s1:1 3.973719e+00
2 pgm_pp2_4_s1:1 vs_23_2:A 1.000000e-03
*END

*D_NET pgm_pp2_4_s2 9.983827e-04
*CONN
*I lt_pp2_4_s2:Z O
*I vs_37_2:A I
*CAP
1 pgm_pp2_4_s2:1 9.983827e-04
*RES
1 lt_pp2_4_s2:Z pgm_pp2_4_s2:1 1.132947e+00
2 pgm_pp2_4_s2:1 vs_37_2:A 1.000000e-03
*END

*D_NET pgm_pp2_4_s3 2.559652e-03
*CONN
*I lt_pp2_4_s3:Z O
*I vs_51_2:A I
*CAP
1 pgm_pp2_4_s3:1 2.559652e-03
*RES
1 lt_pp2_4_s3:Z pgm_pp2_4_s3:1 2.904647e+00
2 pgm_pp2_4_s3:1 vs_51_2:A 1.000000e-03
*END

*D_NET pgm_pp2_5_s0 5.839206e-03
*CONN
*I lt_pp2_5_s0:Z O
*I vs_2_2:A I
*CAP
1 pgm_pp2_5_s0:1 5.839206e-03
*RES
1 lt_pp2_5_s0:Z pgm_pp2_5_s0:1 6.626226e+00
2 pgm_pp2_5_s0:1 vs_2_2:A 1.000000e-03
*END

*D_NET pgm_pp2_5_s2 1.196282e-02
*CONN
*I lt_pp2_5_s2:Z O
*I vs_47_2:A I
*CAP
1 pgm_pp2_5_s2:1 1.196282e-02
*RES
1 lt_pp2_5_s2:Z pgm_pp2_5_s2:1 1.357519e+01
2 pgm_pp2_5_s2:1 vs_47_2:A 1.000000e-03
*END

*D_NET pgm_pp2_6_s3 5.148929e-03
*CONN
*I lt_pp2_6_s3:Z O
*I vs_52_2:A I
*CAP
1 pgm_pp2_6_s3:1 5.148929e-03
*RES
1 lt_pp2_6_s3:Z pgm_pp2_6_s3:1 5.842913e+00
2 pgm_pp2_6_s3:1 vs_52_2:A 1.000000e-03
*END

*D_NET pgm_pp2_7_s1 1.328116e-02
*CONN
*I lt_pp2_7_s1:Z O
*I vs_31_2:A I
*I vs_22_2:A I
*CAP
1 pgm_pp2_7_s1:1 1.328116e-02
*RES
1 lt_pp2_7_s1:Z pgm_pp2_7_s1:1 1.507122e+01
2 pgm_pp2_7_s1:1 vs_31_2:A 1.000000e-03
3 pgm_pp2_7_s1:1 vs_22_2:A 1.000000e-03
*END

*D_NET pgm_pp2_7_s3 4.891187e-03
*CONN
*I lt_pp2_7_s3:Z O
*I vs_60_2:A I
*CAP
1 pgm_pp2_7_s3:1 4.891187e-03
*RES
1 lt_pp2_7_s3:Z pgm_pp2_7_s3:1 5.550431e+00
2 pgm_pp2_7_s3:1 vs_60_2:A 1.000000e-03
*END

*D_NET pgm_pp2_8_s0 1.306785e-02
*CONN
*I lt_pp2_8_s0:Z O
*I vs_5_2:A I
*I vs_1_2:A I
*CAP
1 pgm_pp2_8_s0:1 1.306785e-02
*RES
1 lt_pp2_8_s0:Z pgm_pp2_8_s0:1 1.482916e+01
2 pgm_pp2_8_s0:1 vs_5_2:A 1.000000e-03
3 pgm_pp2_8_s0:1 vs_1_2:A 1.000000e-03
*END

*D_NET pgm_pp2_8_s2 1.164286e-03
*CONN
*I lt_pp2_8_s2:Z O
*I vs_41_2:A I
*CAP
1 pgm_pp2_8_s2:1 1.164286e-03
*RES
1 lt_pp2_8_s2:Z pgm_pp2_8_s2:1 1.321211e+00
2 pgm_pp2_8_s2:1 vs_41_2:A 1.000000e-03
*END

*D_NET pgm_pp2_8_s3 1.079261e-02
*CONN
*I lt_pp2_8_s3:Z O
*I vs_61_2:A I
*I vs_54_2:A I
*CAP
1 pgm_pp2_8_s3:1 1.079261e-02
*RES
1 lt_pp2_8_s3:Z pgm_pp2_8_s3:1 1.224726e+01
2 pgm_pp2_8_s3:1 vs_61_2:A 1.000000e-03
3 pgm_pp2_8_s3:1 vs_54_2:A 1.000000e-03
*END

*D_NET pgm_pp2_9_s1 7.175320e-03
*CONN
*I lt_pp2_9_s1:Z O
*I vs_30_2:A I
*I vs_26_2:A I
*CAP
1 pgm_pp2_9_s1:1 7.175320e-03
*RES
1 lt_pp2_9_s1:Z pgm_pp2_9_s1:1 8.142425e+00
2 pgm_pp2_9_s1:1 vs_30_2:A 1.000000e-03
3 pgm_pp2_9_s1:1 vs_26_2:A 1.000000e-03
*END

*D_NET pgm_pp2_9_s2 1.121921e-02
*CONN
*I lt_pp2_9_s2:Z O
*I vs_35_2:A I
*CAP
1 pgm_pp2_9_s2:1 1.121921e-02
*RES
1 lt_pp2_9_s2:Z pgm_pp2_9_s2:1 1.273136e+01
2 pgm_pp2_9_s2:1 vs_35_2:A 1.000000e-03
*END

*D_NET pgm_pp3_0_s0 3.732551e-03
*CONN
*I lt_pp3_0_s0:Z O
*I vs_1_3:A I
*CAP
1 pgm_pp3_0_s0:1 3.732551e-03
*RES
1 lt_pp3_0_s0:Z pgm_pp3_0_s0:1 2.231520e+00
2 pgm_pp3_0_s0:1 vs_1_3:A 1.000000e-03
*END

*D_NET pgm_pp3_0_s1 2.155483e-02
*CONN
*I lt_pp3_0_s1:Z O
*I vs_30_3:A I
*I vs_19_3:A I
*CAP
1 pgm_pp3_0_s1:1 2.155483e-02
*RES
1 lt_pp3_0_s1:Z pgm_pp3_0_s1:1 2.192383e+01
2 pgm_pp3_0_s1:1 vs_30_3:A 1.000000e-03
3 pgm_pp3_0_s1:1 vs_19_3:A 1.000000e-03
*END

*D_NET pgm_pp3_10_s2 1.344410e-02
*CONN
*I lt_pp3_10_s2:Z O
*I vs_34_3:A I
*CAP
1 pgm_pp3_10_s2:1 1.344410e-02
*RES
1 lt_pp3_10_s2:Z pgm_pp3_10_s2:1 1.525612e+01
2 pgm_pp3_10_s2:1 vs_34_3:A 1.000000e-03
*END

*D_NET pgm_pp3_11_s0 1.149030e-02
*CONN
*I lt_pp3_11_s0:Z O
*I vs_5_3:A I
*CAP
1 pgm_pp3_11_s0:1 1.149030e-02
*RES
1 lt_pp3_11_s0:Z pgm_pp3_11_s0:1 1.161080e+01
2 pgm_pp3_11_s0:1 vs_5_3:A 1.000000e-03
*END

*D_NET pgm_pp3_1_s0 1.643747e-02
*CONN
*I lt_pp3_1_s0:Z O
*I vs_9_3:A I
*I vs_0_3:A I
*CAP
1 pgm_pp3_1_s0:1 1.643747e-02
*RES
1 lt_pp3_1_s0:Z pgm_pp3_1_s0:1 1.808863e+01
2 pgm_pp3_1_s0:1 vs_9_3:A 1.000000e-03
3 pgm_pp3_1_s0:1 vs_0_3:A 1.000000e-03
*END

*D_NET pgm_pp3_1_s2 1.825291e-02
*CONN
*I lt_pp3_1_s2:Z O
*I vs_45_3:A I
*I vs_36_3:A I
*I vs_35_3:A I
*I vs_33_3:A I
*CAP
1 pgm_pp3_1_s2:1 1.825291e-02
*RES
1 lt_pp3_1_s2:Z pgm_pp3_1_s2:1 1.861460e+01
2 pgm_pp3_1_s2:1 vs_45_3:A 1.000000e-03
3 pgm_pp3_1_s2:1 vs_36_3:A 1.000000e-03
4 pgm_pp3_1_s2:1 vs_35_3:A 1.000000e-03
5 pgm_pp3_1_s2:1 vs_33_3:A 1.000000e-03
*END

*D_NET pgm_pp3_2_s0 1.634890e-02
*CONN
*I lt_pp3_2_s0:Z O
*I vs_13_3:A I
*I vs_12_3:A I
*I vs_4_3:A I
*CAP
1 pgm_pp3_2_s0:1 1.634890e-02
*RES
1 lt_pp3_2_s0:Z pgm_pp3_2_s0:1 1.712425e+01
2 pgm_pp3_2_s0:1 vs_13_3:A 1.000000e-03
3 pgm_pp3_2_s0:1 vs_12_3:A 1.000000e-03
4 pgm_pp3_2_s0:1 vs_4_3:A 1.000000e-03
*END

*D_NET pgm_pp3_2_s1 1.852890e-02
*CONN
*I lt_pp3_2_s1:Z O
*I vs_31_3:A I
*I vs_29_3:A I
*I vs_24_3:A I
*CAP
1 pgm_pp3_2_s1:1 1.852890e-02
*RES
1 lt_pp3_2_s1:Z pgm_pp3_2_s1:1 1.945409e+01
2 pgm_pp3_2_s1:1 vs_31_3:A 1.000000e-03
3 pgm_pp3_2_s1:1 vs_29_3:A 1.000000e-03
4 pgm_pp3_2_s1:1 vs_24_3:A 1.000000e-03
*END

*D_NET pgm_pp3_2_s2 6.541944e-03
*CONN
*I lt_pp3_2_s2:Z O
*I vs_38_3:A I
*CAP
1 pgm_pp3_2_s2:1 6.541944e-03
*RES
1 lt_pp3_2_s2:Z pgm_pp3_2_s2:1 5.707527e+00
2 pgm_pp3_2_s2:1 vs_38_3:A 1.000000e-03
*END

*D_NET pgm_pp3_2_s3 1.537214e-02
*CONN
*I lt_pp3_2_s3:Z O
*I vs_62_3:A I
*CAP
1 pgm_pp3_2_s3:1 1.537214e-02
*RES
1 lt_pp3_2_s3:Z pgm_pp3_2_s3:1 1.630380e+01
2 pgm_pp3_2_s3:1 vs_62_3:A 1.000000e-03
*END

*D_NET pgm_pp3_3_s1 1.200800e-02
*CONN
*I lt_pp3_3_s1:Z O
*I vs_25_3:A I
*I vs_17_3:A I
*CAP
1 pgm_pp3_3_s1:1 1.200800e-02
*RES
1 lt_pp3_3_s1:Z pgm_pp3_3_s1:1 1.291817e+01
2 pgm_pp3_3_s1:1 vs_25_3:A 1.000000e-03
3 pgm_pp3_3_s1:1 vs_17_3:A 1.000000e-03
*END

*D_NET pgm_pp3_3_s2 5.015920e-03
*CONN
*I lt_pp3_3_s2:Z O
*I vs_39_3:A I
*CAP
1 pgm_pp3_3_s2:1 5.015920e-03
*RES
1 lt_pp3_3_s2:Z pgm_pp3_3_s2:1 4.839699e+00
2 pgm_pp3_3_s2:1 vs_39_3:A 1.000000e-03
*END

*D_NET pgm_pp3_5_s3 1.399513e-02
*CONN
*I lt_pp3_5_s3:Z O
*I vs_63_3:A I
*I vs_53_3:A I
*CAP
1 pgm_pp3_5_s3:1 1.399513e-02
*RES
1 lt_pp3_5_s3:Z pgm_pp3_5_s3:1 1.588143e+01
2 pgm_pp3_5_s3:1 vs_63_3:A 1.000000e-03
3 pgm_pp3_5_s3:1 vs_53_3:A 1.000000e-03
*END

*D_NET pgm_pp3_6_s1 4.846748e-03
*CONN
*I lt_pp3_6_s1:Z O
*I vs_20_3:A I
*CAP
1 pgm_pp3_6_s1:1 4.846748e-03
*RES
1 lt_pp3_6_s1:Z pgm_pp3_6_s1:1 5.500003e+00
2 pgm_pp3_6_s1:1 vs_20_3:A 1.000000e-03
*END

*D_NET pgm_pp3_6_s3 6.191750e-03
*CONN
*I lt_pp3_6_s3:Z O
*I vs_51_3:A I
*CAP
1 pgm_pp3_6_s3:1 6.191750e-03
*RES
1 lt_pp3_6_s3:Z pgm_pp3_6_s3:1 7.026287e+00
2 pgm_pp3_6_s3:1 vs_51_3:A 1.000000e-03
*END

*D_NET pgm_pp3_7_s1 2.020466e-03
*CONN
*I lt_pp3_7_s1:Z O
*I vs_23_3:A I
*CAP
1 pgm_pp3_7_s1:1 2.020466e-03
*RES
1 lt_pp3_7_s1:Z pgm_pp3_7_s1:1 2.292789e+00
2 pgm_pp3_7_s1:1 vs_23_3:A 1.000000e-03
*END

*D_NET pgm_pp3_7_s2 5.391859e-04
*CONN
*I lt_pp3_7_s2:Z O
*I vs_41_3:A I
*CAP
1 pgm_pp3_7_s2:1 5.391859e-04
*RES
1 lt_pp3_7_s2:Z pgm_pp3_7_s2:1 6.118585e-01
2 pgm_pp3_7_s2:1 vs_41_3:A 1.000000e-03
*END

*D_NET pgm_pp3_8_s2 2.832207e-03
*CONN
*I lt_pp3_8_s2:Z O
*I vs_40_3:A I
*CAP
1 pgm_pp3_8_s2:1 2.832207e-03
*RES
1 lt_pp3_8_s2:Z pgm_pp3_8_s2:1 3.213938e+00
2 pgm_pp3_8_s2:1 vs_40_3:A 1.000000e-03
*END

*D_NET pgm_pp3_8_s3 1.251978e-02
*CONN
*I lt_pp3_8_s3:Z O
*I vs_49_3:A I
*CAP
1 pgm_pp3_8_s3:1 1.251978e-02
*RES
1 lt_pp3_8_s3:Z pgm_pp3_8_s3:1 1.420722e+01
2 pgm_pp3_8_s3:1 vs_49_3:A 1.000000e-03
*END

*D_NET pgm_pp3_9_s1 7.785913e-03
*CONN
*I lt_pp3_9_s1:Z O
*I vs_21_3:A I
*CAP
1 pgm_pp3_9_s1:1 7.785913e-03
*RES
1 lt_pp3_9_s1:Z pgm_pp3_9_s1:1 7.983038e+00
2 pgm_pp3_9_s1:1 vs_21_3:A 1.000000e-03
*END

*D_NET pgm_pp3_9_s3 6.813888e-04
*CONN
*I lt_pp3_9_s3:Z O
*I vs_59_3:A I
*CAP
1 pgm_pp3_9_s3:1 6.813888e-04
*RES
1 lt_pp3_9_s3:Z pgm_pp3_9_s3:1 7.732278e-01
2 pgm_pp3_9_s3:1 vs_59_3:A 1.000000e-03
*END

*D_NET pgm_pp4_0_s0 3.246966e-03
*CONN
*I lt_pp4_0_s0:Z O
*I vs_1_4:A I
*CAP
1 pgm_pp4_0_s0:1 3.246966e-03
*RES
1 lt_pp4_0_s0:Z pgm_pp4_0_s0:1 3.684599e+00
2 pgm_pp4_0_s0:1 vs_1_4:A 1.000000e-03
*END

*D_NET pgm_pp4_0_s1 2.337422e-02
*CONN
*I lt_pp4_0_s1:Z O
*I vs_29_4:A I
*CAP
1 pgm_pp4_0_s1:1 2.337422e-02
*RES
1 lt_pp4_0_s1:Z pgm_pp4_0_s1:1 2.064469e+01
2 pgm_pp4_0_s1:1 vs_29_4:A 1.000000e-03
*END

*D_NET pgm_pp4_0_s2 2.057202e-02
*CONN
*I lt_pp4_0_s2:Z O
*I vs_47_4:A I
*CAP
1 pgm_pp4_0_s2:1 2.057202e-02
*RES
1 lt_pp4_0_s2:Z pgm_pp4_0_s2:1 2.334476e+01
2 pgm_pp4_0_s2:1 vs_47_4:A 1.000000e-03
*END

*D_NET pgm_pp4_11_s0 1.667784e-03
*CONN
*I lt_pp4_11_s0:Z O
*I vs_13_4:A I
*CAP
1 pgm_pp4_11_s0:1 1.667784e-03
*RES
1 lt_pp4_11_s0:Z pgm_pp4_11_s0:1 8.963154e-01
2 pgm_pp4_11_s0:1 vs_13_4:A 1.000000e-03
*END

*D_NET pgm_pp4_11_s1 1.658737e-02
*CONN
*I lt_pp4_11_s1:Z O
*I vs_17_4:A I
*CAP
1 pgm_pp4_11_s1:1 1.658737e-02
*RES
1 lt_pp4_11_s1:Z pgm_pp4_11_s1:1 1.882305e+01
2 pgm_pp4_11_s1:1 vs_17_4:A 1.000000e-03
*END

*D_NET pgm_pp4_11_s2 1.315080e-02
*CONN
*I lt_pp4_11_s2:Z O
*I vs_37_4:A I
*CAP
1 pgm_pp4_11_s2:1 1.315080e-02
*RES
1 lt_pp4_11_s2:Z pgm_pp4_11_s2:1 1.492330e+01
2 pgm_pp4_11_s2:1 vs_37_4:A 1.000000e-03
*END

*D_NET pgm_pp4_12_s2 1.766636e-02
*CONN
*I lt_pp4_12_s2:Z O
*I vs_34_4:A I
*CAP
1 pgm_pp4_12_s2:1 1.766636e-02
*RES
1 lt_pp4_12_s2:Z pgm_pp4_12_s2:1 1.833131e+01
2 pgm_pp4_12_s2:1 vs_34_4:A 1.000000e-03
*END

*D_NET pgm_pp4_1_s0 1.015671e-02
*CONN
*I lt_pp4_1_s0:Z O
*I vs_8_4:A I
*CAP
1 pgm_pp4_1_s0:1 1.015671e-02
*RES
1 lt_pp4_1_s0:Z pgm_pp4_1_s0:1 9.953478e+00
2 pgm_pp4_1_s0:1 vs_8_4:A 1.000000e-03
*END

*D_NET pgm_pp4_1_s1 2.035606e-02
*CONN
*I lt_pp4_1_s1:Z O
*I vs_31_4:A I
*I vs_28_4:A I
*I vs_23_4:A I
*CAP
1 pgm_pp4_1_s1:1 2.035606e-02
*RES
1 lt_pp4_1_s1:Z pgm_pp4_1_s1:1 2.224741e+01
2 pgm_pp4_1_s1:1 vs_31_4:A 1.000000e-03
3 pgm_pp4_1_s1:1 vs_28_4:A 1.000000e-03
4 pgm_pp4_1_s1:1 vs_23_4:A 1.000000e-03
*END

*D_NET pgm_pp4_3_s0 1.776885e-02
*CONN
*I lt_pp4_3_s0:Z O
*I vs_12_4:A I
*I vs_0_4:A I
*CAP
1 pgm_pp4_3_s0:1 1.776885e-02
*RES
1 lt_pp4_3_s0:Z pgm_pp4_3_s0:1 1.902354e+01
2 pgm_pp4_3_s0:1 vs_12_4:A 1.000000e-03
3 pgm_pp4_3_s0:1 vs_0_4:A 1.000000e-03
*END

*D_NET pgm_pp4_4_s2 6.357654e-03
*CONN
*I lt_pp4_4_s2:Z O
*I vs_32_4:A I
*CAP
1 pgm_pp4_4_s2:1 6.357654e-03
*RES
1 lt_pp4_4_s2:Z pgm_pp4_4_s2:1 7.214552e+00
2 pgm_pp4_4_s2:1 vs_32_4:A 1.000000e-03
*END

*D_NET pgm_pp4_5_s0 1.430916e-03
*CONN
*I lt_pp4_5_s0:Z O
*I vs_7_4:A I
*CAP
1 pgm_pp4_5_s0:1 1.430916e-03
*RES
1 lt_pp4_5_s0:Z pgm_pp4_5_s0:1 1.623778e+00
2 pgm_pp4_5_s0:1 vs_7_4:A 1.000000e-03
*END

*D_NET pgm_pp4_5_s3 5.910307e-03
*CONN
*I lt_pp4_5_s3:Z O
*I vs_55_4:A I
*I vs_52_4:A I
*CAP
1 pgm_pp4_5_s3:1 5.910307e-03
*RES
1 lt_pp4_5_s3:Z pgm_pp4_5_s3:1 6.706911e+00
2 pgm_pp4_5_s3:1 vs_55_4:A 1.000000e-03
3 pgm_pp4_5_s3:1 vs_52_4:A 1.000000e-03
*END

*D_NET pgm_pp4_6_s1 5.566650e-03
*CONN
*I lt_pp4_6_s1:Z O
*I vs_27_4:A I
*CAP
1 pgm_pp4_6_s1:1 5.566650e-03
*RES
1 lt_pp4_6_s1:Z pgm_pp4_6_s1:1 6.316935e+00
2 pgm_pp4_6_s1:1 vs_27_4:A 1.000000e-03
*END

*D_NET pgm_pp4_6_s2 9.743280e-03
*CONN
*I lt_pp4_6_s2:Z O
*I vs_33_4:A I
*CAP
1 pgm_pp4_6_s2:1 9.743280e-03
*RES
1 lt_pp4_6_s2:Z pgm_pp4_6_s2:1 9.916264e+00
2 pgm_pp4_6_s2:1 vs_33_4:A 1.000000e-03
*END

*D_NET pgm_pp4_6_s3 9.720908e-03
*CONN
*I lt_pp4_6_s3:Z O
*I vs_62_4:A I
*CAP
1 pgm_pp4_6_s3:1 9.720908e-03
*RES
1 lt_pp4_6_s3:Z pgm_pp4_6_s3:1 1.032281e+01
2 pgm_pp4_6_s3:1 vs_62_4:A 1.000000e-03
*END

*D_NET pgm_pp4_7_s0 9.012108e-03
*CONN
*I lt_pp4_7_s0:Z O
*I vs_15_4:A I
*CAP
1 pgm_pp4_7_s0:1 9.012108e-03
*RES
1 lt_pp4_7_s0:Z pgm_pp4_7_s0:1 1.022678e+01
2 pgm_pp4_7_s0:1 vs_15_4:A 1.000000e-03
*END

*D_NET pgm_pp4_7_s1 9.752133e-03
*CONN
*I lt_pp4_7_s1:Z O
*I vs_18_4:A I
*CAP
1 pgm_pp4_7_s1:1 9.752133e-03
*RES
1 lt_pp4_7_s1:Z pgm_pp4_7_s1:1 9.538192e+00
2 pgm_pp4_7_s1:1 vs_18_4:A 1.000000e-03
*END

*D_NET pgm_pp4_8_s0 1.751621e-03
*CONN
*I lt_pp4_8_s0:Z O
*I vs_10_4:A I
*CAP
1 pgm_pp4_8_s0:1 1.751621e-03
*RES
1 lt_pp4_8_s0:Z pgm_pp4_8_s0:1 1.279411e+00
2 pgm_pp4_8_s0:1 vs_10_4:A 1.000000e-03
*END

*D_NET pgm_pp4_8_s1 6.594659e-03
*CONN
*I lt_pp4_8_s1:Z O
*I vs_21_4:A I
*CAP
1 pgm_pp4_8_s1:1 6.594659e-03
*RES
1 lt_pp4_8_s1:Z pgm_pp4_8_s1:1 7.483500e+00
2 pgm_pp4_8_s1:1 vs_21_4:A 1.000000e-03
*END

*D_NET pgm_pp4_8_s3 1.044302e-02
*CONN
*I lt_pp4_8_s3:Z O
*I vs_50_4:A I
*CAP
1 pgm_pp4_8_s3:1 1.044302e-02
*RES
1 lt_pp4_8_s3:Z pgm_pp4_8_s3:1 1.185056e+01
2 pgm_pp4_8_s3:1 vs_50_4:A 1.000000e-03
*END

*D_NET pgm_pp4_9_s1 1.248024e-02
*CONN
*I lt_pp4_9_s1:Z O
*I vs_22_4:A I
*I vs_19_4:A I
*CAP
1 pgm_pp4_9_s1:1 1.248024e-02
*RES
1 lt_pp4_9_s1:Z pgm_pp4_9_s1:1 1.287814e+01
2 pgm_pp4_9_s1:1 vs_22_4:A 1.000000e-03
3 pgm_pp4_9_s1:1 vs_19_4:A 1.000000e-03
*END

*D_NET pgm_pp5_0_s1 1.202278e-02
*CONN
*I lt_pp5_0_s1:Z O
*I vs_24_5:A I
*CAP
1 pgm_pp5_0_s1:1 1.202278e-02
*RES
1 lt_pp5_0_s1:Z pgm_pp5_0_s1:1 1.254682e+01
2 pgm_pp5_0_s1:1 vs_24_5:A 1.000000e-03
*END

*D_NET pgm_pp5_0_s2 1.439348e-02
*CONN
*I lt_pp5_0_s2:Z O
*I vs_40_5:A I
*CAP
1 pgm_pp5_0_s2:1 1.439348e-02
*RES
1 lt_pp5_0_s2:Z pgm_pp5_0_s2:1 1.389741e+01
2 pgm_pp5_0_s2:1 vs_40_5:A 1.000000e-03
*END

*D_NET pgm_pp5_11_s0 1.522756e-02
*CONN
*I lt_pp5_11_s0:Z O
*I vs_3_5:A I
*CAP
1 pgm_pp5_11_s0:1 1.522756e-02
*RES
1 lt_pp5_11_s0:Z pgm_pp5_11_s0:1 1.727996e+01
2 pgm_pp5_11_s0:1 vs_3_5:A 1.000000e-03
*END

*D_NET pgm_pp5_12_s2 1.851600e-03
*CONN
*I lt_pp5_12_s2:Z O
*I vs_46_5:A I
*CAP
1 pgm_pp5_12_s2:1 1.851600e-03
*RES
1 lt_pp5_12_s2:Z pgm_pp5_12_s2:1 2.101163e+00
2 pgm_pp5_12_s2:1 vs_46_5:A 1.000000e-03
*END

*D_NET pgm_pp5_1_s0 1.818419e-02
*CONN
*I lt_pp5_1_s0:Z O
*I vs_13_5:A I
*I vs_1_5:A I
*CAP
1 pgm_pp5_1_s0:1 1.818419e-02
*RES
1 lt_pp5_1_s0:Z pgm_pp5_1_s0:1 2.063510e+01
2 pgm_pp5_1_s0:1 vs_13_5:A 1.000000e-03
3 pgm_pp5_1_s0:1 vs_1_5:A 1.000000e-03
*END

*D_NET pgm_pp5_1_s2 1.362778e-03
*CONN
*I lt_pp5_1_s2:Z O
*I vs_33_5:A I
*CAP
1 pgm_pp5_1_s2:1 1.362778e-03
*RES
1 lt_pp5_1_s2:Z pgm_pp5_1_s2:1 1.546456e+00
2 pgm_pp5_1_s2:1 vs_33_5:A 1.000000e-03
*END

*D_NET pgm_pp5_2_s0 1.753985e-02
*CONN
*I lt_pp5_2_s0:Z O
*I vs_15_5:A I
*I vs_14_5:A I
*I vs_12_5:A I
*CAP
1 pgm_pp5_2_s0:1 1.753985e-02
*RES
1 lt_pp5_2_s0:Z pgm_pp5_2_s0:1 1.847572e+01
2 pgm_pp5_2_s0:1 vs_15_5:A 1.000000e-03
3 pgm_pp5_2_s0:1 vs_14_5:A 1.000000e-03
4 pgm_pp5_2_s0:1 vs_12_5:A 1.000000e-03
*END

*D_NET pgm_pp5_2_s1 8.204092e-03
*CONN
*I lt_pp5_2_s1:Z O
*I vs_23_5:A I
*CAP
1 pgm_pp5_2_s1:1 8.204092e-03
*RES
1 lt_pp5_2_s1:Z pgm_pp5_2_s1:1 6.889457e+00
2 pgm_pp5_2_s1:1 vs_23_5:A 1.000000e-03
*END

*D_NET pgm_pp5_2_s3 1.508536e-02
*CONN
*I lt_pp5_2_s3:Z O
*I vs_58_5:A I
*I vs_53_5:A I
*I vs_48_5:A I
*CAP
1 pgm_pp5_2_s3:1 1.508536e-02
*RES
1 lt_pp5_2_s3:Z pgm_pp5_2_s3:1 1.711859e+01
2 pgm_pp5_2_s3:1 vs_58_5:A 1.000000e-03
3 pgm_pp5_2_s3:1 vs_53_5:A 1.000000e-03
4 pgm_pp5_2_s3:1 vs_48_5:A 1.000000e-03
*END

*D_NET pgm_pp5_3_s1 4.396745e-03
*CONN
*I lt_pp5_3_s1:Z O
*I vs_22_5:A I
*CAP
1 pgm_pp5_3_s1:1 4.396745e-03
*RES
1 lt_pp5_3_s1:Z pgm_pp5_3_s1:1 4.137070e+00
2 pgm_pp5_3_s1:1 vs_22_5:A 1.000000e-03
*END

*D_NET pgm_pp5_3_s3 6.150580e-03
*CONN
*I lt_pp5_3_s3:Z O
*I vs_55_5:A I
*CAP
1 pgm_pp5_3_s3:1 6.150580e-03
*RES
1 lt_pp5_3_s3:Z pgm_pp5_3_s3:1 6.127292e+00
2 pgm_pp5_3_s3:1 vs_55_5:A 1.000000e-03
*END

*D_NET pgm_pp5_4_s3 4.977101e-03
*CONN
*I lt_pp5_4_s3:Z O
*I vs_49_5:A I
*CAP
1 pgm_pp5_4_s3:1 4.977101e-03
*RES
1 lt_pp5_4_s3:Z pgm_pp5_4_s3:1 5.647925e+00
2 pgm_pp5_4_s3:1 vs_49_5:A 1.000000e-03
*END

*D_NET pgm_pp5_5_s2 1.430916e-03
*CONN
*I lt_pp5_5_s2:Z O
*I vs_37_5:A I
*CAP
1 pgm_pp5_5_s2:1 1.430916e-03
*RES
1 lt_pp5_5_s2:Z pgm_pp5_5_s2:1 1.623778e+00
2 pgm_pp5_5_s2:1 vs_37_5:A 1.000000e-03
*END

*D_NET pgm_pp5_5_s3 3.098838e-03
*CONN
*I lt_pp5_5_s3:Z O
*I vs_52_5:A I
*CAP
1 pgm_pp5_5_s3:1 3.098838e-03
*RES
1 lt_pp5_5_s3:Z pgm_pp5_5_s3:1 3.516506e+00
2 pgm_pp5_5_s3:1 vs_52_5:A 1.000000e-03
*END

*D_NET pgm_pp5_6_s0 3.869103e-03
*CONN
*I lt_pp5_6_s0:Z O
*I vs_5_5:A I
*CAP
1 pgm_pp5_6_s0:1 3.869103e-03
*RES
1 lt_pp5_6_s0:Z pgm_pp5_6_s0:1 4.390589e+00
2 pgm_pp5_6_s0:1 vs_5_5:A 1.000000e-03
*END

*D_NET pgm_pp5_6_s3 6.645022e-03
*CONN
*I lt_pp5_6_s3:Z O
*I vs_60_5:A I
*CAP
1 pgm_pp5_6_s3:1 6.645022e-03
*RES
1 lt_pp5_6_s3:Z pgm_pp5_6_s3:1 7.540652e+00
2 pgm_pp5_6_s3:1 vs_60_5:A 1.000000e-03
*END

*D_NET pgm_pp5_7_s0 9.340952e-03
*CONN
*I lt_pp5_7_s0:Z O
*I vs_2_5:A I
*CAP
1 pgm_pp5_7_s0:1 9.340952e-03
*RES
1 lt_pp5_7_s0:Z pgm_pp5_7_s0:1 1.059994e+01
2 pgm_pp5_7_s0:1 vs_2_5:A 1.000000e-03
*END

*D_NET pgm_pp5_7_s1 8.917306e-04
*CONN
*I lt_pp5_7_s1:Z O
*I vs_25_5:A I
*CAP
1 pgm_pp5_7_s1:1 8.917306e-04
*RES
1 lt_pp5_7_s1:Z pgm_pp5_7_s1:1 1.011920e+00
2 pgm_pp5_7_s1:1 vs_25_5:A 1.000000e-03
*END

*D_NET pgm_pp5_7_s2 5.658490e-03
*CONN
*I lt_pp5_7_s2:Z O
*I vs_44_5:A I
*CAP
1 pgm_pp5_7_s2:1 5.658490e-03
*RES
1 lt_pp5_7_s2:Z pgm_pp5_7_s2:1 6.421153e+00
2 pgm_pp5_7_s2:1 vs_44_5:A 1.000000e-03
*END

*D_NET pgm_pp5_7_s3 6.322103e-03
*CONN
*I lt_pp5_7_s3:Z O
*I vs_61_5:A I
*CAP
1 pgm_pp5_7_s3:1 6.322103e-03
*RES
1 lt_pp5_7_s3:Z pgm_pp5_7_s3:1 7.174209e+00
2 pgm_pp5_7_s3:1 vs_61_5:A 1.000000e-03
*END

*D_NET pgm_pp5_8_s1 1.926716e-02
*CONN
*I lt_pp5_8_s1:Z O
*I vs_31_5:A I
*I vs_27_5:A I
*I vs_21_5:A I
*I vs_18_5:A I
*CAP
1 pgm_pp5_8_s1:1 1.926716e-02
*RES
1 lt_pp5_8_s1:Z pgm_pp5_8_s1:1 2.144369e+01
2 pgm_pp5_8_s1:1 vs_31_5:A 1.000000e-03
3 pgm_pp5_8_s1:1 vs_27_5:A 1.000000e-03
4 pgm_pp5_8_s1:1 vs_21_5:A 1.000000e-03
5 pgm_pp5_8_s1:1 vs_18_5:A 1.000000e-03
*END

*D_NET pgm_pp5_8_s2 7.667105e-03
*CONN
*I lt_pp5_8_s2:Z O
*I vs_47_5:A I
*CAP
1 pgm_pp5_8_s2:1 7.667105e-03
*RES
1 lt_pp5_8_s2:Z pgm_pp5_8_s2:1 8.700494e+00
2 pgm_pp5_8_s2:1 vs_47_5:A 1.000000e-03
*END

*D_NET pgm_pp5_8_s3 5.646639e-03
*CONN
*I lt_pp5_8_s3:Z O
*I vs_62_5:A I
*CAP
1 pgm_pp5_8_s3:1 5.646639e-03
*RES
1 lt_pp5_8_s3:Z pgm_pp5_8_s3:1 6.407705e+00
2 pgm_pp5_8_s3:1 vs_62_5:A 1.000000e-03
*END

*D_NET pgm_pp6_0_s0 1.806290e-02
*CONN
*I lt_pp6_0_s0:Z O
*I vs_12_6:A I
*I vs_3_6:A I
*CAP
1 pgm_pp6_0_s0:1 1.806290e-02
*RES
1 lt_pp6_0_s0:Z pgm_pp6_0_s0:1 1.863732e+01
2 pgm_pp6_0_s0:1 vs_12_6:A 1.000000e-03
3 pgm_pp6_0_s0:1 vs_3_6:A 1.000000e-03
*END

*D_NET pgm_pp6_0_s1 1.206664e-02
*CONN
*I lt_pp6_0_s1:Z O
*I vs_24_6:A I
*CAP
1 pgm_pp6_0_s1:1 1.206664e-02
*RES
1 lt_pp6_0_s1:Z pgm_pp6_0_s1:1 1.144476e+01
2 pgm_pp6_0_s1:1 vs_24_6:A 1.000000e-03
*END

*D_NET pgm_pp6_0_s3 4.506054e-03
*CONN
*I lt_pp6_0_s3:Z O
*I vs_50_6:A I
*CAP
1 pgm_pp6_0_s3:1 4.506054e-03
*RES
1 lt_pp6_0_s3:Z pgm_pp6_0_s3:1 5.113389e+00
2 pgm_pp6_0_s3:1 vs_50_6:A 1.000000e-03
*END

*D_NET pgm_pp6_10_s2 5.430235e-03
*CONN
*I lt_pp6_10_s2:Z O
*I vs_41_6:A I
*CAP
1 pgm_pp6_10_s2:1 5.430235e-03
*RES
1 lt_pp6_10_s2:Z pgm_pp6_10_s2:1 5.165878e+00
2 pgm_pp6_10_s2:1 vs_41_6:A 1.000000e-03
*END

*D_NET pgm_pp6_10_s3 2.881991e-03
*CONN
*I lt_pp6_10_s3:Z O
*I vs_59_6:A I
*CAP
1 pgm_pp6_10_s3:1 2.881991e-03
*RES
1 lt_pp6_10_s3:Z pgm_pp6_10_s3:1 2.130196e+00
2 pgm_pp6_10_s3:1 vs_59_6:A 1.000000e-03
*END

*D_NET pgm_pp6_11_s0 3.241041e-03
*CONN
*I lt_pp6_11_s0:Z O
*I vs_15_6:A I
*CAP
1 pgm_pp6_11_s0:1 3.241041e-03
*RES
1 lt_pp6_11_s0:Z pgm_pp6_11_s0:1 3.677875e+00
2 pgm_pp6_11_s0:1 vs_15_6:A 1.000000e-03
*END

*D_NET pgm_pp6_11_s1 2.118230e-03
*CONN
*I lt_pp6_11_s1:Z O
*I vs_30_6:A I
*CAP
1 pgm_pp6_11_s1:1 2.118230e-03
*RES
1 lt_pp6_11_s1:Z pgm_pp6_11_s1:1 2.403730e+00
2 pgm_pp6_11_s1:1 vs_30_6:A 1.000000e-03
*END

*D_NET pgm_pp6_12_s0 3.562937e-03
*CONN
*I lt_pp6_12_s0:Z O
*I vs_13_6:A I
*CAP
1 pgm_pp6_12_s0:1 3.562937e-03
*RES
1 lt_pp6_12_s0:Z pgm_pp6_12_s0:1 2.758942e+00
2 pgm_pp6_12_s0:1 vs_13_6:A 1.000000e-03
*END

*D_NET pgm_pp6_1_s0 5.039315e-03
*CONN
*I lt_pp6_1_s0:Z O
*I vs_4_6:A I
*CAP
1 pgm_pp6_1_s0:1 5.039315e-03
*RES
1 lt_pp6_1_s0:Z pgm_pp6_1_s0:1 5.718524e+00
2 pgm_pp6_1_s0:1 vs_4_6:A 1.000000e-03
*END

*D_NET pgm_pp6_1_s1 1.969510e-02
*CONN
*I lt_pp6_1_s1:Z O
*I vs_29_6:A I
*CAP
1 pgm_pp6_1_s1:1 1.969510e-02
*RES
1 lt_pp6_1_s1:Z pgm_pp6_1_s1:1 2.234965e+01
2 pgm_pp6_1_s1:1 vs_29_6:A 1.000000e-03
*END

*D_NET pgm_pp6_1_s2 8.286006e-03
*CONN
*I lt_pp6_1_s2:Z O
*I vs_37_6:A I
*CAP
1 pgm_pp6_1_s2:1 8.286006e-03
*RES
1 lt_pp6_1_s2:Z pgm_pp6_1_s2:1 7.398699e+00
2 pgm_pp6_1_s2:1 vs_37_6:A 1.000000e-03
*END

*D_NET pgm_pp6_1_s3 1.503482e-02
*CONN
*I lt_pp6_1_s3:Z O
*I vs_60_6:A I
*I vs_58_6:A I
*I vs_57_6:A I
*CAP
1 pgm_pp6_1_s3:1 1.503482e-02
*RES
1 lt_pp6_1_s3:Z pgm_pp6_1_s3:1 1.567687e+01
2 pgm_pp6_1_s3:1 vs_60_6:A 1.000000e-03
3 pgm_pp6_1_s3:1 vs_58_6:A 1.000000e-03
4 pgm_pp6_1_s3:1 vs_57_6:A 1.000000e-03
*END

*D_NET pgm_pp6_2_s3 3.110688e-03
*CONN
*I lt_pp6_2_s3:Z O
*I vs_49_6:A I
*CAP
1 pgm_pp6_2_s3:1 3.110688e-03
*RES
1 lt_pp6_2_s3:Z pgm_pp6_2_s3:1 3.529953e+00
2 pgm_pp6_2_s3:1 vs_49_6:A 1.000000e-03
*END

*D_NET pgm_pp6_3_s1 1.127448e-02
*CONN
*I lt_pp6_3_s1:Z O
*I vs_27_6:A I
*CAP
1 pgm_pp6_3_s1:1 1.127448e-02
*RES
1 lt_pp6_3_s1:Z pgm_pp6_3_s1:1 1.150986e+01
2 pgm_pp6_3_s1:1 vs_27_6:A 1.000000e-03
*END

*D_NET pgm_pp6_3_s2 6.413942e-03
*CONN
*I lt_pp6_3_s2:Z O
*I vs_40_6:A I
*CAP
1 pgm_pp6_3_s2:1 6.413942e-03
*RES
1 lt_pp6_3_s2:Z pgm_pp6_3_s2:1 7.278427e+00
2 pgm_pp6_3_s2:1 vs_40_6:A 1.000000e-03
*END

*D_NET pgm_pp6_3_s3 2.781844e-03
*CONN
*I lt_pp6_3_s3:Z O
*I vs_53_6:A I
*CAP
1 pgm_pp6_3_s3:1 2.781844e-03
*RES
1 lt_pp6_3_s3:Z pgm_pp6_3_s3:1 3.156787e+00
2 pgm_pp6_3_s3:1 vs_53_6:A 1.000000e-03
*END

*D_NET pgm_pp6_4_s3 3.824665e-03
*CONN
*I lt_pp6_4_s3:Z O
*I vs_55_6:A I
*CAP
1 pgm_pp6_4_s3:1 3.824665e-03
*RES
1 lt_pp6_4_s3:Z pgm_pp6_4_s3:1 4.340161e+00
2 pgm_pp6_4_s3:1 vs_55_6:A 1.000000e-03
*END

*D_NET pgm_pp6_5_s0 1.567194e-03
*CONN
*I lt_pp6_5_s0:Z O
*I vs_7_6:A I
*CAP
1 pgm_pp6_5_s0:1 1.567194e-03
*RES
1 lt_pp6_5_s0:Z pgm_pp6_5_s0:1 1.778424e+00
2 pgm_pp6_5_s0:1 vs_7_6:A 1.000000e-03
*END

*D_NET pgm_pp6_5_s1 6.739824e-03
*CONN
*I lt_pp6_5_s1:Z O
*I vs_25_6:A I
*CAP
1 pgm_pp6_5_s1:1 6.739824e-03
*RES
1 lt_pp6_5_s1:Z pgm_pp6_5_s1:1 7.648232e+00
2 pgm_pp6_5_s1:1 vs_25_6:A 1.000000e-03
*END

*D_NET pgm_pp6_6_s0 3.184752e-03
*CONN
*I lt_pp6_6_s0:Z O
*I vs_5_6:A I
*CAP
1 pgm_pp6_6_s0:1 3.184752e-03
*RES
1 lt_pp6_6_s0:Z pgm_pp6_6_s0:1 3.613999e+00
2 pgm_pp6_6_s0:1 vs_5_6:A 1.000000e-03
*END

*D_NET pgm_pp6_7_s1 3.239609e-03
*CONN
*I lt_pp6_7_s1:Z O
*I vs_22_6:A I
*CAP
1 pgm_pp6_7_s1:1 3.239609e-03
*RES
1 lt_pp6_7_s1:Z pgm_pp6_7_s1:1 2.091556e+00
2 pgm_pp6_7_s1:1 vs_22_6:A 1.000000e-03
*END

*D_NET pgm_pp6_8_s0 1.161732e-02
*CONN
*I lt_pp6_8_s0:Z O
*I vs_1_6:A I
*CAP
1 pgm_pp6_8_s0:1 1.161732e-02
*RES
1 lt_pp6_8_s0:Z pgm_pp6_8_s0:1 1.184257e+01
2 pgm_pp6_8_s0:1 vs_1_6:A 1.000000e-03
*END

*D_NET pgm_pp6_8_s2 5.300020e-03
*CONN
*I lt_pp6_8_s2:Z O
*I vs_45_6:A I
*CAP
1 pgm_pp6_8_s2:1 5.300020e-03
*RES
1 lt_pp6_8_s2:Z pgm_pp6_8_s2:1 6.014368e+00
2 pgm_pp6_8_s2:1 vs_45_6:A 1.000000e-03
*END

*D_NET pgm_pp6_8_s3 5.385934e-03
*CONN
*I lt_pp6_8_s3:Z O
*I vs_54_6:A I
*CAP
1 pgm_pp6_8_s3:1 5.385934e-03
*RES
1 lt_pp6_8_s3:Z pgm_pp6_8_s3:1 6.111861e+00
2 pgm_pp6_8_s3:1 vs_54_6:A 1.000000e-03
*END

*D_NET pgm_pp6_9_s1 1.304119e-02
*CONN
*I lt_pp6_9_s1:Z O
*I vs_17_6:A I
*CAP
1 pgm_pp6_9_s1:1 1.304119e-02
*RES
1 lt_pp6_9_s1:Z pgm_pp6_9_s1:1 1.479891e+01
2 pgm_pp6_9_s1:1 vs_17_6:A 1.000000e-03
*END

*D_NET pgm_pp7_0_s2 1.312846e-02
*CONN
*I lt_pp7_0_s2:Z O
*I vs_40_7:A I
*I vs_39_7:A I
*CAP
1 pgm_pp7_0_s2:1 1.312846e-02
*RES
1 lt_pp7_0_s2:Z pgm_pp7_0_s2:1 1.246189e+01
2 pgm_pp7_0_s2:1 vs_40_7:A 1.000000e-03
3 pgm_pp7_0_s2:1 vs_39_7:A 1.000000e-03
*END

*D_NET pgm_pp7_0_s3 1.896038e-02
*CONN
*I lt_pp7_0_s3:Z O
*I vs_62_7:A I
*CAP
1 pgm_pp7_0_s3:1 1.896038e-02
*RES
1 lt_pp7_0_s3:Z pgm_pp7_0_s3:1 2.151590e+01
2 pgm_pp7_0_s3:1 vs_62_7:A 1.000000e-03
*END

*D_NET pgm_pp7_11_s2 1.715322e-03
*CONN
*I lt_pp7_11_s2:Z O
*I vs_45_7:A I
*CAP
1 pgm_pp7_11_s2:1 1.715322e-03
*RES
1 lt_pp7_11_s2:Z pgm_pp7_11_s2:1 1.946517e+00
2 pgm_pp7_11_s2:1 vs_45_7:A 1.000000e-03
*END

*D_NET pgm_pp7_11_s3 4.132771e-03
*CONN
*I lt_pp7_11_s3:Z O
*I vs_59_7:A I
*CAP
1 pgm_pp7_11_s3:1 4.132771e-03
*RES
1 lt_pp7_11_s3:Z pgm_pp7_11_s3:1 4.689795e+00
2 pgm_pp7_11_s3:1 vs_59_7:A 1.000000e-03
*END

*D_NET pgm_pp7_12_s3 7.326411e-03
*CONN
*I lt_pp7_12_s3:Z O
*I vs_58_7:A I
*CAP
1 pgm_pp7_12_s3:1 7.326411e-03
*RES
1 lt_pp7_12_s3:Z pgm_pp7_12_s3:1 8.313880e+00
2 pgm_pp7_12_s3:1 vs_58_7:A 1.000000e-03
*END

*D_NET pgm_pp7_1_s0 1.924479e-02
*CONN
*I lt_pp7_1_s0:Z O
*I vs_14_7:A I
*I vs_3_7:A I
*CAP
1 pgm_pp7_1_s0:1 1.924479e-02
*RES
1 lt_pp7_1_s0:Z pgm_pp7_1_s0:1 2.183864e+01
2 pgm_pp7_1_s0:1 vs_14_7:A 1.000000e-03
3 pgm_pp7_1_s0:1 vs_3_7:A 1.000000e-03
*END

*D_NET pgm_pp7_1_s2 2.168890e-02
*CONN
*I lt_pp7_1_s2:Z O
*I vs_46_7:A I
*I vs_34_7:A I
*CAP
1 pgm_pp7_1_s2:1 2.168890e-02
*RES
1 lt_pp7_1_s2:Z pgm_pp7_1_s2:1 2.461218e+01
2 pgm_pp7_1_s2:1 vs_46_7:A 1.000000e-03
3 pgm_pp7_1_s2:1 vs_34_7:A 1.000000e-03
*END

*D_NET pgm_pp7_1_s3 1.362778e-03
*CONN
*I lt_pp7_1_s3:Z O
*I vs_49_7:A I
*CAP
1 pgm_pp7_1_s3:1 1.362778e-03
*RES
1 lt_pp7_1_s3:Z pgm_pp7_1_s3:1 1.546456e+00
2 pgm_pp7_1_s3:1 vs_49_7:A 1.000000e-03
*END

*D_NET pgm_pp7_2_s0 1.188862e-02
*CONN
*I lt_pp7_2_s0:Z O
*I vs_10_7:A I
*CAP
1 pgm_pp7_2_s0:1 1.188862e-02
*RES
1 lt_pp7_2_s0:Z pgm_pp7_2_s0:1 1.249473e+01
2 pgm_pp7_2_s0:1 vs_10_7:A 1.000000e-03
*END

*D_NET pgm_pp7_2_s3 3.809852e-03
*CONN
*I lt_pp7_2_s3:Z O
*I vs_52_7:A I
*CAP
1 pgm_pp7_2_s3:1 3.809852e-03
*RES
1 lt_pp7_2_s3:Z pgm_pp7_2_s3:1 4.323352e+00
2 pgm_pp7_2_s3:1 vs_52_7:A 1.000000e-03
*END

*D_NET pgm_pp7_3_s1 7.719237e-03
*CONN
*I lt_pp7_3_s1:Z O
*I vs_25_7:A I
*CAP
1 pgm_pp7_3_s1:1 7.719237e-03
*RES
1 lt_pp7_3_s1:Z pgm_pp7_3_s1:1 6.079462e+00
2 pgm_pp7_3_s1:1 vs_25_7:A 1.000000e-03
*END

*D_NET pgm_pp7_4_s0 9.480192e-04
*CONN
*I lt_pp7_4_s0:Z O
*I vs_5_7:A I
*CAP
1 pgm_pp7_4_s0:1 9.480192e-04
*RES
1 lt_pp7_4_s0:Z pgm_pp7_4_s0:1 1.075795e+00
2 pgm_pp7_4_s0:1 vs_5_7:A 1.000000e-03
*END

*D_NET pgm_pp7_4_s1 1.198059e-02
*CONN
*I lt_pp7_4_s1:Z O
*I vs_29_7:A I
*CAP
1 pgm_pp7_4_s1:1 1.198059e-02
*RES
1 lt_pp7_4_s1:Z pgm_pp7_4_s1:1 1.359536e+01
2 pgm_pp7_4_s1:1 vs_29_7:A 1.000000e-03
*END

*D_NET pgm_pp7_4_s2 8.825466e-03
*CONN
*I lt_pp7_4_s2:Z O
*I vs_43_7:A I
*CAP
1 pgm_pp7_4_s2:1 8.825466e-03
*RES
1 lt_pp7_4_s2:Z pgm_pp7_4_s2:1 1.001498e+01
2 pgm_pp7_4_s2:1 vs_43_7:A 1.000000e-03
*END

*D_NET pgm_pp7_5_s0 8.751402e-03
*CONN
*I lt_pp7_5_s0:Z O
*I vs_0_7:A I
*CAP
1 pgm_pp7_5_s0:1 8.751402e-03
*RES
1 lt_pp7_5_s0:Z pgm_pp7_5_s0:1 9.930934e+00
2 pgm_pp7_5_s0:1 vs_0_7:A 1.000000e-03
*END

*D_NET pgm_pp7_5_s1 2.639641e-03
*CONN
*I lt_pp7_5_s1:Z O
*I vs_20_7:A I
*CAP
1 pgm_pp7_5_s1:1 2.639641e-03
*RES
1 lt_pp7_5_s1:Z pgm_pp7_5_s1:1 2.995417e+00
2 pgm_pp7_5_s1:1 vs_20_7:A 1.000000e-03
*END

*D_NET pgm_pp7_6_s1 1.362778e-04
*CONN
*I lt_pp7_6_s1:Z O
*I vs_23_7:A I
*CAP
1 pgm_pp7_6_s1:1 1.362778e-04
*RES
1 lt_pp7_6_s1:Z pgm_pp7_6_s1:1 1.546456e-01
2 pgm_pp7_6_s1:1 vs_23_7:A 1.000000e-03
*END

*D_NET pgm_pp7_6_s2 4.846748e-03
*CONN
*I lt_pp7_6_s2:Z O
*I vs_36_7:A I
*CAP
1 pgm_pp7_6_s2:1 4.846748e-03
*RES
1 lt_pp7_6_s2:Z pgm_pp7_6_s2:1 5.500003e+00
2 pgm_pp7_6_s2:1 vs_36_7:A 1.000000e-03
*END

*D_NET pgm_pp7_6_s3 8.304056e-03
*CONN
*I lt_pp7_6_s3:Z O
*I vs_50_7:A I
*CAP
1 pgm_pp7_6_s3:1 8.304056e-03
*RES
1 lt_pp7_6_s3:Z pgm_pp7_6_s3:1 9.423294e+00
2 pgm_pp7_6_s3:1 vs_50_7:A 1.000000e-03
*END

*D_NET pgm_pp7_7_s1 2.150819e-03
*CONN
*I lt_pp7_7_s1:Z O
*I vs_26_7:A I
*CAP
1 pgm_pp7_7_s1:1 2.150819e-03
*RES
1 lt_pp7_7_s1:Z pgm_pp7_7_s1:1 2.440710e+00
2 pgm_pp7_7_s1:1 vs_26_7:A 1.000000e-03
*END

*D_NET pgm_pp7_8_s0 9.115797e-03
*CONN
*I lt_pp7_8_s0:Z O
*I vs_4_7:A I
*CAP
1 pgm_pp7_8_s0:1 9.115797e-03
*RES
1 lt_pp7_8_s0:Z pgm_pp7_8_s0:1 1.034444e+01
2 pgm_pp7_8_s0:1 vs_4_7:A 1.000000e-03
*END

*D_NET pgm_pp7_8_s2 6.182863e-03
*CONN
*I lt_pp7_8_s2:Z O
*I vs_38_7:A I
*CAP
1 pgm_pp7_8_s2:1 6.182863e-03
*RES
1 lt_pp7_8_s2:Z pgm_pp7_8_s2:1 7.016202e+00
2 pgm_pp7_8_s2:1 vs_38_7:A 1.000000e-03
*END

*D_NET pgm_pp7_9_s1 1.509424e-02
*CONN
*I lt_pp7_9_s1:Z O
*I vs_27_7:A I
*I vs_17_7:A I
*CAP
1 pgm_pp7_9_s1:1 1.509424e-02
*RES
1 lt_pp7_9_s1:Z pgm_pp7_9_s1:1 1.712868e+01
2 pgm_pp7_9_s1:1 vs_27_7:A 1.000000e-03
3 pgm_pp7_9_s1:1 vs_17_7:A 1.000000e-03
*END

*D_NET pgm_pp7_9_s3 1.416400e-02
*CONN
*I lt_pp7_9_s3:Z O
*I vs_48_7:A I
*CAP
1 pgm_pp7_9_s3:1 1.416400e-02
*RES
1 lt_pp7_9_s3:Z pgm_pp7_9_s3:1 1.607305e+01
2 pgm_pp7_9_s3:1 vs_48_7:A 1.000000e-03
*END

*D_NET pgm_pp8_0_s0 1.577580e-02
*CONN
*I lt_pp8_0_s0:Z O
*I vs_9_8:A I
*I vs_8_8:A I
*CAP
1 pgm_pp8_0_s0:1 1.577580e-02
*RES
1 lt_pp8_0_s0:Z pgm_pp8_0_s0:1 1.604196e+01
2 pgm_pp8_0_s0:1 vs_9_8:A 1.000000e-03
3 pgm_pp8_0_s0:1 vs_8_8:A 1.000000e-03
*END

*D_NET pgm_pp8_0_s3 1.560677e-02
*CONN
*I lt_pp8_0_s3:Z O
*I vs_59_8:A I
*CAP
1 pgm_pp8_0_s3:1 1.560677e-02
*RES
1 lt_pp8_0_s3:Z pgm_pp8_0_s3:1 1.771028e+01
2 pgm_pp8_0_s3:1 vs_59_8:A 1.000000e-03
*END

*D_NET pgm_pp8_10_s3 1.365740e-02
*CONN
*I lt_pp8_10_s3:Z O
*I vs_51_8:A I
*CAP
1 pgm_pp8_10_s3:1 1.365740e-02
*RES
1 lt_pp8_10_s3:Z pgm_pp8_10_s3:1 1.549817e+01
2 pgm_pp8_10_s3:1 vs_51_8:A 1.000000e-03
*END

*D_NET pgm_pp8_11_s0 1.063797e-02
*CONN
*I lt_pp8_11_s0:Z O
*I vs_7_8:A I
*I vs_6_8:A I
*CAP
1 pgm_pp8_11_s0:1 1.063797e-02
*RES
1 lt_pp8_11_s0:Z pgm_pp8_11_s0:1 1.093155e+01
2 pgm_pp8_11_s0:1 vs_7_8:A 1.000000e-03
3 pgm_pp8_11_s0:1 vs_6_8:A 1.000000e-03
*END

*D_NET pgm_pp8_11_s1 2.028097e-02
*CONN
*I lt_pp8_11_s1:Z O
*I vs_16_8:A I
*CAP
1 pgm_pp8_11_s1:1 2.028097e-02
*RES
1 lt_pp8_11_s1:Z pgm_pp8_11_s1:1 2.086639e+01
2 pgm_pp8_11_s1:1 vs_16_8:A 1.000000e-03
*END

*D_NET pgm_pp8_11_s2 1.057872e-02
*CONN
*I lt_pp8_11_s2:Z O
*I vs_39_8:A I
*CAP
1 pgm_pp8_11_s2:1 1.057872e-02
*RES
1 lt_pp8_11_s2:Z pgm_pp8_11_s2:1 1.086431e+01
2 pgm_pp8_11_s2:1 vs_39_8:A 1.000000e-03
*END

*D_NET pgm_pp8_11_s3 7.895222e-03
*CONN
*I lt_pp8_11_s3:Z O
*I vs_56_8:A I
*CAP
1 pgm_pp8_11_s3:1 7.895222e-03
*RES
1 lt_pp8_11_s3:Z pgm_pp8_11_s3:1 8.959357e+00
2 pgm_pp8_11_s3:1 vs_56_8:A 1.000000e-03
*END

*D_NET pgm_pp8_1_s0 1.673642e-02
*CONN
*I lt_pp8_1_s0:Z O
*I vs_11_8:A I
*I vs_2_8:A I
*CAP
1 pgm_pp8_1_s0:1 1.673642e-02
*RES
1 lt_pp8_1_s0:Z pgm_pp8_1_s0:1 1.641796e+01
2 pgm_pp8_1_s0:1 vs_11_8:A 1.000000e-03
3 pgm_pp8_1_s0:1 vs_2_8:A 1.000000e-03
*END

*D_NET pgm_pp8_1_s2 1.897816e-02
*CONN
*I lt_pp8_1_s2:Z O
*I vs_46_8:A I
*I vs_33_8:A I
*CAP
1 pgm_pp8_1_s2:1 1.897816e-02
*RES
1 lt_pp8_1_s2:Z pgm_pp8_1_s2:1 2.153608e+01
2 pgm_pp8_1_s2:1 vs_46_8:A 1.000000e-03
3 pgm_pp8_1_s2:1 vs_33_8:A 1.000000e-03
*END

*D_NET pgm_pp8_1_s3 1.586747e-02
*CONN
*I lt_pp8_1_s3:Z O
*I vs_61_8:A I
*I vs_60_8:A I
*CAP
1 pgm_pp8_1_s3:1 1.586747e-02
*RES
1 lt_pp8_1_s3:Z pgm_pp8_1_s3:1 1.800612e+01
2 pgm_pp8_1_s3:1 vs_61_8:A 1.000000e-03
3 pgm_pp8_1_s3:1 vs_60_8:A 1.000000e-03
*END

*D_NET pgm_pp8_2_s1 1.108191e-02
*CONN
*I lt_pp8_2_s1:Z O
*I vs_26_8:A I
*CAP
1 pgm_pp8_2_s1:1 1.108191e-02
*RES
1 lt_pp8_2_s1:Z pgm_pp8_2_s1:1 1.129134e+01
2 pgm_pp8_2_s1:1 vs_26_8:A 1.000000e-03
*END

*D_NET pgm_pp8_3_s1 1.519201e-02
*CONN
*I lt_pp8_3_s1:Z O
*I vs_31_8:A I
*I vs_29_8:A I
*CAP
1 pgm_pp8_3_s1:1 1.519201e-02
*RES
1 lt_pp8_3_s1:Z pgm_pp8_3_s1:1 1.723962e+01
2 pgm_pp8_3_s1:1 vs_31_8:A 1.000000e-03
3 pgm_pp8_3_s1:1 vs_29_8:A 1.000000e-03
*END

*D_NET pgm_pp8_3_s2 7.708581e-03
*CONN
*I lt_pp8_3_s2:Z O
*I vs_40_8:A I
*I vs_38_8:A I
*CAP
1 pgm_pp8_3_s2:1 7.708581e-03
*RES
1 lt_pp8_3_s2:Z pgm_pp8_3_s2:1 8.747560e+00
2 pgm_pp8_3_s2:1 vs_40_8:A 1.000000e-03
3 pgm_pp8_3_s2:1 vs_38_8:A 1.000000e-03
*END

*D_NET pgm_pp8_3_s3 5.572575e-03
*CONN
*I lt_pp8_3_s3:Z O
*I vs_55_8:A I
*I vs_52_8:A I
*CAP
1 pgm_pp8_3_s3:1 5.572575e-03
*RES
1 lt_pp8_3_s3:Z pgm_pp8_3_s3:1 6.323659e+00
2 pgm_pp8_3_s3:1 vs_55_8:A 1.000000e-03
3 pgm_pp8_3_s3:1 vs_52_8:A 1.000000e-03
*END

*D_NET pgm_pp8_4_s0 1.143548e-02
*CONN
*I lt_pp8_4_s0:Z O
*I vs_13_8:A I
*CAP
1 pgm_pp8_4_s0:1 1.143548e-02
*RES
1 lt_pp8_4_s0:Z pgm_pp8_4_s0:1 1.297678e+01
2 pgm_pp8_4_s0:1 vs_13_8:A 1.000000e-03
*END

*D_NET pgm_pp8_4_s2 1.300564e-03
*CONN
*I lt_pp8_4_s2:Z O
*I vs_36_8:A I
*CAP
1 pgm_pp8_4_s2:1 1.300564e-03
*RES
1 lt_pp8_4_s2:Z pgm_pp8_4_s2:1 1.475857e+00
2 pgm_pp8_4_s2:1 vs_36_8:A 1.000000e-03
*END

*D_NET pgm_pp8_5_s1 1.179395e-02
*CONN
*I lt_pp8_5_s1:Z O
*I vs_30_8:A I
*I vs_27_8:A I
*I vs_23_8:A I
*CAP
1 pgm_pp8_5_s1:1 1.179395e-02
*RES
1 lt_pp8_5_s1:Z pgm_pp8_5_s1:1 1.338356e+01
2 pgm_pp8_5_s1:1 vs_30_8:A 1.000000e-03
3 pgm_pp8_5_s1:1 vs_27_8:A 1.000000e-03
4 pgm_pp8_5_s1:1 vs_23_8:A 1.000000e-03
*END

*D_NET pgm_pp8_6_s0 9.329101e-03
*CONN
*I lt_pp8_6_s0:Z O
*I vs_14_8:A I
*CAP
1 pgm_pp8_6_s0:1 9.329101e-03
*RES
1 lt_pp8_6_s0:Z pgm_pp8_6_s0:1 1.058650e+01
2 pgm_pp8_6_s0:1 vs_14_8:A 1.000000e-03
*END

*D_NET pgm_pp8_6_s2 1.117968e-02
*CONN
*I lt_pp8_6_s2:Z O
*I vs_32_8:A I
*CAP
1 pgm_pp8_6_s2:1 1.117968e-02
*RES
1 lt_pp8_6_s2:Z pgm_pp8_6_s2:1 1.140228e+01
2 pgm_pp8_6_s2:1 vs_32_8:A 1.000000e-03
*END

*D_NET pgm_pp8_7_s1 4.977101e-03
*CONN
*I lt_pp8_7_s1:Z O
*I vs_28_8:A I
*I vs_25_8:A I
*CAP
1 pgm_pp8_7_s1:1 4.977101e-03
*RES
1 lt_pp8_7_s1:Z pgm_pp8_7_s1:1 5.647925e+00
2 pgm_pp8_7_s1:1 vs_28_8:A 1.000000e-03
3 pgm_pp8_7_s1:1 vs_25_8:A 1.000000e-03
*END

*D_NET pgm_pp8_8_s2 1.164286e-03
*CONN
*I lt_pp8_8_s2:Z O
*I vs_41_8:A I
*CAP
1 pgm_pp8_8_s2:1 1.164286e-03
*RES
1 lt_pp8_8_s2:Z pgm_pp8_8_s2:1 1.321211e+00
2 pgm_pp8_8_s2:1 vs_41_8:A 1.000000e-03
*END

*D_NET pgm_pp8_8_s3 5.646639e-03
*CONN
*I lt_pp8_8_s3:Z O
*I vs_62_8:A I
*CAP
1 pgm_pp8_8_s3:1 5.646639e-03
*RES
1 lt_pp8_8_s3:Z pgm_pp8_8_s3:1 6.407705e+00
2 pgm_pp8_8_s3:1 vs_62_8:A 1.000000e-03
*END

*D_NET pgm_pp8_9_s3 1.385886e-02
*CONN
*I lt_pp8_9_s3:Z O
*I vs_49_8:A I
*CAP
1 pgm_pp8_9_s3:1 1.385886e-02
*RES
1 lt_pp8_9_s3:Z pgm_pp8_9_s3:1 1.572678e+01
2 pgm_pp8_9_s3:1 vs_49_8:A 1.000000e-03
*END

*D_NET pgm_pp9_0_s0 1.283354e-02
*CONN
*I lt_pp9_0_s0:Z O
*I vs_8_9:A I
*CAP
1 pgm_pp9_0_s0:1 1.283354e-02
*RES
1 lt_pp9_0_s0:Z pgm_pp9_0_s0:1 1.255915e+01
2 pgm_pp9_0_s0:1 vs_8_9:A 1.000000e-03
*END

*D_NET pgm_pp9_0_s2 9.266067e-03
*CONN
*I lt_pp9_0_s2:Z O
*I vs_37_9:A I
*CAP
1 pgm_pp9_0_s2:1 9.266067e-03
*RES
1 lt_pp9_0_s2:Z pgm_pp9_0_s2:1 7.202520e+00
2 pgm_pp9_0_s2:1 vs_37_9:A 1.000000e-03
*END

*D_NET pgm_pp9_10_s1 8.744897e-03
*CONN
*I lt_pp9_10_s1:Z O
*I vs_22_9:A I
*CAP
1 pgm_pp9_10_s1:1 8.744897e-03
*RES
1 lt_pp9_10_s1:Z pgm_pp9_10_s1:1 8.783317e+00
2 pgm_pp9_10_s1:1 vs_22_9:A 1.000000e-03
*END

*D_NET pgm_pp9_11_s2 6.153237e-03
*CONN
*I lt_pp9_11_s2:Z O
*I vs_42_9:A I
*CAP
1 pgm_pp9_11_s2:1 6.153237e-03
*RES
1 lt_pp9_11_s2:Z pgm_pp9_11_s2:1 6.982583e+00
2 pgm_pp9_11_s2:1 vs_42_9:A 1.000000e-03
*END

*D_NET pgm_pp9_11_s3 7.095331e-03
*CONN
*I lt_pp9_11_s3:Z O
*I vs_60_9:A I
*I vs_57_9:A I
*CAP
1 pgm_pp9_11_s3:1 7.095331e-03
*RES
1 lt_pp9_11_s3:Z pgm_pp9_11_s3:1 8.051655e+00
2 pgm_pp9_11_s3:1 vs_60_9:A 1.000000e-03
3 pgm_pp9_11_s3:1 vs_57_9:A 1.000000e-03
*END

*D_NET pgm_pp9_12_s2 2.259418e-02
*CONN
*I lt_pp9_12_s2:Z O
*I vs_39_9:A I
*I vs_33_9:A I
*CAP
1 pgm_pp9_12_s2:1 2.259418e-02
*RES
1 lt_pp9_12_s2:Z pgm_pp9_12_s2:1 2.218305e+01
2 pgm_pp9_12_s2:1 vs_39_9:A 1.000000e-03
3 pgm_pp9_12_s2:1 vs_33_9:A 1.000000e-03
*END

*D_NET pgm_pp9_12_s3 2.064016e-02
*CONN
*I lt_pp9_12_s3:Z O
*I vs_48_9:A I
*CAP
1 pgm_pp9_12_s3:1 2.064016e-02
*RES
1 lt_pp9_12_s3:Z pgm_pp9_12_s3:1 2.342208e+01
2 pgm_pp9_12_s3:1 vs_48_9:A 1.000000e-03
*END

*D_NET pgm_pp9_1_s1 3.874448e-03
*CONN
*I lt_pp9_1_s1:Z O
*I vs_19_9:A I
*CAP
1 pgm_pp9_1_s1:1 3.874448e-03
*RES
1 lt_pp9_1_s1:Z pgm_pp9_1_s1:1 3.256419e+00
2 pgm_pp9_1_s1:1 vs_19_9:A 1.000000e-03
*END

*D_NET pgm_pp9_1_s2 1.866601e-02
*CONN
*I lt_pp9_1_s2:Z O
*I vs_43_9:A I
*CAP
1 pgm_pp9_1_s2:1 1.866601e-02
*RES
1 lt_pp9_1_s2:Z pgm_pp9_1_s2:1 1.796552e+01
2 pgm_pp9_1_s2:1 vs_43_9:A 1.000000e-03
*END

*D_NET pgm_pp9_1_s3 9.586844e-03
*CONN
*I lt_pp9_1_s3:Z O
*I vs_54_9:A I
*I vs_49_9:A I
*CAP
1 pgm_pp9_1_s3:1 9.586844e-03
*RES
1 lt_pp9_1_s3:Z pgm_pp9_1_s3:1 1.087898e+01
2 pgm_pp9_1_s3:1 vs_54_9:A 1.000000e-03
3 pgm_pp9_1_s3:1 vs_49_9:A 1.000000e-03
*END

*D_NET pgm_pp9_2_s1 1.526024e-03
*CONN
*I lt_pp9_2_s1:Z O
*I vs_18_9:A I
*CAP
1 pgm_pp9_2_s1:1 1.526024e-03
*RES
1 lt_pp9_2_s1:Z pgm_pp9_2_s1:1 8.794281e-01
2 pgm_pp9_2_s1:1 vs_18_9:A 1.000000e-03
*END

*D_NET pgm_pp9_2_s3 9.027088e-03
*CONN
*I lt_pp9_2_s3:Z O
*I vs_55_9:A I
*I vs_51_9:A I
*CAP
1 pgm_pp9_2_s3:1 9.027088e-03
*RES
1 lt_pp9_2_s3:Z pgm_pp9_2_s3:1 7.839027e+00
2 pgm_pp9_2_s3:1 vs_55_9:A 1.000000e-03
3 pgm_pp9_2_s3:1 vs_51_9:A 1.000000e-03
*END

*D_NET pgm_pp9_3_s0 1.364157e-02
*CONN
*I lt_pp9_3_s0:Z O
*I vs_13_9:A I
*CAP
1 pgm_pp9_3_s0:1 1.364157e-02
*RES
1 lt_pp9_3_s0:Z pgm_pp9_3_s0:1 1.419599e+01
2 pgm_pp9_3_s0:1 vs_13_9:A 1.000000e-03
*END

*D_NET pgm_pp9_3_s1 5.982157e-03
*CONN
*I lt_pp9_3_s1:Z O
*I vs_23_9:A I
*CAP
1 pgm_pp9_3_s1:1 5.982157e-03
*RES
1 lt_pp9_3_s1:Z pgm_pp9_3_s1:1 6.080147e+00
2 pgm_pp9_3_s1:1 vs_23_9:A 1.000000e-03
*END

*D_NET pgm_pp9_4_s0 1.869672e-02
*CONN
*I lt_pp9_4_s0:Z O
*I vs_15_9:A I
*I vs_3_9:A I
*CAP
1 pgm_pp9_4_s0:1 1.869672e-02
*RES
1 lt_pp9_4_s0:Z pgm_pp9_4_s0:1 2.121670e+01
2 pgm_pp9_4_s0:1 vs_15_9:A 1.000000e-03
3 pgm_pp9_4_s0:1 vs_3_9:A 1.000000e-03
*END

*D_NET pgm_pp9_5_s1 1.237165e-02
*CONN
*I lt_pp9_5_s1:Z O
*I vs_31_9:A I
*CAP
1 pgm_pp9_5_s1:1 1.237165e-02
*RES
1 lt_pp9_5_s1:Z pgm_pp9_5_s1:1 1.403913e+01
2 pgm_pp9_5_s1:1 vs_31_9:A 1.000000e-03
*END

*D_NET pgm_pp9_5_s2 2.639641e-03
*CONN
*I lt_pp9_5_s2:Z O
*I vs_40_9:A I
*CAP
1 pgm_pp9_5_s2:1 2.639641e-03
*RES
1 lt_pp9_5_s2:Z pgm_pp9_5_s2:1 2.995417e+00
2 pgm_pp9_5_s2:1 vs_40_9:A 1.000000e-03
*END

*D_NET pgm_pp9_5_s3 2.538914e-03
*CONN
*I lt_pp9_5_s3:Z O
*I vs_53_9:A I
*CAP
1 pgm_pp9_5_s3:1 2.538914e-03
*RES
1 lt_pp9_5_s3:Z pgm_pp9_5_s3:1 2.881114e+00
2 pgm_pp9_5_s3:1 vs_53_9:A 1.000000e-03
*END

*D_NET pgm_pp9_6_s0 2.876646e-03
*CONN
*I lt_pp9_6_s0:Z O
*I vs_9_9:A I
*CAP
1 pgm_pp9_6_s0:1 2.876646e-03
*RES
1 lt_pp9_6_s0:Z pgm_pp9_6_s0:1 3.264366e+00
2 pgm_pp9_6_s0:1 vs_9_9:A 1.000000e-03
*END

*D_NET pgm_pp9_6_s2 2.695930e-03
*CONN
*I lt_pp9_6_s2:Z O
*I vs_41_9:A I
*CAP
1 pgm_pp9_6_s2:1 2.695930e-03
*RES
1 lt_pp9_6_s2:Z pgm_pp9_6_s2:1 3.059293e+00
2 pgm_pp9_6_s2:1 vs_41_9:A 1.000000e-03
*END

*D_NET pgm_pp9_6_s3 4.263124e-03
*CONN
*I lt_pp9_6_s3:Z O
*I vs_58_9:A I
*CAP
1 pgm_pp9_6_s3:1 4.263124e-03
*RES
1 lt_pp9_6_s3:Z pgm_pp9_6_s3:1 4.837717e+00
2 pgm_pp9_6_s3:1 vs_58_9:A 1.000000e-03
*END

*D_NET pgm_pp9_7_s2 6.781300e-03
*CONN
*I lt_pp9_7_s2:Z O
*I vs_45_9:A I
*CAP
1 pgm_pp9_7_s2:1 6.781300e-03
*RES
1 lt_pp9_7_s2:Z pgm_pp9_7_s2:1 7.695298e+00
2 pgm_pp9_7_s2:1 vs_45_9:A 1.000000e-03
*END

*D_NET pgm_pp9_8_s0 1.261458e-02
*CONN
*I lt_pp9_8_s0:Z O
*I vs_14_9:A I
*I vs_10_9:A I
*I vs_6_9:A I
*CAP
1 pgm_pp9_8_s0:1 1.261458e-02
*RES
1 lt_pp9_8_s0:Z pgm_pp9_8_s0:1 1.431480e+01
2 pgm_pp9_8_s0:1 vs_14_9:A 1.000000e-03
3 pgm_pp9_8_s0:1 vs_10_9:A 1.000000e-03
4 pgm_pp9_8_s0:1 vs_6_9:A 1.000000e-03
*END

*D_NET pgm_pp9_8_s1 6.110329e-03
*CONN
*I lt_pp9_8_s1:Z O
*I vs_21_9:A I
*CAP
1 pgm_pp9_8_s1:1 6.110329e-03
*RES
1 lt_pp9_8_s1:Z pgm_pp9_8_s1:1 5.349199e+00
2 pgm_pp9_8_s1:1 vs_21_9:A 1.000000e-03
*END

*D_NET pgm_pp9_9_s1 4.932662e-03
*CONN
*I lt_pp9_9_s1:Z O
*I vs_30_9:A I
*CAP
1 pgm_pp9_9_s1:1 4.932662e-03
*RES
1 lt_pp9_9_s1:Z pgm_pp9_9_s1:1 5.597497e+00
2 pgm_pp9_9_s1:1 vs_30_9:A 1.000000e-03
*END

